********************************************************************************
Field Output Report, written Fri Nov 18 22:55:49 2016

Source 1
---------

   ODB: /home/lcharleux/Documents/Programmation/Python/Modules/MechanicalTest/doc/tutorials/workdir/Traction_2D_Sim1.odb
   Step: LOADING1
   Frame: Increment     24: Step Time =    1.000

Loc 1 : Integration point values from source 1

Output sorted by column "Element Label".

Field Output reported at integration points for region: I_SAMPLE.Region_1

          Element              Int          S.Mises      S.Max. In-P   S.Max. In-P(a)      S.Min. In-P      S.Out-of-Pl      S.Max. Prin   S.Max. Prin(a)      S.Mid. Prin      S.Min. Prin         S.Tresca       S.Pressure      S.Third Inv            S.S11            S.S22            S.S33            S.S12
            Label               Pt           @Loc 1           @Loc 1           @Loc 1           @Loc 1           @Loc 1           @Loc 1           @Loc 1           @Loc 1           @Loc 1           @Loc 1           @Loc 1           @Loc 1           @Loc 1           @Loc 1           @Loc 1           @Loc 1
-------------------------------------------------------------------------------------------------------------------------------------------------------------------------------------------------------------------------------------------------------------------------------------------------------------------
              385                1   2.04205933E+02   2.05743118E+02   2.05743118E+02  -7.67657757E+00   1.22053633E+01   2.05743118E+02   2.05743118E+02   1.22053633E+01  -7.67657757E+00   2.13419693E+02  -7.00906372E+01   2.02011169E+02  -7.67391682E+00   2.05740463E+02   1.22053633E+01   7.53130853E-01
              385                2   2.03737823E+02   2.05506393E+02   2.05506393E+02  -6.74399614E+00   1.15095215E+01   2.05506393E+02   2.05506393E+02   1.15095215E+01  -6.74399614E+00   2.12250381E+02  -7.00906372E+01   2.01885849E+02  -6.72442675E+00   2.05486816E+02   1.15095215E+01  -2.03797579E+00
              385                3   2.05499908E+02   2.06435425E+02   2.06435425E+02  -9.67103481E+00   1.35075245E+01   2.06435425E+02   2.06435425E+02   1.35075245E+01  -9.67103481E+00   2.16106461E+02  -7.00906372E+01   2.02527710E+02  -9.66399097E+00   2.06428375E+02   1.35075245E+01  -1.23418212E+00
              385                4   2.05082336E+02   2.06236511E+02   2.06236511E+02  -8.83651543E+00   1.28719177E+01   2.06236511E+02   2.06236511E+02   1.28719177E+01  -8.83651543E+00   2.15073029E+02  -7.00906372E+01   2.02473221E+02  -8.75904942E+00   2.06159042E+02   1.28719177E+01  -4.08106089E+00
              386                1   1.28020264E+02   1.46287048E+02   1.46287048E+02   1.50641422E+01   2.17298870E+01   1.46287048E+02   1.46287048E+02   2.17298870E+01   1.50641422E+01   1.31222916E+02  -6.10270271E+01   1.27628944E+02   2.39803238E+01   1.37370880E+02   2.17298870E+01   3.30228500E+01
              386                2   1.26070511E+02   1.45016296E+02   1.45016296E+02   1.63349094E+01   2.17298870E+01   1.45016296E+02   1.45016296E+02   2.17298870E+01   1.63349094E+01   1.28681396E+02  -6.10270348E+01   1.25810394E+02   2.46341705E+01   1.36717041E+02   2.17298870E+01   3.16082706E+01
              386                3   1.29658447E+02   1.47350723E+02   1.47350723E+02   1.40004892E+01   2.17298870E+01   1.47350723E+02   1.47350723E+02   2.17298870E+01   1.40004892E+01   1.33350235E+02  -6.10270348E+01   1.29138550E+02   2.26294518E+01   1.38721756E+02   2.17298870E+01   3.28057251E+01
              386                4   1.27631218E+02   1.46033936E+02   1.46033936E+02   1.53172827E+01   2.17298870E+01   1.46033936E+02   1.46033936E+02   2.17298870E+01   1.53172827E+01   1.30716644E+02  -6.10270348E+01   1.27267998E+02   2.33209476E+01   1.38030258E+02   2.17298870E+01   3.13393326E+01
              387                1   1.11263672E+02   1.22663536E+02   1.22663536E+02   9.89450550E+00   1.29689608E+01   1.22663536E+02   1.22663536E+02   1.29689608E+01   9.89450550E+00   1.12769035E+02  -4.85090027E+01   1.11168030E+02   1.84072628E+01   1.14150780E+02   1.29689608E+01   2.97910824E+01
              387                2   1.10622528E+02   1.22241455E+02   1.22241455E+02   1.03165932E+01   1.29689608E+01   1.22241455E+02   1.22241455E+02   1.29689608E+01   1.03165932E+01   1.11924858E+02  -4.85090027E+01   1.10550941E+02   1.83222408E+01   1.14235802E+02   1.29689608E+01   2.88433838E+01
              387                3   1.12630753E+02   1.23561142E+02   1.23561142E+02   8.99690151E+00   1.29689608E+01   1.23561142E+02   1.23561142E+02   1.29689608E+01   8.99690151E+00   1.14564240E+02  -4.85090027E+01   1.12473000E+02   1.73925133E+01   1.15165527E+02   1.29689608E+01   2.98555012E+01
              387                4   1.11942299E+02   1.23109520E+02   1.23109520E+02   9.44852734E+00   1.29689608E+01   1.23109520E+02   1.23109520E+02   1.29689608E+01   9.44852734E+00   1.13660988E+02  -4.85090027E+01   1.11817642E+02   1.73569756E+01   1.15201065E+02   1.29689608E+01   2.89195232E+01
              388                1   6.73718338E+01   6.05441628E+01   6.05441628E+01  -6.05587435E+00  -7.57381010E+00   6.05441628E+01   6.05441628E+01  -6.05587435E+00  -7.57381010E+00   6.81179733E+01  -1.56381598E+01   6.73333435E+01  -2.61674714E+00   5.71050377E+01  -7.57381010E+00   1.47383280E+01
              388                2   6.66396027E+01   6.00493584E+01   6.00493584E+01  -5.56106710E+00  -7.57381010E+00   6.00493584E+01   6.00493584E+01  -5.56106710E+00  -7.57381010E+00   6.76231689E+01  -1.56381607E+01   6.65711594E+01  -1.99280310E+00   5.64810944E+01  -7.57381010E+00   1.48789415E+01
              388                3   6.69326324E+01   6.02476158E+01   6.02476158E+01  -5.75932693E+00  -7.57381010E+00   6.02476158E+01   6.02476158E+01  -5.75932693E+00  -7.57381010E+00   6.78214264E+01  -1.56381598E+01   6.68772659E+01  -2.57247400E+00   5.70607643E+01  -7.57381010E+00   1.41491451E+01
              388                4   6.61907120E+01   5.97450180E+01   5.97450180E+01  -5.25672770E+00  -7.57381010E+00   5.97450180E+01   5.97450180E+01  -5.25672770E+00  -7.57381010E+00   6.73188248E+01  -1.56381598E+01   6.60993652E+01  -1.94838917E+00   5.64366798E+01  -7.57381010E+00   1.42864466E+01
              389                1   1.28425858E+02   1.45965210E+02   1.45965210E+02   1.38541880E+01   2.15726509E+01   1.45965210E+02   1.45965210E+02   2.15726509E+01   1.38541880E+01   1.32111023E+02  -6.04640160E+01   1.27902458E+02   2.60573006E+01   1.33762100E+02   2.15726509E+01   3.82524414E+01
              389                2   1.25639458E+02   1.44154190E+02   1.44154190E+02   1.56652126E+01   2.15726509E+01   1.44154190E+02   1.44154190E+02   2.15726509E+01   1.56652126E+01   1.28488968E+02  -6.04640160E+01   1.25326416E+02   2.67163277E+01   1.33103073E+02   2.15726509E+01   3.60252533E+01
              389                3   1.30680130E+02   1.47422867E+02   1.47422867E+02   1.23965225E+01   2.15726509E+01   1.47422867E+02   1.47422867E+02   2.15726509E+01   1.23965225E+01   1.35026352E+02  -6.04640160E+01   1.29952332E+02   2.42434692E+01   1.35575928E+02   2.15726509E+01   3.82007828E+01
              389                4   1.27892464E+02   1.45619339E+02   1.45619339E+02   1.42000551E+01   2.15726509E+01   1.45619339E+02   1.45619339E+02   2.15726509E+01   1.42000551E+01   1.31419281E+02  -6.04640160E+01   1.27413033E+02   2.48478184E+01   1.34971573E+02   2.15726509E+01   3.58600998E+01
              390                1   1.10385841E+02   1.21493851E+02   1.21493851E+02   9.26625061E+00   1.30469046E+01   1.21493851E+02   1.21493851E+02   1.30469046E+01   9.26625061E+00   1.12227600E+02  -4.79356689E+01   1.10240021E+02   2.03167820E+01   1.10443314E+02   1.30469046E+01   3.34374123E+01
              390                2   1.09623756E+02   1.20993629E+02   1.20993629E+02   9.76647472E+00   1.30469046E+01   1.20993629E+02   1.20993629E+02   1.30469046E+01   9.76647472E+00   1.11227150E+02  -4.79356689E+01   1.09513237E+02   2.03573418E+01   1.10402756E+02   1.30469046E+01   3.26469879E+01
              390                3   1.11414780E+02   1.22167648E+02   1.22167648E+02   8.59245205E+00   1.30469046E+01   1.22167648E+02   1.22167648E+02   1.30469046E+01   8.59245205E+00   1.13575195E+02  -4.79356689E+01   1.11214157E+02   1.95132408E+01   1.11246857E+02   1.30469046E+01   3.34823456E+01
              390                4   1.10704239E+02   1.21702545E+02   1.21702545E+02   9.05755615E+00   1.30469046E+01   1.21702545E+02   1.21702545E+02   1.30469046E+01   9.05755615E+00   1.12644989E+02  -4.79356689E+01   1.10542336E+02   1.95297203E+01   1.11230377E+02   1.30469046E+01   3.27104111E+01
              391                1   2.87317791E+01   2.09176292E+01   2.09176292E+01  -1.38361442E+00  -1.15051804E+01   2.09176292E+01   2.09176292E+01  -1.38361442E+00  -1.15051804E+01   3.24228096E+01  -2.67627835E+00   2.42033482E+01   3.16634083E+00   1.63676758E+01  -1.15051804E+01   8.98707771E+00
              391                2   2.84607430E+01   2.06834755E+01   2.06834755E+01  -1.14946055E+00  -1.15051804E+01   2.06834755E+01   2.06834755E+01  -1.14946055E+00  -1.15051804E+01   3.21886559E+01  -2.67627835E+00   2.36268272E+01   3.62081432E+00   1.59132023E+01  -1.15051804E+01   9.02183914E+00
              391                3   2.83139286E+01   2.05554676E+01   2.05554676E+01  -1.02145064E+00  -1.15051804E+01   2.05554676E+01   2.05554676E+01  -1.02145064E+00  -1.15051804E+01   3.20606499E+01  -2.67627907E+00   2.33048267E+01   3.08515382E+00   1.64488640E+01  -1.15051804E+01   8.47016335E+00
              391                4   2.80332623E+01   2.03083210E+01   2.03083210E+01  -7.74305046E-01  -1.15051804E+01   2.03083210E+01   2.03083210E+01  -7.74305046E-01  -1.15051804E+01   3.18135014E+01  -2.67627835E+00   2.26681786E+01   3.53293109E+00   1.60010853E+01  -1.15051804E+01   8.50032711E+00
              392                1   3.98251648E+01   3.27963638E+01   3.27963638E+01  -2.37830687E+00  -1.04444456E+01   3.27963638E+01   3.27963638E+01  -2.37830687E+00  -1.04444456E+01   4.32408104E+01  -6.65786982E+00   3.79214249E+01   4.02570152E+00   2.63923550E+01  -1.04444456E+01   1.35737820E+01
              392                2   3.93990860E+01   3.24735107E+01   3.24735107E+01  -2.05545545E+00  -1.04444456E+01   3.24735107E+01   3.24735107E+01  -2.05545545E+00  -1.04444456E+01   4.29179573E+01  -6.65786982E+00   3.73094215E+01   3.44158697E+00   2.69764690E+01  -1.04444456E+01   1.26328831E+01
              392                3   4.13126144E+01   3.39051170E+01   3.39051170E+01  -3.48706102E+00  -1.04444456E+01   3.39051170E+01   3.39051170E+01  -3.48706102E+00  -1.04444456E+01   4.43495636E+01  -6.65786982E+00   3.99625778E+01   3.49298787E+00   2.69250679E+01  -1.04444456E+01   1.45697689E+01
              392                4   4.07386475E+01   3.34804688E+01   3.34804688E+01  -3.06241393E+00  -1.04444456E+01   3.34804688E+01   3.34804688E+01  -3.06241393E+00  -1.04444456E+01   4.39249153E+01  -6.65786982E+00   3.91912880E+01   2.86104369E+00   2.75570126E+01  -1.04444456E+01   1.34674749E+01
              393                1   5.23535576E+01   4.86650696E+01   4.86650696E+01  -1.36615193E+00  -5.73680973E+00   4.86650696E+01   4.86650696E+01  -1.36615193E+00  -5.73680973E+00   5.44018784E+01  -1.38540354E+01   5.19407158E+01   1.45555763E+01   3.27433395E+01  -5.73680973E+00   2.33041210E+01
              393                2   5.07567139E+01   4.75429115E+01   4.75429115E+01  -2.43995503E-01  -5.73680973E+00   4.75429115E+01   4.75429115E+01  -2.43995503E-01  -5.73680973E+00   5.32797203E+01  -1.38540354E+01   5.00814972E+01   1.39077988E+01   3.33911171E+01  -5.73680973E+00   2.18173599E+01
              393                3   5.49418907E+01   5.04515648E+01   5.04515648E+01  -3.15264916E+00  -5.73680973E+00   5.04515648E+01   5.04515648E+01  -3.15264916E+00  -5.73680973E+00   5.61883736E+01  -1.38540354E+01   5.48049088E+01   1.30007515E+01   3.42981644E+01  -5.73680973E+00   2.45958939E+01
              393                4   5.33634834E+01   4.93665657E+01   4.93665657E+01  -2.06764817E+00  -5.73680973E+00   4.93665657E+01   4.93665657E+01  -2.06764817E+00  -5.73680973E+00   5.51033745E+01  -1.38540354E+01   5.30785637E+01   1.21819305E+01   3.51169853E+01  -5.73680973E+00   2.30188046E+01
              394                1   3.72823029E+01   2.99271622E+01   2.99271622E+01  -2.68998337E+00  -1.07137241E+01   2.99271622E+01   2.99271622E+01  -2.68998337E+00  -1.07137241E+01   4.06408882E+01  -5.50781822E+00   3.52602806E+01   3.39977717E+00   2.38374023E+01  -1.07137241E+01   1.27100515E+01
              394                2   3.64758911E+01   2.93075352E+01   2.93075352E+01  -2.07035613E+00  -1.07137241E+01   2.93075352E+01   2.93075352E+01  -2.07035613E+00  -1.07137241E+01   4.00212593E+01  -5.50781822E+00   3.40555153E+01   4.20452547E+00   2.30326538E+01  -1.07137241E+01   1.25506334E+01
              394                3   3.66918831E+01   2.94745350E+01   2.94745350E+01  -2.23735356E+00  -1.07137241E+01   2.94745350E+01   2.94745350E+01  -2.23735356E+00  -1.07137241E+01   4.01882591E+01  -5.50781870E+00   3.43839035E+01   3.01514935E+00   2.42220306E+01  -1.07137241E+01   1.17888937E+01
              394                4   3.57815361E+01   2.87651711E+01   2.87651711E+01  -1.52799249E+00  -1.07137241E+01   2.87651711E+01   2.87651711E+01  -1.52799249E+00  -1.07137241E+01   3.94788971E+01  -5.50781822E+00   3.29685707E+01   3.87459373E+00   2.33625851E+01  -1.07137241E+01   1.15962706E+01
              395                1   3.11615200E+01   2.37982235E+01   2.37982235E+01  -1.08965456E+00  -1.11509476E+01   2.37982235E+01   2.37982235E+01  -1.08965456E+00  -1.11509476E+01   3.49491692E+01  -3.85254025E+00   2.71288643E+01   4.20690250E+00   1.85016670E+01  -1.11509476E+01   1.01865864E+01
              395                2   3.15204811E+01   2.40960178E+01   2.40960178E+01  -1.38744855E+00  -1.11509476E+01   2.40960178E+01   2.40960178E+01  -1.38744855E+00  -1.11509476E+01   3.52469635E+01  -3.85254025E+00   2.78001518E+01   3.70325160E+00   1.90053177E+01  -1.11509476E+01   1.01888885E+01
              395                3   3.16776314E+01   2.42252712E+01   2.42252712E+01  -1.51670218E+00  -1.11509476E+01   2.42252712E+01   2.42252712E+01  -1.51670218E+00  -1.11509476E+01   3.53762169E+01  -3.85254025E+00   2.80864010E+01   4.32671070E+00   1.83818588E+01  -1.11509476E+01   1.07831116E+01
              395                4   3.20388870E+01   2.45199566E+01   2.45199566E+01  -1.81138659E+00  -1.11509476E+01   2.45199566E+01   2.45199566E+01  -1.81138659E+00  -1.11509476E+01   3.56709061E+01  -3.85254097E+00   2.87283020E+01   3.79779959E+00   1.89107704E+01  -1.11509476E+01   1.07812080E+01
              396                1   1.54827850E+02   1.82291534E+02   1.82291534E+02   2.24050446E+01   3.30742264E+01   1.82291534E+02   1.82291534E+02   3.30742264E+01   2.24050446E+01   1.59886490E+02  -7.92569351E+01   1.53997513E+02   2.74658909E+01   1.77230682E+02   3.30742264E+01   2.79919548E+01
              396                2   1.51493835E+02   1.80133224E+02   1.80133224E+02   2.45633450E+01   3.30742264E+01   1.80133224E+02   1.80133224E+02   3.30742264E+01   2.45633450E+01   1.55569870E+02  -7.92569275E+01   1.50954559E+02   2.93181019E+01   1.75378464E+02   3.30742264E+01   2.67785187E+01
              396                3   1.55603226E+02   1.82791794E+02   1.82791794E+02   2.19047909E+01   3.30742264E+01   1.82791794E+02   1.82791794E+02   3.30742264E+01   2.19047909E+01   1.60886993E+02  -7.92569351E+01   1.54697433E+02   2.61312733E+01   1.78565308E+02   3.30742264E+01   2.57317429E+01
              396                4   1.52313339E+02   1.80664856E+02   1.80664856E+02   2.40317039E+01   3.30742264E+01   1.80664856E+02   1.80664856E+02   3.30742264E+01   2.40317039E+01   1.56633148E+02  -7.92569275E+01   1.51707672E+02   2.79543686E+01   1.76742203E+02   3.30742264E+01   2.44751053E+01
              397                1   1.43219620E+02   1.71413528E+02   1.71413528E+02   2.51138344E+01   3.14867401E+01   1.71413528E+02   1.71413528E+02   3.14867401E+01   2.51138344E+01   1.46299698E+02  -7.60046997E+01   1.42900085E+02   2.84977779E+01   1.68029587E+02   3.14867401E+01   2.19913197E+01
              397                2   1.44368332E+02   1.72162384E+02   1.72162384E+02   2.43649712E+01   3.14867401E+01   1.72162384E+02   1.72162384E+02   3.14867401E+01   2.43649712E+01   1.47797424E+02  -7.60046997E+01   1.43972321E+02   2.71471386E+01   1.69380219E+02   3.14867401E+01   2.00862389E+01
              397                3   1.45806259E+02   1.73097504E+02   1.73097504E+02   2.34298534E+01   3.14867401E+01   1.73097504E+02   1.73097504E+02   3.14867401E+01   2.34298534E+01   1.49667648E+02  -7.60046997E+01   1.45304153E+02   2.73497372E+01   1.69177628E+02   3.14867401E+01   2.39021626E+01
              397                4   1.46814178E+02   1.73751511E+02   1.73751511E+02   2.27758427E+01   3.14867401E+01   1.73751511E+02   1.73751511E+02   3.14867401E+01   2.27758427E+01   1.50975677E+02  -7.60046997E+01   1.46231049E+02   2.60448112E+01   1.70482544E+02   3.14867401E+01   2.19738293E+01
              398                1   2.00885468E+02   1.96469696E+02   1.96469696E+02  -5.68743515E+00  -3.11948586E+00   1.96469696E+02   1.96469696E+02  -3.11948586E+00  -5.68743515E+00   2.02157120E+02  -6.25542564E+01   2.00848526E+02  -5.60330725E+00   1.96385559E+02  -3.11948586E+00   4.12322807E+00
              398                2   2.01842300E+02   1.97097427E+02   1.97097427E+02  -6.64251661E+00  -2.79214764E+00   1.97097427E+02   1.97097427E+02  -2.79214764E+00  -6.64251661E+00   2.03739944E+02  -6.25542564E+01   2.01759644E+02  -6.58116531E+00   1.97036072E+02  -2.79214764E+00   3.53507566E+00
              398                3   2.01247559E+02   1.96705673E+02   1.96705673E+02  -6.17674780E+00  -2.86616445E+00   1.96705673E+02   1.96705673E+02  -2.86616445E+00  -6.17674780E+00   2.02882431E+02  -6.25542564E+01   2.01186279E+02  -6.02095652E+00   1.96549881E+02  -2.86616445E+00   5.61999035E+00
              398                4   2.02163940E+02   1.97304840E+02   1.97304840E+02  -7.08576632E+00  -2.55631304E+00   1.97304840E+02   1.97304840E+02  -2.55631304E+00  -7.08576632E+00   2.04390610E+02  -6.25542488E+01   2.02049728E+02  -6.96306038E+00   1.97182129E+02  -2.55631304E+00   5.00652552E+00
              399                1   1.48349274E+02   1.69208603E+02   1.69208603E+02   1.46459599E+01   2.79718647E+01   1.69208603E+02   1.69208603E+02   2.79718647E+01   1.46459599E+01   1.54562653E+02  -7.06088104E+01   1.46993652E+02   2.86190777E+01   1.55235489E+02   2.79718647E+01   4.43223915E+01
              399                2   1.49281570E+02   1.69804733E+02   1.69804733E+02   1.40498343E+01   2.79718647E+01   1.69804733E+02   1.69804733E+02   2.79718647E+01   1.40498343E+01   1.55754898E+02  -7.06088104E+01   1.47810425E+02   2.85518780E+01   1.55302689E+02   2.79718647E+01   4.52598648E+01
              399                3   1.46882095E+02   1.68268753E+02   1.68268753E+02   1.55858345E+01   2.79718647E+01   1.68268753E+02   1.68268753E+02   2.79718647E+01   1.55858345E+01   1.52682922E+02  -7.06088181E+01   1.45700195E+02   2.97221794E+01   1.54132401E+02   2.79718647E+01   4.42554245E+01
              399                4   1.47881409E+02   1.68909134E+02   1.68909134E+02   1.49454374E+01   2.79718647E+01   1.68909134E+02   1.68909134E+02   2.79718647E+01   1.49454374E+01   1.53963699E+02  -7.06088104E+01   1.46582275E+02   2.95619659E+01   1.54292603E+02   2.79718647E+01   4.51306076E+01
              400                1   3.99618034E+01   3.29579506E+01   3.29579506E+01  -2.42595625E+00  -1.03841467E+01   3.29579506E+01   3.29579506E+01  -2.42595625E+00  -1.03841467E+01   4.33420982E+01  -6.71595001E+00   3.81172905E+01   3.17639041E+00   2.73556061E+01  -1.03841467E+01   1.29169121E+01
              400                2   3.95166397E+01   3.26214485E+01   3.26214485E+01  -2.08944917E+00  -1.03841467E+01   3.26214485E+01   3.26214485E+01  -2.08944917E+00  -1.03841467E+01   4.30055923E+01  -6.71595001E+00   3.74821472E+01   2.66235566E+00   2.78696423E+01  -1.03841467E+01   1.19314604E+01
              400                3   4.12669258E+01   3.39299507E+01   3.39299507E+01  -3.39795208E+00  -1.03841467E+01   3.39299507E+01   3.39299507E+01  -3.39795208E+00  -1.03841467E+01   4.43140945E+01  -6.71595001E+00   3.99038239E+01   2.58300900E+00   2.79489880E+01  -1.03841467E+01   1.36925106E+01
              400                4   4.07863846E+01   3.35744591E+01   3.35744591E+01  -3.04246330E+00  -1.03841467E+01   3.35744591E+01   3.35744591E+01  -3.04246330E+00  -1.03841467E+01   4.39586067E+01  -6.71595001E+00   3.92582664E+01   2.07018352E+00   2.84618130E+01  -1.03841467E+01   1.26913443E+01
              401                1   3.31712875E+01   2.56195965E+01   2.56195965E+01  -2.07303143E+00  -1.11433735E+01   2.56195965E+01   2.56195965E+01  -2.07303143E+00  -1.11433735E+01   3.67629700E+01  -4.13439703E+00   3.01866512E+01   2.96927762E+00   2.05772858E+01  -1.11433735E+01   1.06869040E+01
              401                2   3.27527237E+01   2.52833729E+01   2.52833729E+01  -1.73681152E+00  -1.11433735E+01   2.52833729E+01   2.52833729E+01  -1.73681152E+00  -1.11433735E+01   3.64267464E+01  -4.13439608E+00   2.94761124E+01   3.51778102E+00   2.00287819E+01  -1.11433735E+01   1.06943588E+01
              401                3   3.26917038E+01   2.52340202E+01   2.52340202E+01  -1.68745840E+00  -1.11433735E+01   2.52340202E+01   2.52340202E+01  -1.68745840E+00  -1.11433735E+01   3.63773956E+01  -4.13439608E+00   2.93704052E+01   2.82930446E+00   2.07172585E+01  -1.11433735E+01   1.00596609E+01
              401                4   3.22426491E+01   2.48680038E+01   2.48680038E+01  -1.32143950E+00  -1.11433735E+01   2.48680038E+01   2.48680038E+01  -1.32143950E+00  -1.11433735E+01   3.60113754E+01  -4.13439703E+00   2.85743694E+01   3.37817717E+00   2.01683865E+01  -1.11433735E+01   1.00495749E+01
              402                1   2.57641830E+01   1.75426922E+01   1.75426922E+01  -1.10593379E+00  -1.18556004E+01   1.75426922E+01   1.75426922E+01  -1.10593379E+00  -1.18556004E+01   2.93982925E+01  -1.52705252E+00   1.96768837E+01   2.47297430E+00   1.39637842E+01  -1.18556004E+01   7.34391785E+00
              402                2   2.53994331E+01   1.72029305E+01   1.72029305E+01  -7.66172886E-01  -1.18556004E+01   1.72029305E+01   1.72029305E+01  -7.66172886E-01  -1.18556004E+01   2.90585308E+01  -1.52705252E+00   1.86574173E+01   2.95769072E+00   1.34790678E+01  -1.18556004E+01   7.28335953E+00
              402                3   2.54131298E+01   1.72158337E+01   1.72158337E+01  -7.79074907E-01  -1.18556004E+01   1.72158337E+01   1.72158337E+01  -7.79074907E-01  -1.18556004E+01   2.90714340E+01  -1.52705252E+00   1.86974697E+01   2.33344889E+00   1.41033096E+01  -1.18556004E+01   6.80600977E+00
              402                4   2.50371494E+01   1.68573265E+01   1.68573265E+01  -4.20566082E-01  -1.18556004E+01   1.68573265E+01   1.68573265E+01  -4.20566082E-01  -1.18556004E+01   2.87129269E+01  -1.52705324E+00   1.75378609E+01   2.81252766E+00   1.36242313E+01  -1.18556004E+01   6.73855734E+00
              403                1   1.21333595E+02   1.37575134E+02   1.37575134E+02   1.39337168E+01   1.86891994E+01   1.37575134E+02   1.37575134E+02   1.86891994E+01   1.39337168E+01   1.23641418E+02  -5.67326813E+01   1.21123657E+02   2.16360683E+01   1.29872787E+02   1.86891994E+01   2.98831596E+01
              403                2   1.20599571E+02   1.37094513E+02   1.37094513E+02   1.44143438E+01   1.86891994E+01   1.37094513E+02   1.37094513E+02   1.86891994E+01   1.44143438E+01   1.22680161E+02  -5.67326813E+01   1.20428940E+02   2.17312069E+01   1.29777649E+02   1.86891994E+01   2.90533524E+01
              403                3   1.22361900E+02   1.38247086E+02   1.38247086E+02   1.32617702E+01   1.86891994E+01   1.38247086E+02   1.38247086E+02   1.86891994E+01   1.32617702E+01   1.24985313E+02  -5.67326813E+01   1.22090652E+02   2.08073463E+01   1.30701508E+02   1.86891994E+01   2.97682724E+01
              403                4   1.21598465E+02   1.37748367E+02   1.37748367E+02   1.37604837E+01   1.86891994E+01   1.37748367E+02   1.37748367E+02   1.86891994E+01   1.37604837E+01   1.23987885E+02  -5.67326813E+01   1.21373428E+02   2.09262600E+01   1.30582596E+02   1.86891994E+01   2.89330406E+01
              404                1   1.96553467E+02   1.93827774E+02   1.93827774E+02  -3.45829678E+00  -1.98480797E+00   1.93827774E+02   1.93827774E+02  -1.98480797E+00  -3.45829678E+00   1.97286072E+02  -6.27948914E+01   1.96541031E+02  -3.40095282E+00   1.93770432E+02  -1.98480797E+00   3.36294293E+00
              404                2   1.97570618E+02   1.94502808E+02   1.94502808E+02  -4.13269901E+00  -1.98544753E+00   1.94502808E+02   1.94502808E+02  -1.98544753E+00  -4.13269901E+00   1.98635498E+02  -6.27948875E+01   1.97544373E+02  -4.08199739E+00   1.94452103E+02  -1.98544753E+00   3.17299318E+00
              404                3   1.96903793E+02   1.94060394E+02   1.94060394E+02  -3.69057727E+00  -1.98515511E+00   1.94060394E+02   1.94060394E+02  -1.98515511E+00  -3.69057727E+00   1.97750961E+02  -6.27948875E+01   1.96887177E+02  -3.60466909E+00   1.93974487E+02  -1.98515511E+00   4.12065792E+00
              404                4   1.97909729E+02   1.94727600E+02   1.94727600E+02  -4.35715008E+00  -1.98579025E+00   1.94727600E+02   1.94727600E+02  -1.98579025E+00  -4.35715008E+00   1.99084747E+02  -6.27948875E+01   1.97877762E+02  -4.27905464E+00   1.94649506E+02  -1.98579025E+00   3.94232225E+00
              405                1   1.20831406E+02   1.36477814E+02   1.36477814E+02   1.30501022E+01   1.84218750E+01   1.36477814E+02   1.36477814E+02   1.84218750E+01   1.30501022E+01   1.23427704E+02  -5.59832611E+01   1.20562317E+02   2.31515179E+01   1.26376396E+02   1.84218750E+01   3.38342400E+01
              405                2   1.19803444E+02   1.35806107E+02   1.35806107E+02   1.37217960E+01   1.84218750E+01   1.35806107E+02   1.35806107E+02   1.84218750E+01   1.37217960E+01   1.22084320E+02  -5.59832611E+01   1.19595741E+02   2.32062988E+01   1.26321609E+02   1.84218750E+01   3.26795540E+01
              405                3   1.22059944E+02   1.37278488E+02   1.37278488E+02   1.22494230E+01   1.84218750E+01   1.37278488E+02   1.37278488E+02   1.84218750E+01   1.22494230E+01   1.25029060E+02  -5.59832611E+01   1.21708069E+02   2.20688076E+01   1.27459106E+02   1.84218750E+01   3.36346245E+01
              405                4   1.21065697E+02   1.36630676E+02   1.36630676E+02   1.28972321E+01   1.84218750E+01   1.36630676E+02   1.36630676E+02   1.84218750E+01   1.28972321E+01   1.23733444E+02  -5.59832611E+01   1.20781601E+02   2.21562767E+01   1.27371635E+02   1.84218750E+01   3.25564613E+01
              406                1   3.75262794E+01   3.01275349E+01   3.01275349E+01  -2.80246067E+00  -1.07287130E+01   3.01275349E+01   3.01275349E+01  -2.80246067E+00  -1.07287130E+01   4.08562469E+01  -5.53212118E+00   3.55689850E+01   2.41156554E+00   2.49135094E+01  -1.07287130E+01   1.20213060E+01
              406                2   3.68439789E+01   2.96056194E+01   2.96056194E+01  -2.28054500E+00  -1.07287130E+01   2.96056194E+01   2.96056194E+01  -2.28054500E+00  -1.07287130E+01   4.03343315E+01  -5.53212118E+00   3.45624886E+01   3.04946089E+00   2.42756138E+01  -1.07287130E+01   1.18972473E+01
              406                3   3.70109634E+01   2.97340260E+01   2.97340260E+01  -2.40895081E+00  -1.07287130E+01   2.97340260E+01   2.97340260E+01  -2.40895081E+00  -1.07287130E+01   4.04627380E+01  -5.53212118E+00   3.48124886E+01   2.19447470E+00   2.51306000E+01  -1.07287130E+01   1.12594976E+01
              406                4   3.62907143E+01   2.91768627E+01   2.91768627E+01  -1.85179019E+00  -1.07287130E+01   2.91768627E+01   2.91768627E+01  -1.85179019E+00  -1.07287130E+01   3.99055748E+01  -5.53211975E+00   3.37157288E+01   2.83517933E+00   2.44898949E+01  -1.07287130E+01   1.11113749E+01
              407                1   1.12511497E+02   1.24259651E+02   1.24259651E+02   1.03872461E+01   1.31603231E+01   1.24259651E+02   1.24259651E+02   1.31603231E+01   1.03872461E+01   1.13872406E+02  -4.92690735E+01   1.12434570E+02   1.69861832E+01   1.17660713E+02   1.31603231E+01   2.66062183E+01
              407                2   1.11896057E+02   1.23853920E+02   1.23853920E+02   1.07929754E+01   1.31603231E+01   1.23853920E+02   1.23853920E+02   1.31603231E+01   1.07929754E+01   1.13060944E+02  -4.92690735E+01   1.11839691E+02   1.69833012E+01   1.17663597E+02   1.31603231E+01   2.57208824E+01
              407                3   1.13638062E+02   1.25000610E+02   1.25000610E+02   9.64628601E+00   1.31603231E+01   1.25000610E+02   1.25000610E+02   1.31603231E+01   9.64628601E+00   1.15354324E+02  -4.92690735E+01   1.13515717E+02   1.61360645E+01   1.18510834E+02   1.31603231E+01   2.65801926E+01
              407                4   1.13042183E+02   1.24608963E+02   1.24608963E+02   1.00379324E+01   1.31603231E+01   1.24608963E+02   1.24608963E+02   1.31603231E+01   1.00379324E+01   1.14571030E+02  -4.92690735E+01   1.12945099E+02   1.61149349E+01   1.18531960E+02   1.31603231E+01   2.56772022E+01
              408                1   1.13638763E+02   1.25908234E+02   1.25908234E+02   1.10282736E+01   1.35527391E+01   1.25908234E+02   1.25908234E+02   1.35527391E+01   1.10282736E+01   1.14879959E+02  -5.01630821E+01   1.13575645E+02   1.60717545E+01   1.20864754E+02   1.35527391E+01   2.35363159E+01
              408                2   1.13272224E+02   1.25666397E+02   1.25666397E+02   1.12701092E+01   1.35527391E+01   1.25666397E+02   1.25666397E+02   1.35527391E+01   1.12701092E+01   1.14396294E+02  -5.01630821E+01   1.13220467E+02   1.60874805E+01   1.20849030E+02   1.35527391E+01   2.29756870E+01
              408                3   1.14364143E+02   1.26386139E+02   1.26386139E+02   1.05503721E+01   1.35527391E+01   1.26386139E+02   1.26386139E+02   1.35527391E+01   1.05503721E+01   1.15835762E+02  -5.01630821E+01   1.14275421E+02   1.55203390E+01   1.21416168E+02   1.35527391E+01   2.34733772E+01
              408                4   1.14025414E+02   1.26163086E+02   1.26163086E+02   1.07734222E+01   1.35527391E+01   1.26163086E+02   1.26163086E+02   1.35527391E+01   1.07734222E+01   1.15389664E+02  -5.01630821E+01   1.13949165E+02   1.55180140E+01   1.21418495E+02   1.35527391E+01   2.29121265E+01
              409                1   2.09115967E+02   2.07709579E+02   2.07709579E+02  -5.23772144E+00   2.64805508E+00   2.07709579E+02   2.07709579E+02   2.64805508E+00  -5.23772144E+00   2.12947311E+02  -6.83733063E+01   2.08781036E+02  -5.14275932E+00   2.07614624E+02   2.64805508E+00   4.49583387E+00
              409                2   2.09518555E+02   2.07965195E+02   2.07965195E+02  -5.69515276E+00   2.84987760E+00   2.07965195E+02   2.07965195E+02   2.84987760E+00  -5.69515276E+00   2.13660339E+02  -6.83733063E+01   2.09125961E+02  -5.59122515E+00   2.07861267E+02   2.84987760E+00   4.71093464E+00
              409                3   2.09061981E+02   2.07677032E+02   2.07677032E+02  -5.12903976E+00   2.57193327E+00   2.07677032E+02   2.07677032E+02   2.57193327E+00  -5.12903976E+00   2.12806061E+02  -6.83733063E+01   2.08742508E+02  -5.00967741E+00   2.07557663E+02   2.57193327E+00   5.03859997E+00
              409                4   2.09362869E+02   2.07869400E+02   2.07869400E+02  -5.44481134E+00   2.69533324E+00   2.07869400E+02   2.07869400E+02   2.69533324E+00  -5.44481134E+00   2.13314209E+02  -6.83733063E+01   2.09006363E+02  -5.31226015E+00   2.07736847E+02   2.69533324E+00   5.31586409E+00
              410                1   3.70603676E+01   3.92521667E+01   3.92521667E+01   1.73941731E+00   2.66138792E+00   3.92521667E+01   3.92521667E+01   2.66138792E+00   1.73941731E+00   3.75127487E+01  -1.45509911E+01   3.70345497E+01   3.54502606E+00   3.74465599E+01   2.66138792E+00   8.02951336E+00
              410                2   3.70303459E+01   3.92323914E+01   3.92323914E+01   1.75919187E+00   2.66138792E+00   3.92323914E+01   3.92323914E+01   2.66138792E+00   1.75919187E+00   3.74732018E+01  -1.45509911E+01   3.70056076E+01   3.60036492E+00   3.73912201E+01   2.66138792E+00   8.09967422E+00
              410                3   3.69118347E+01   3.91542816E+01   3.91542816E+01   1.83730793E+00   2.66138792E+00   3.91542816E+01   3.91542816E+01   2.66138792E+00   1.83730793E+00   3.73169746E+01  -1.45509920E+01   3.68911247E+01   3.62386966E+00   3.73677177E+01   2.66138792E+00   7.96726513E+00
              410                4   3.68840065E+01   3.91359291E+01   3.91359291E+01   1.85565925E+00   2.66138792E+00   3.91359291E+01   3.91359291E+01   2.66138792E+00   1.85565925E+00   3.72802696E+01  -1.45509920E+01   3.68641968E+01   3.67793226E+00   3.73136559E+01   2.66138792E+00   8.03829384E+00
              411                1   3.66188049E+01   3.86181793E+01   3.86181793E+01   1.58213520E+00   2.43138361E+00   3.86181793E+01   3.86181793E+01   2.43138361E+00   1.58213520E+00   3.70360413E+01  -1.42105665E+01   3.65966377E+01   3.22950053E+00   3.69708138E+01   2.43138361E+00   7.63531637E+00
              411                2   3.66597366E+01   3.86451530E+01   3.86451530E+01   1.55516016E+00   2.43138361E+00   3.86451530E+01   3.86451530E+01   2.43138361E+00   1.55516016E+00   3.70899925E+01  -1.42105665E+01   3.66361618E+01   3.17973781E+00   3.70205765E+01   2.43138361E+00   7.59053993E+00
              411                3   3.67251015E+01   3.86882133E+01   3.86882133E+01   1.51209998E+00   2.43138361E+00   3.86882133E+01   3.86882133E+01   2.43138361E+00   1.51209998E+00   3.71761131E+01  -1.42105665E+01   3.66991997E+01   3.17891169E+00   3.70214005E+01   2.43138361E+00   7.69333267E+00
              411                4   3.67668915E+01   3.87157288E+01   3.87157288E+01   1.48458326E+00   2.43138361E+00   3.87157288E+01   3.87157288E+01   2.43138361E+00   1.48458326E+00   3.72311478E+01  -1.42105665E+01   3.67394447E+01   3.12864351E+00   3.70716705E+01   2.43138361E+00   7.64900637E+00
              412                1   1.07326294E+02   1.13549911E+02   1.13549911E+02   5.43640280E+00   7.02854586E+00   1.13549911E+02   1.13549911E+02   7.02854586E+00   5.43640280E+00   1.08113510E+02  -4.20049553E+01   1.07299713E+02   8.97955418E+00   1.10006760E+02   7.02854586E+00   1.92485981E+01
              412                2   1.06582771E+02   1.13057297E+02   1.13057297E+02   5.92901659E+00   7.02854586E+00   1.13057297E+02   1.13057297E+02   7.02854586E+00   5.92901659E+00   1.07128281E+02  -4.20049553E+01   1.06570000E+02   9.50634003E+00   1.09479973E+02   7.02854586E+00   1.92466946E+01
              412                3   1.07109848E+02   1.13406616E+02   1.13406616E+02   5.57969713E+00   7.02854586E+00   1.13406616E+02   1.13406616E+02   7.02854586E+00   5.57969713E+00   1.07826920E+02  -4.20049553E+01   1.07087791E+02   8.94195366E+00   1.10044357E+02   7.02854586E+00   1.87413235E+01
              412                4   1.06352325E+02   1.12904396E+02   1.12904396E+02   6.08191538E+00   7.02854586E+00   1.12904396E+02   1.12904396E+02   7.02854586E+00   6.08191538E+00   1.06822479E+02  -4.20049553E+01   1.06342842E+02   9.47556019E+00   1.09510750E+02   7.02854586E+00   1.87350216E+01
              413                1   1.93028717E+02   1.92113800E+02   1.92113800E+02  -1.37725914E+00  -4.49227005E-01   1.92113800E+02   1.92113800E+02  -4.49227005E-01  -1.37725914E+00   1.93491058E+02  -6.34291039E+01   1.93023697E+02  -1.34717321E+00   1.92083710E+02  -4.49227005E-01   2.41277242E+00
              413                2   1.93867096E+02   1.92670990E+02   1.92670990E+02  -1.93394244E+00  -4.49733436E-01   1.92670990E+02   1.92670990E+02  -4.49733436E-01  -1.93394244E+00   1.94604935E+02  -6.34291039E+01   1.93854309E+02  -1.90791917E+00   1.92644958E+02  -4.49733436E-01   2.25049877E+00
              413                3   1.93304489E+02   1.92297165E+02   1.92297165E+02  -1.56036544E+00  -4.49491024E-01   1.92297165E+02   1.92297165E+02  -4.49491024E-01  -1.56036544E+00   1.93857529E+02  -6.34291039E+01   1.93297302E+02  -1.51252699E+00   1.92249329E+02  -4.49491024E-01   3.04490924E+00
              413                4   1.94145355E+02   1.92855759E+02   1.92855759E+02  -2.11845207E+00  -4.50001419E-01   1.92855759E+02   1.92855759E+02  -4.50001419E-01  -2.11845207E+00   1.94974213E+02  -6.34291039E+01   1.94129227E+02  -2.07550001E+00   1.92812805E+02  -4.50001419E-01   2.89354444E+00
              414                1   5.80010300E+01   5.12798119E+01   5.12798119E+01  -4.42155218E+00  -8.77549553E+00   5.12798119E+01   5.12798119E+01  -4.42155218E+00  -8.77549553E+00   6.00553093E+01  -1.26942549E+01   5.76316414E+01   2.55086565E+00   4.43073959E+01  -8.77549553E+00   1.84325409E+01
              414                2   5.73821335E+01   5.08491440E+01   5.08491440E+01  -3.99088240E+00  -8.77549553E+00   5.08491440E+01   5.08491440E+01  -3.99088240E+00  -8.77549553E+00   5.96246376E+01  -1.26942549E+01   5.69307518E+01   2.37516427E+00   4.44830971E+01  -8.77549553E+00   1.75666618E+01
              414                3   5.91656380E+01   5.20847588E+01   5.20847588E+01  -5.22649670E+00  -8.77549553E+00   5.20847588E+01   5.20847588E+01  -5.22649670E+00  -8.77549553E+00   6.08602524E+01  -1.26942549E+01   5.89254456E+01   1.67068291E+00   4.51875801E+01  -8.77549553E+00   1.86471138E+01
              414                4   5.86153412E+01   5.17052727E+01   5.17052727E+01  -4.84701109E+00  -8.77549553E+00   5.17052727E+01   5.17052727E+01  -4.84701109E+00  -8.77549553E+00   6.04807663E+01  -1.26942549E+01   5.83180542E+01   1.49262381E+00   4.53656387E+01  -8.77549553E+00   1.78417988E+01
              415                1   5.57184296E+01   5.43762321E+01   5.43762321E+01   1.24994680E-01  -2.70177436E+00   5.43762321E+01   5.43762321E+01   1.24994680E-01  -2.70177436E+00   5.70780067E+01  -1.72664852E+01   5.55567513E+01   2.09052582E+01   3.35959702E+01  -2.70177436E+00   2.63730106E+01
              415                2   5.31613159E+01   5.26079254E+01   5.26079254E+01   1.89330292E+00  -2.70177436E+00   5.26079254E+01   5.26079254E+01   1.89330292E+00  -2.70177436E+00   5.53097000E+01  -1.72664852E+01   5.27117386E+01   2.03770237E+01   3.41242065E+01  -2.70177436E+00   2.44079285E+01
              415                3   5.78890991E+01   5.58513260E+01   5.58513260E+01  -1.35009754E+00  -2.70177436E+00   5.58513260E+01   5.58513260E+01  -1.35009754E+00  -2.70177436E+00   5.85531006E+01  -1.72664852E+01   5.78535767E+01   1.93490219E+01   3.51522064E+01  -2.70177436E+00   2.74875526E+01
              415                4   5.58002319E+01   5.44322281E+01   5.44322281E+01   6.89999238E-02  -2.70177436E+00   5.44322281E+01   5.44322281E+01   6.89999238E-02  -2.70177436E+00   5.71340027E+01  -1.72664852E+01   5.56451416E+01   1.88330574E+01   3.56681709E+01  -2.70177436E+00   2.58454037E+01
              416                1   6.70980606E+01   6.03674316E+01   6.03674316E+01  -5.53114033E+00  -7.86900759E+00   6.03674316E+01   6.03674316E+01  -5.53114033E+00  -7.86900759E+00   6.82364426E+01  -1.56557617E+01   6.70063324E+01  -1.04322553E+00   5.58795166E+01  -7.86900759E+00   1.66013813E+01
              416                2   6.66044617E+01   6.00319023E+01   6.00319023E+01  -5.19561100E+00  -7.86900759E+00   6.00319023E+01   6.00319023E+01  -5.19561100E+00  -7.86900759E+00   6.79009094E+01  -1.56557617E+01   6.64835892E+01  -1.05179238E+00   5.58880844E+01  -7.86900759E+00   1.59097385E+01
              416                3   6.79129486E+01   6.09193192E+01   6.09193192E+01  -6.08302593E+00  -7.86900759E+00   6.09193192E+01   6.09193192E+01  -6.08302593E+00  -7.86900759E+00   6.87883224E+01  -1.56557617E+01   6.78600845E+01  -1.76008117E+00   5.65963745E+01  -7.86900759E+00   1.64608479E+01
              416                4   6.74248428E+01   6.05890503E+01   6.05890503E+01  -5.75275755E+00  -7.86900759E+00   6.05890503E+01   6.05890503E+01  -5.75275755E+00  -7.86900759E+00   6.84580612E+01  -1.56557617E+01   6.73500595E+01  -1.75861454E+00   5.65949059E+01  -7.86900759E+00   1.57805433E+01
              417                1   1.65228745E+02   1.86825226E+02   1.86825226E+02   1.31916962E+01   3.15315647E+01   1.86825226E+02   1.86825226E+02   3.15315647E+01   1.31916962E+01   1.73633530E+02  -7.71828308E+01   1.62915207E+02   3.03838329E+01   1.69633087E+02   3.15315647E+01   5.18609886E+01
              417                2   1.68203491E+02   1.88708954E+02   1.88708954E+02   1.13079748E+01   3.15315647E+01   1.88708954E+02   1.88708954E+02   3.15315647E+01   1.13079748E+01   1.77400970E+02  -7.71828308E+01   1.65435074E+02   2.92433510E+01   1.70773575E+02   3.15315647E+01   5.34796677E+01
              417                3   1.63680023E+02   1.85841766E+02   1.85841766E+02   1.41751633E+01   3.15315647E+01   1.85841766E+02   1.85841766E+02   3.15315647E+01   1.41751633E+01   1.71666595E+02  -7.71828308E+01   1.61590240E+02   3.23889961E+01   1.67627930E+02   3.15315647E+01   5.28674049E+01
              417                4   1.66643906E+02   1.87722214E+02   1.87722214E+02   1.22947149E+01   3.15315647E+01   1.87722214E+02   1.87722214E+02   3.15315647E+01   1.22947149E+01   1.75427490E+02  -7.71828308E+01   1.64118011E+02   3.12495422E+01   1.68767380E+02   3.15315647E+01   5.44601898E+01
              418                1   1.43619080E+02   1.65519440E+02   1.65519440E+02   1.68946762E+01   2.74932785E+01   1.65519440E+02   1.65519440E+02   2.74932785E+01   1.68946762E+01   1.48624771E+02  -6.99691391E+01   1.42735229E+02   2.73803024E+01   1.55033829E+02   2.74932785E+01   3.80588341E+01
              418                2   1.42593704E+02   1.64858307E+02   1.64858307E+02   1.75558243E+01   2.74932785E+01   1.64858307E+02   1.64858307E+02   2.74932785E+01   1.75558243E+01   1.47302490E+02  -6.99691391E+01   1.41811493E+02   2.77361603E+01   1.54677979E+02   2.74932785E+01   3.73624077E+01
              418                3   1.44518524E+02   1.66098450E+02   1.66098450E+02   1.63156853E+01   2.74932785E+01   1.66098450E+02   1.66098450E+02   2.74932785E+01   1.63156853E+01   1.49782776E+02  -6.99691391E+01   1.43541183E+02   2.65249691E+01   1.55889175E+02   2.74932785E+01   3.77484398E+01
              418                4   1.43628952E+02   1.65525818E+02   1.65525818E+02   1.68883190E+01   2.74932785E+01   1.65525818E+02   1.65525818E+02   2.74932785E+01   1.68883190E+01   1.48637497E+02  -6.99691391E+01   1.42744125E+02   2.68016624E+01   1.55612473E+02   2.74932785E+01   3.70839691E+01
              419                1   4.39618988E+01   4.72156944E+01   4.72156944E+01   3.28903794E+00   3.21864367E+00   4.72156944E+01   4.72156944E+01   3.28903794E+00   3.21864367E+00   4.39970512E+01  -1.79077930E+01   4.39617729E+01   4.10455751E+00   4.64001770E+01   3.21864367E+00   5.92941427E+00
              419                2   4.43381119E+01   4.74663506E+01   4.74663506E+01   3.03838277E+00   3.21864367E+00   4.74663506E+01   4.74663506E+01   3.21864367E+00   3.03838277E+00   4.44279671E+01  -1.79077930E+01   4.43372879E+01   3.88768458E+00   4.66170502E+01   3.21864367E+00   6.08370018E+00
              419                3   4.38393860E+01   4.71339188E+01   4.71339188E+01   3.37081838E+00   3.21864367E+00   4.71339188E+01   4.71339188E+01   3.37081838E+00   3.21864367E+00   4.39152756E+01  -1.79077930E+01   4.38387909E+01   4.24717522E+00   4.62575607E+01   3.21864367E+00   6.13059330E+00
              419                4   4.42223969E+01   4.73893318E+01   4.73893318E+01   3.11540365E+00   3.21864367E+00   4.73893318E+01   4.73893318E+01   3.21864367E+00   3.11540365E+00   4.42739258E+01  -1.79077930E+01   4.42221260E+01   4.02682447E+00   4.64779091E+01   3.21864367E+00   6.28661394E+00
              420                1   6.77587433E+01   6.12440872E+01   6.12440872E+01  -5.32945061E+00  -7.64071369E+00   6.12440872E+01   6.12440872E+01  -5.32945061E+00  -7.64071369E+00   6.88848038E+01  -1.60913086E+01   6.76699677E+01  -1.75230241E+00   5.76669426E+01  -7.64071369E+00   1.50115728E+01
              420                2   6.85412216E+01   6.17738800E+01   6.17738800E+01  -5.85923958E+00  -7.64071369E+00   6.17738800E+01   6.17738800E+01  -5.85923958E+00  -7.64071369E+00   6.94145966E+01  -1.60913105E+01   6.84891052E+01  -2.41819000E+00   5.83328323E+01  -7.64071369E+00   1.48623047E+01
              420                3   6.82123337E+01   6.15514832E+01   6.15514832E+01  -5.63683939E+00  -7.64071369E+00   6.15514832E+01   6.15514832E+01  -5.63683939E+00  -7.64071369E+00   6.91921921E+01  -1.60913105E+01   6.81460648E+01  -1.78770018E+00   5.77023430E+01  -7.64071369E+00   1.56141376E+01
              420                4   6.89807129E+01   6.20704613E+01   6.20704613E+01  -6.15581799E+00  -7.64071369E+00   6.20704613E+01   6.20704613E+01  -6.15581799E+00  -7.64071369E+00   6.97111740E+01  -1.60913105E+01   6.89447403E+01  -2.45483327E+00   5.83694763E+01  -7.64071369E+00   1.54533844E+01
              421                1   9.22042236E+01   9.21797409E+01   9.21797409E+01   7.67600685E-02  -1.25396386E-01   9.21797409E+01   9.21797409E+01   7.67600685E-02  -1.25396386E-01   9.23051376E+01  -3.07103672E+01   9.22037277E+01   5.98041248E+00   8.62760849E+01  -1.25396386E-01   2.25586147E+01
              421                2   9.33602066E+01   9.29496384E+01   9.29496384E+01  -6.93144977E-01  -1.25396386E-01   9.29496384E+01   9.29496384E+01  -1.25396386E-01  -6.93144977E-01   9.36427841E+01  -3.07103653E+01   9.33563156E+01   5.10456657E+00   8.71519241E+01  -1.25396386E-01   2.25676880E+01
              421                3   9.27972412E+01   9.25750961E+01   9.25750961E+01  -3.18595082E-01  -1.25396386E-01   9.25750961E+01   9.25750961E+01  -1.25396386E-01  -3.18595082E-01   9.28936920E+01  -3.07103672E+01   9.27967911E+01   6.03529739E+00   8.62211990E+01  -1.25396386E-01   2.34491978E+01
              421                4   9.39252319E+01   9.33248215E+01   9.33248215E+01  -1.06832647E+00  -1.25396386E-01   9.33248215E+01   9.33248215E+01  -1.25396386E-01  -1.06832647E+00   9.43931427E+01  -3.07103653E+01   9.39145813E+01   5.17041779E+00   8.70860748E+01  -1.25396386E-01   2.34514980E+01
              422                1   1.73475174E+02   1.95855591E+02   1.95855591E+02   1.81872406E+01   2.69021225E+01   1.95855591E+02   1.95855591E+02   2.69021225E+01   1.81872406E+01   1.77668350E+02  -8.03149796E+01   1.72981613E+02   1.92985649E+01   1.94744263E+02   2.69021225E+01   1.40075970E+01
              422                2   1.71875305E+02   1.94812866E+02   1.94812866E+02   1.92299633E+01   2.69021225E+01   1.94812866E+02   1.94812866E+02   2.69021225E+01   1.92299633E+01   1.75582901E+02  -8.03149796E+01   1.71489410E+02   2.07697010E+01   1.93273132E+02   2.69021225E+01   1.63701096E+01
              422                3   1.69949768E+02   1.93554306E+02   1.93554306E+02   2.04885311E+01   2.69021225E+01   1.93554306E+02   1.93554306E+02   2.69021225E+01   2.04885311E+01   1.73065765E+02  -8.03149796E+01   1.69677155E+02   2.13636417E+01   1.92679184E+02   2.69021225E+01   1.22754517E+01
              422                4   1.68483215E+02   1.92593018E+02   1.92593018E+02   2.14498196E+01   2.69021225E+01   1.92593018E+02   1.92593018E+02   2.69021225E+01   2.14498196E+01   1.71143188E+02  -8.03149796E+01   1.68284561E+02   2.26933537E+01   1.91349472E+02   2.69021225E+01   1.45353699E+01
              423                1   4.24118233E+01   4.66942863E+01   4.66942863E+01   4.29781866E+00   4.26712322E+00   4.66942863E+01   4.66942863E+01   4.29781866E+00   4.26712322E+00   4.24271622E+01  -1.84197426E+01   4.24117966E+01   4.98787737E+00   4.60042267E+01   4.26712322E+00   5.36468601E+00
              423                2   4.27950096E+01   4.69494553E+01   4.69494553E+01   4.04264784E+00   4.26712322E+00   4.69494553E+01   4.69494553E+01   4.26712322E+00   4.04264784E+00   4.29068069E+01  -1.84197426E+01   4.27936859E+01   4.75878954E+00   4.62333145E+01   4.26712322E+00   5.49676895E+00
              423                3   4.23145561E+01   4.66293945E+01   4.66293945E+01   4.36271000E+00   4.26712322E+00   4.66293945E+01   4.66293945E+01   4.36271000E+00   4.26712322E+00   4.23622704E+01  -1.84197426E+01   4.23143158E+01   5.11094761E+00   4.58811569E+01   4.26712322E+00   5.57365417E+00
              423                4   4.26986542E+01   4.68853607E+01   4.68853607E+01   4.10674524E+00   4.26712322E+00   4.68853607E+01   4.68853607E+01   4.26712322E+00   4.10674524E+00   4.27786179E+01  -1.84197445E+01   4.26979752E+01   4.88216686E+00   4.61099396E+01   4.26712322E+00   5.70703268E+00
              424                1   1.94799744E+02   2.24862320E+02   2.24862320E+02   1.83493195E+01   4.43968658E+01   2.24862320E+02   2.24862320E+02   4.43968658E+01   1.83493195E+01   2.06513000E+02  -9.58695068E+01   1.90822739E+02   2.45288334E+01   2.18682800E+02   4.43968658E+01   3.51847229E+01
              424                2   1.95827911E+02   2.25168701E+02   2.25168701E+02   1.55947981E+01   4.68449936E+01   2.25168701E+02   2.25168701E+02   4.68449936E+01   1.55947981E+01   2.09573914E+02  -9.58694992E+01   1.90096390E+02   2.26222267E+01   2.18141281E+02   4.68449936E+01   3.77277107E+01
              424                3   1.94141937E+02   2.24588287E+02   2.24588287E+02   1.97925549E+01   4.32276497E+01   2.24588287E+02   2.24588287E+02   4.32276497E+01   1.97925549E+01   2.04795731E+02  -9.58694992E+01   1.90920822E+02   2.84545574E+01   2.15926285E+02   4.32276497E+01   4.12178497E+01
              424                4   1.95197464E+02   2.24927292E+02   2.24927292E+02   1.68924561E+01   4.57887535E+01   2.24927292E+02   2.24927292E+02   4.57887535E+01   1.68924561E+01   2.08034836E+02  -9.58694992E+01   1.90296112E+02   2.64478016E+01   2.15371948E+02   4.57887535E+01   4.35492783E+01
              425                1   5.12154198E+01   4.99970856E+01   4.99970856E+01  -9.40502524E-01  -1.49171662E+00   4.99970856E+01   4.99970856E+01  -9.40502524E-01  -1.49171662E+00   5.14888039E+01  -1.58549547E+01   5.12087479E+01   3.57918650E-01   4.86986656E+01  -1.49171662E+00   8.02823162E+00
              425                2   5.15658188E+01   5.02316818E+01   5.02316818E+01  -1.17509735E+00  -1.49171662E+00   5.02316818E+01   5.02316818E+01  -1.17509735E+00  -1.49171662E+00   5.17233963E+01  -1.58549547E+01   5.15636292E+01   1.92846581E-01   4.88637352E+01  -1.49171662E+00   8.27347565E+00
              425                3   5.09706917E+01   4.98329086E+01   4.98329086E+01  -7.76323974E-01  -1.49171662E+00   4.98329086E+01   4.98329086E+01  -7.76323974E-01  -1.49171662E+00   5.13246231E+01  -1.58549547E+01   5.09593964E+01   5.84953606E-01   4.84716301E+01  -1.49171662E+00   8.18780327E+00
              425                4   5.13310089E+01   5.00745354E+01   5.00745354E+01  -1.01795042E+00  -1.49171662E+00   5.00745354E+01   5.00745354E+01  -1.01795042E+00  -1.49171662E+00   5.15662498E+01  -1.58549547E+01   5.13260880E+01   4.15306449E-01   4.86412773E+01  -1.49171662E+00   8.43649292E+00
              426                1   4.64342575E+01   4.34086304E+01   4.34086304E+01  -1.87504482E+00  -4.09647179E+00   4.34086304E+01   4.34086304E+01  -1.87504482E+00  -4.09647179E+00   4.75051003E+01  -1.24790373E+01   4.63144798E+01   2.10835367E-01   4.13227501E+01  -4.09647179E+00   9.49238586E+00
              426                2   4.61791077E+01   4.32340126E+01   4.32340126E+01  -1.70042920E+00  -4.09647179E+00   4.32340126E+01   4.32340126E+01  -1.70042920E+00  -4.09647179E+00   4.73304863E+01  -1.24790373E+01   4.60389442E+01   2.53701329E-01   4.12798843E+01  -4.09647179E+00   9.16455650E+00
              426                3   4.68179741E+01   4.36705093E+01   4.36705093E+01  -2.13692236E+00  -4.09647179E+00   4.36705093E+01   4.36705093E+01  -2.13692236E+00  -4.09647179E+00   4.77669830E+01  -1.24790392E+01   4.67255707E+01  -9.30421203E-02   4.16266289E+01  -4.09647179E+00   9.45767021E+00
              426                4   4.65594711E+01   4.34941788E+01   4.34941788E+01  -1.96059132E+00  -4.09647179E+00   4.34941788E+01   4.34941788E+01  -1.96059132E+00  -4.09647179E+00   4.75906525E+01  -1.24790392E+01   4.64490471E+01  -4.41605747E-02   4.15777473E+01  -4.09647179E+00   9.13445568E+00
              427                1   4.10240059E+01   4.64241295E+01   4.64241295E+01   5.41608334E+00   5.38418388E+00   4.64241295E+01   4.64241295E+01   5.41608334E+00   5.38418388E+00   4.10399475E+01  -1.90747986E+01   4.10239792E+01   5.88261366E+00   4.59575996E+01   5.38418388E+00   4.34900856E+00
              427                2   4.14200058E+01   4.66878128E+01   4.66878128E+01   5.15239859E+00   5.38418388E+00   4.66878128E+01   4.66878128E+01   5.38418388E+00   5.15239859E+00   4.15354118E+01  -1.90747986E+01   4.14185448E+01   5.63492250E+00   4.62052879E+01   5.38418388E+00   4.45072746E+00
              427                3   4.09500351E+01   4.63747826E+01   4.63747826E+01   5.46542788E+00   5.38418388E+00   4.63747826E+01   4.63747826E+01   5.46542788E+00   5.38418388E+00   4.09905968E+01  -1.90747986E+01   4.09498558E+01   5.98186922E+00   4.58583412E+01   5.38418388E+00   4.56733608E+00
              427                4   4.13483582E+01   4.66401634E+01   4.66401634E+01   5.20004511E+00   5.38418388E+00   4.66401634E+01   4.66401634E+01   5.38418388E+00   5.20004511E+00   4.14401207E+01  -1.90747986E+01   4.13474350E+01   5.73305893E+00   4.61071510E+01   5.38418388E+00   4.66948032E+00
              428                1   1.26968361E+02   1.47174728E+02   1.47174728E+02   1.78015537E+01   2.27562466E+01   1.47174728E+02   1.47174728E+02   2.27562466E+01   1.78015537E+01   1.29373184E+02  -6.25775108E+01   1.26750580E+02   2.11374321E+01   1.43838852E+02   2.27562466E+01   2.05047703E+01
              428                2   1.26071762E+02   1.46587524E+02   1.46587524E+02   1.83887691E+01   2.27562466E+01   1.46587524E+02   1.46587524E+02   2.27562466E+01   1.83887691E+01   1.28198746E+02  -6.25775108E+01   1.25901390E+02   2.22388630E+01   1.42737427E+02   2.27562466E+01   2.18804417E+01
              428                3   1.25442230E+02   1.46174500E+02   1.46174500E+02   1.88017921E+01   2.27562466E+01   1.46174500E+02   1.46174500E+02   2.27562466E+01   1.88017921E+01   1.27372704E+02  -6.25775108E+01   1.25301880E+02   2.16518841E+01   1.43324402E+02   2.27562466E+01   1.88388195E+01
              428                4   1.24454079E+02   1.45524948E+02   1.45524948E+02   1.94513340E+01   2.27562466E+01   1.45524948E+02   1.45524948E+02   2.27562466E+01   1.94513340E+01   1.26073616E+02  -6.25775108E+01   1.24355293E+02   2.27581215E+01   1.42218170E+02   2.27562466E+01   2.01485310E+01
              429                1   5.88017235E+01   5.45457497E+01   5.45457497E+01  -2.31474757E+00  -6.02179003E+00   5.45457497E+01   5.45457497E+01  -2.31474757E+00  -6.02179003E+00   6.05675392E+01  -1.54030714E+01   5.85379486E+01   1.14184361E+01   4.08125648E+01  -6.02179003E+00   2.43367081E+01
              429                2   5.73270035E+01   5.35234070E+01   5.35234070E+01  -1.29240513E+00  -6.02179003E+00   5.35234070E+01   5.35234070E+01  -1.29240513E+00  -6.02179003E+00   5.95451965E+01  -1.54030714E+01   5.68856125E+01   1.09694433E+01   4.12615585E+01  -6.02179003E+00   2.28427296E+01
              429                3   6.09325905E+01   5.60040436E+01   5.60040436E+01  -3.77304435E+00  -6.02179003E+00   5.60040436E+01   5.60040436E+01  -3.77304435E+00  -6.02179003E+00   6.20258331E+01  -1.54030695E+01   6.08391228E+01   1.00790339E+01   4.21519661E+01  -6.02179003E+00   2.52221489E+01
              429                4   5.94039726E+01   5.49600639E+01   5.49600639E+01  -2.72906351E+00  -6.02179003E+00   5.49600639E+01   5.49600639E+01  -2.72906351E+00  -6.02179003E+00   6.09818535E+01  -1.54030695E+01   5.91981277E+01   9.68352127E+00   4.25474777E+01  -6.02179003E+00   2.37065163E+01
              430                1   6.32636070E+01   5.71572609E+01   5.71572609E+01  -4.96325588E+00  -7.19060755E+00   5.71572609E+01   5.71572609E+01  -4.96325588E+00  -7.19060755E+00   6.43478699E+01  -1.50011320E+01   6.31752968E+01  -2.13350224E+00   5.43275070E+01  -7.19060755E+00   1.29529228E+01
              430                2   6.39125137E+01   5.75969734E+01   5.75969734E+01  -5.40296984E+00  -7.19060755E+00   5.75969734E+01   5.75969734E+01  -5.40296984E+00  -7.19060755E+00   6.47875824E+01  -1.50011320E+01   6.38562317E+01  -2.67332745E+00   5.48673325E+01  -7.19060755E+00   1.28263912E+01
              430                3   6.36711540E+01   5.74336205E+01   5.74336205E+01  -5.23961639E+00  -7.19060755E+00   5.74336205E+01   5.74336205E+01  -5.23961639E+00  -7.19060755E+00   6.46242294E+01  -1.50011320E+01   6.36038513E+01  -2.20592594E+00   5.43999290E+01  -7.19060755E+00   1.34509468E+01
              430                4   6.43122177E+01   5.78669891E+01   5.78669891E+01  -5.67298603E+00  -7.19060755E+00   5.78669891E+01   5.78669891E+01  -5.67298603E+00  -7.19060755E+00   6.50575943E+01  -1.50011320E+01   6.42719116E+01  -2.74233365E+00   5.49363365E+01  -7.19060755E+00   1.33276005E+01
              431                1   5.40916939E+01   5.01819763E+01   5.01819763E+01  -3.28927827E+00  -4.50951624E+00   5.01819763E+01   5.01819763E+01  -3.28927827E+00  -4.50951624E+00   5.46914902E+01  -1.41277266E+01   5.40607147E+01  -1.27072167E+00   4.81634178E+01  -4.50951624E+00   1.01911821E+01
              431                2   5.36961823E+01   4.99148788E+01   4.99148788E+01  -3.02218342E+00  -4.50951624E+00   4.99148788E+01   4.99148788E+01  -3.02218342E+00  -4.50951624E+00   5.44243965E+01  -1.41277266E+01   5.36498070E+01  -9.07926083E-01   4.78006210E+01  -4.50951624E+00   1.03659325E+01
              431                3   5.37410126E+01   4.99451904E+01   4.99451904E+01  -3.05249429E+00  -4.50951624E+00   4.99451904E+01   4.99451904E+01  -3.05249429E+00  -4.50951624E+00   5.44547081E+01  -1.41277266E+01   5.36965446E+01  -1.16540956E+00   4.80581055E+01  -4.50951624E+00   9.82089901E+00
              431                4   5.33275986E+01   4.96653137E+01   4.96653137E+01  -2.77261996E+00  -4.50951624E+00   4.96653137E+01   4.96653137E+01  -2.77261996E+00  -4.50951624E+00   5.41748276E+01  -1.41277246E+01   5.32639046E+01  -7.98029065E-01   4.76907234E+01  -4.50951624E+00   9.98220253E+00
              432                1   1.81563431E+02   1.94119003E+02   1.94119003E+02   6.93861675E+00   1.87491798E+01   1.94119003E+02   1.94119003E+02   1.87491798E+01   6.93861675E+00   1.87180389E+02  -7.32689285E+01   1.80696136E+02   7.45925570E+00   1.93598358E+02   1.87491798E+01   9.85813999E+00
              432                2   1.80714020E+02   1.93626907E+02   1.93626907E+02   8.47249031E+00   1.77074070E+01   1.93626907E+02   1.93626907E+02   1.77074070E+01   8.47249031E+00   1.85154419E+02  -7.32689362E+01   1.80181961E+02   9.56881237E+00   1.92530579E+02   1.77074070E+01   1.42052069E+01
              432                3   1.80151657E+02   1.93280701E+02   1.93280701E+02   9.25195312E+00   1.72741356E+01   1.93280701E+02   1.93280701E+02   1.72741356E+01   9.25195312E+00   1.84028748E+02  -7.32689285E+01   1.79749130E+02   9.45886707E+00   1.93073792E+02   1.72741356E+01   6.16719913E+00
              432                4   1.79155441E+02   1.92669815E+02   1.92669815E+02   1.10263987E+01   1.61105919E+01   1.92669815E+02   1.92669815E+02   1.61105919E+01   1.10263987E+01   1.81643417E+02  -7.32689362E+01   1.78992996E+02   1.16532555E+01   1.92042953E+02   1.61105919E+01   1.06523314E+01
              433                1   2.03789597E+02   2.10414444E+02   2.10414444E+02  -5.03677702E+00   2.07389698E+01   2.10414444E+02   2.10414444E+02   2.07389698E+01  -5.03677702E+00   2.15451218E+02  -7.53722153E+01   2.00072937E+02  -5.03402328E+00   2.10411697E+02   2.07389698E+01   7.69694448E-01
              433                2   2.02714676E+02   2.09864609E+02   2.09864609E+02  -3.34545708E+00   1.95974865E+01   2.09864609E+02   2.09864609E+02   1.95974865E+01  -3.34545708E+00   2.13210068E+02  -7.53722153E+01   1.99762390E+02  -3.21320367E+00   2.09732361E+02   1.95974865E+01   5.30836201E+00
              433                3   2.02924164E+02   2.09993591E+02   2.09993591E+02  -3.50942397E+00   1.96325016E+01   2.09993591E+02   2.09993591E+02   1.96325016E+01  -3.50942397E+00   2.13503006E+02  -7.53722229E+01   1.99923019E+02  -3.47337985E+00   2.09957535E+02   1.96325016E+01  -2.77409148E+00
              433                4   2.01521057E+02   2.09234177E+02   2.09234177E+02  -1.44020796E+00   1.83226700E+01   2.09234177E+02   2.09234177E+02   1.83226700E+01  -1.44020796E+00   2.10674393E+02  -7.53722153E+01   1.99323380E+02  -1.41798139E+00   2.09211960E+02   1.83226700E+01   2.16368318E+00
              434                1   3.56758614E+01   3.95724258E+01   3.95724258E+01   2.36097693E+00   5.66153526E+00   3.95724258E+01   3.95724258E+01   5.66153526E+00   2.36097693E+00   3.72114487E+01  -1.58649797E+01   3.53299141E+01   4.50296640E+00   3.74304352E+01   5.66153526E+00   8.66709042E+00
              434                2   3.54491310E+01   3.94274025E+01   3.94274025E+01   2.50599504E+00   5.66153526E+00   3.94274025E+01   3.94274025E+01   5.66153526E+00   2.50599504E+00   3.69214096E+01  -1.58649778E+01   3.51310654E+01   4.60820103E+00   3.73251991E+01   5.66153526E+00   8.55553055E+00
              434                3   3.57631760E+01   3.96282158E+01   3.96282158E+01   2.30518603E+00   5.66153526E+00   3.96282158E+01   3.96282158E+01   5.66153526E+00   2.30518603E+00   3.73230324E+01  -1.58649797E+01   3.54062309E+01   4.38203621E+00   3.75513649E+01   5.66153526E+00   8.55576420E+00
              434                4   3.55381088E+01   3.94843407E+01   3.94843407E+01   2.44905758E+00   5.66153526E+00   3.94843407E+01   3.94843407E+01   5.66153526E+00   2.44905758E+00   3.70352821E+01  -1.58649778E+01   3.52092209E+01   4.48619604E+00   3.74472046E+01   5.66153526E+00   8.44369698E+00
              435                1   3.58386230E+01   3.93639603E+01   3.93639603E+01   1.92418897E+00   5.37631941E+00   3.93639603E+01   3.93639603E+01   5.37631941E+00   1.92418897E+00   3.74397736E+01  -1.55548239E+01   3.54616661E+01   3.63558483E+00   3.76525650E+01   5.37631941E+00   7.81955433E+00
              435                2   3.60332947E+01   3.94881172E+01   3.94881172E+01   1.80002940E+00   5.37631941E+00   3.94881172E+01   3.94881172E+01   5.37631941E+00   1.80002940E+00   3.76880875E+01  -1.55548220E+01   3.56307297E+01   3.52882338E+00   3.77593231E+01   5.37631941E+00   7.88455629E+00
              435                3   3.58117065E+01   3.93467827E+01   3.93467827E+01   1.94136775E+00   5.37631941E+00   3.93467827E+01   3.93467827E+01   5.37631941E+00   1.94136775E+00   3.74054146E+01  -1.55548239E+01   3.54382362E+01   3.70823979E+00   3.75799103E+01   5.37631941E+00   7.93528652E+00
              435                4   3.60066109E+01   3.94711075E+01   3.94711075E+01   1.81703818E+00   5.37631941E+00   3.94711075E+01   3.94711075E+01   5.37631941E+00   1.81703818E+00   3.76540718E+01  -1.55548220E+01   3.56076012E+01   3.60110116E+00   3.76870461E+01   5.37631941E+00   7.99964666E+00
              436                1   8.48039703E+01   8.09316254E+01   8.09316254E+01  -3.93242240E+00  -3.81213450E+00   8.09316254E+01   8.09316254E+01  -3.81213450E+00  -3.93242240E+00   8.48640518E+01  -2.43956909E+01   8.48037796E+01   2.85965228E+00   7.41395569E+01  -3.81213450E+00   2.30276031E+01
              436                2   8.35449829E+01   8.00907974E+01   8.00907974E+01  -3.09158754E+00  -3.81213450E+00   8.00907974E+01   8.00907974E+01  -3.09158754E+00  -3.81213450E+00   8.39029312E+01  -2.43956909E+01   8.35379944E+01   3.92446470E+00   7.30747452E+01  -3.81213450E+00   2.31168060E+01
              436                3   8.38749924E+01   8.03116074E+01   8.03116074E+01  -3.31239557E+00  -3.81213450E+00   8.03116074E+01   8.03116074E+01  -3.31239557E+00  -3.81213450E+00   8.41237411E+01  -2.43956928E+01   8.38716431E+01   2.93627310E+00   7.40629425E+01  -3.81213450E+00   2.19884682E+01
              436                4   8.26133118E+01   7.94657593E+01   7.94657593E+01  -2.46654224E+00  -3.81213450E+00   7.94657593E+01   7.94657593E+01  -2.46654224E+00  -3.81213450E+00   8.32778931E+01  -2.43956928E+01   8.25886536E+01   4.00232172E+00   7.29968948E+01  -3.81213450E+00   2.20944004E+01
              437                1   7.68170929E+01   7.03017807E+01   7.03017807E+01  -6.08288050E+00  -6.94055796E+00   7.03017807E+01   7.03017807E+01  -6.08288050E+00  -6.94055796E+00   7.72423401E+01  -1.90927811E+01   7.68063202E+01  -1.79523766E+00   6.60141373E+01  -6.94055796E+00   1.75819931E+01
              437                2   7.59658203E+01   6.97299347E+01   6.97299347E+01  -5.51103115E+00  -6.94055796E+00   6.97299347E+01   6.97299347E+01  -5.51103115E+00  -6.94055796E+00   7.66704941E+01  -1.90927811E+01   7.59355469E+01  -1.06940496E+00   6.52883072E+01  -6.94055796E+00   1.77331390E+01
              437                3   7.62348633E+01   6.99109116E+01   6.99109116E+01  -5.69201088E+00  -6.94055796E+00   6.99109116E+01   6.99109116E+01  -5.69201088E+00  -6.94055796E+00   7.68514709E+01  -1.90927811E+01   7.62118607E+01  -1.72692895E+00   6.59458313E+01  -6.94055796E+00   1.68537807E+01
              437                4   7.53549271E+01   6.93181534E+01   6.93181534E+01  -5.09924889E+00  -6.94055796E+00   6.93181534E+01   6.93181534E+01  -5.09924889E+00  -6.94055796E+00   7.62587128E+01  -1.90927811E+01   7.53042908E+01  -9.91114557E-01   6.52100143E+01  -6.94055796E+00   1.69952965E+01
              438                1   3.48621254E+01   2.77797623E+01   2.77797623E+01  -1.53566003E+00  -1.07698336E+01   2.77797623E+01   2.77797623E+01  -1.53566003E+00  -1.07698336E+01   3.85495949E+01  -5.15808964E+00   3.19322147E+01   4.70144701E+00   2.15426559E+01  -1.07698336E+01   1.19975796E+01
              438                2   3.53520699E+01   2.81658382E+01   2.81658382E+01  -1.92173648E+00  -1.07698336E+01   2.81658382E+01   2.81658382E+01  -1.92173648E+00  -1.07698336E+01   3.89356728E+01  -5.15808964E+00   3.27187386E+01   4.18903017E+00   2.20550728E+01  -1.07698336E+01   1.21044073E+01
              438                3   3.54439583E+01   2.82377396E+01   2.82377396E+01  -1.99363625E+00  -1.07698336E+01   2.82377396E+01   2.82377396E+01  -1.99363625E+00  -1.07698336E+01   3.90075722E+01  -5.15808964E+00   3.28632851E+01   4.84689379E+00   2.13972092E+01  -1.07698336E+01   1.26493387E+01
              438                4   3.59166489E+01   2.86051979E+01   2.86051979E+01  -2.36109447E+00  -1.07698336E+01   2.86051979E+01   2.86051979E+01  -2.36109447E+00  -1.07698336E+01   3.93750305E+01  -5.15809011E+00   3.35931702E+01   4.27810812E+00   2.19659958E+01  -1.07698336E+01   1.27087564E+01
              439                1   1.21512077E+02   1.38561432E+02   1.38561432E+02   1.50769529E+01   1.91228104E+01   1.38561432E+02   1.38561432E+02   1.91228104E+01   1.50769529E+01   1.23484474E+02  -5.75870667E+01   1.21360374E+02   2.07096519E+01   1.32928726E+02   1.91228104E+01   2.57647820E+01
              439                2   1.20601143E+02   1.37963181E+02   1.37963181E+02   1.56751976E+01   1.91228104E+01   1.37963181E+02   1.37963181E+02   1.91228104E+01   1.56751976E+01   1.22287987E+02  -5.75870667E+01   1.20490189E+02   2.09271240E+01   1.32711258E+02   1.91228104E+01   2.47924347E+01
              439                3   1.22923889E+02   1.39486069E+02   1.39486069E+02   1.41523180E+01   1.91228104E+01   1.39486069E+02   1.39486069E+02   1.91228104E+01   1.41523180E+01   1.25333748E+02  -5.75870667E+01   1.22697479E+02   1.95868702E+01   1.34051514E+02   1.91228104E+01   2.55264225E+01
              439                4   1.21861931E+02   1.38790848E+02   1.38790848E+02   1.48475437E+01   1.91228104E+01   1.38790848E+02   1.38790848E+02   1.91228104E+01   1.48475437E+01   1.23943306E+02  -5.75870667E+01   1.21693024E+02   1.99346695E+01   1.33703720E+02   1.91228104E+01   2.45893631E+01
              440                1   4.84102020E+01   4.13076248E+01   4.13076248E+01  -3.99345398E+00  -9.70498371E+00   4.13076248E+01   4.13076248E+01  -3.99345398E+00  -9.70498371E+00   5.10126076E+01  -9.20306301E+00   4.76433334E+01   3.53986001E+00   3.37743111E+01  -9.70498371E+00   1.68676147E+01
              440                2   4.75295944E+01   4.06771927E+01   4.06771927E+01  -3.36302114E+00  -9.70498371E+00   4.06771927E+01   4.06771927E+01  -3.36302114E+00  -9.70498371E+00   5.03821754E+01  -9.20306301E+00   4.65634003E+01   4.34147978E+00   3.29726906E+01  -9.70498371E+00   1.67316628E+01
              440                3   4.77585258E+01   4.08416901E+01   4.08416901E+01  -3.52751803E+00  -9.70498371E+00   4.08416901E+01   4.08416901E+01  -3.52751803E+00  -9.70498371E+00   5.05466728E+01  -9.20306301E+00   4.68470306E+01   3.31503630E+00   3.39991341E+01  -9.70498371E+00   1.60242996E+01
              440                4   4.68721046E+01   4.02022858E+01   4.02022858E+01  -2.88811994E+00  -9.70498371E+00   4.02022858E+01   4.02022858E+01  -2.88811994E+00  -9.70498371E+00   4.99072723E+01  -9.20306110E+00   4.57368927E+01   4.08565187E+00   3.32285156E+01  -9.70498371E+00   1.58703861E+01
              441                1   8.01576080E+01   7.44475403E+01   7.44475403E+01  -5.17232084E+00  -6.23720598E+00   7.44475403E+01   7.44475403E+01  -5.17232084E+00  -6.23720598E+00   8.06847458E+01  -2.10126724E+01   8.01416931E+01  -8.61081302E-01   7.01363068E+01  -6.23720598E+00   1.80186939E+01
              441                2   7.95247498E+01   7.40221939E+01   7.40221939E+01  -4.74697018E+00  -6.23720598E+00   7.40221939E+01   7.40221939E+01  -4.74697018E+00  -6.23720598E+00   8.02593994E+01  -2.10126724E+01   7.94933319E+01  -7.63866723E-01   7.00390930E+01  -6.23720598E+00   1.72592106E+01
              441                3   8.10762329E+01   7.50628738E+01   7.50628738E+01  -5.78765106E+00  -6.23720598E+00   7.50628738E+01   7.50628738E+01  -5.78765106E+00  -6.23720598E+00   8.13000793E+01  -2.10126724E+01   8.10734329E+01  -1.58927655E+00   7.08645020E+01  -6.23720598E+00   1.79391823E+01
              441                4   8.04829788E+01   7.46657639E+01   7.46657639E+01  -5.39054298E+00  -6.23720598E+00   7.46657639E+01   7.46657639E+01  -5.39054298E+00  -6.23720598E+00   8.09029694E+01  -2.10126724E+01   8.04729614E+01  -1.50862861E+00   7.07838516E+01  -6.23720598E+00   1.71960011E+01
              442                1   1.80885605E+02   1.95015411E+02   1.95015411E+02   9.76979256E+00   1.88303452E+01   1.95015411E+02   1.95015411E+02   1.88303452E+01   9.76979256E+00   1.85245621E+02  -7.45385132E+01   1.80374008E+02   1.02298746E+01   1.94555328E+02   1.88303452E+01   9.22042656E+00
              442                2   1.82105484E+02   1.95731079E+02   1.95731079E+02   7.74476480E+00   2.01397018E+01   1.95731079E+02   1.95731079E+02   2.01397018E+01   7.74476480E+00   1.87986313E+02  -7.45385132E+01   1.81152786E+02   7.88484526E+00   1.95591003E+02   2.01397018E+01   5.12961340E+00
              442                3   1.82551987E+02   1.95979416E+02   1.95979416E+02   6.92673969E+00   2.07093945E+01   1.95979416E+02   1.95979416E+02   2.07093945E+01   6.92673969E+00   1.89052673E+02  -7.45385208E+01   1.81375854E+02   7.96590948E+00   1.94940247E+02   2.07093945E+01   1.39777822E+01
              442                4   1.83718338E+02   1.96629822E+02   1.96629822E+02   5.06108761E+00   2.19246368E+01   1.96629822E+02   1.96629822E+02   2.19246368E+01   5.06108761E+00   1.91568726E+02  -7.45385132E+01   1.81964859E+02   5.55011320E+00   1.96140793E+02   2.19246368E+01   9.66654968E+00
              443                1   1.70277084E+02   1.98955399E+02   1.98955399E+02   2.21492977E+01   3.60608215E+01   1.98955399E+02   1.98955399E+02   3.60608215E+01   2.21492977E+01   1.76806091E+02  -8.57218399E+01   1.68991409E+02   2.77726421E+01   1.93332047E+02   3.60608215E+01   3.10261154E+01
              443                2   1.65955658E+02   1.96172226E+02   1.96172226E+02   2.49324608E+01   3.60608215E+01   1.96172226E+02   1.96172226E+02   3.60608215E+01   2.49324608E+01   1.71239761E+02  -8.57218399E+01   1.65113052E+02   3.03898754E+01   1.90714813E+02   3.60608215E+01   3.00789509E+01
              443                3   1.70930084E+02   1.99374466E+02   1.99374466E+02   2.17302227E+01   3.60608215E+01   1.99374466E+02   1.99374466E+02   3.60608215E+01   2.17302227E+01   1.77644241E+02  -8.57218399E+01   1.69570618E+02   2.63806877E+01   1.94723999E+02   3.60608215E+01   2.83637447E+01
              443                4   1.66705048E+02   1.96656128E+02   1.96656128E+02   2.44485455E+01   3.60608215E+01   1.96656128E+02   1.96656128E+02   3.60608215E+01   2.44485455E+01   1.72207581E+02  -8.57218323E+01   1.65791443E+02   2.89371872E+01   1.92167496E+02   3.60608215E+01   2.74377270E+01
              444                1   1.01568222E+02   1.06637650E+02   1.06637650E+02   4.42292452E+00   5.72852707E+00   1.06637650E+02   1.06637650E+02   5.72852707E+00   4.42292452E+00   1.02214729E+02  -3.89297028E+01   1.01549339E+02   1.14094276E+01   9.96511536E+01   5.72852707E+00   2.57936420E+01
              444                2   1.00855583E+02   1.06165039E+02   1.06165039E+02   4.89553833E+00   5.72852707E+00   1.06165039E+02   1.06165039E+02   5.72852707E+00   4.89553833E+00   1.01269501E+02  -3.89297028E+01   1.00847847E+02   1.13963127E+01   9.96642685E+01   5.72852707E+00   2.48207531E+01
              444                3   1.02911331E+02   1.07525566E+02   1.07525566E+02   3.53501797E+00   5.72852707E+00   1.07525566E+02   1.07525566E+02   5.72852707E+00   3.53501797E+00   1.03990547E+02  -3.89297028E+01   1.02858711E+02   1.04148378E+01   1.00645744E+02   5.72852707E+00   2.58477192E+01
              444                4   1.02236275E+02   1.07079750E+02   1.07079750E+02   3.98082829E+00   5.72852707E+00   1.07079750E+02   1.07079750E+02   5.72852707E+00   3.98082829E+00   1.03098923E+02  -3.89297028E+01   1.02202652E+02   1.03801222E+01   1.00680458E+02   5.72852707E+00   2.48758736E+01
              445                1   4.44936752E+01   4.08233681E+01   4.08233681E+01  -2.14827776E+00  -5.05026627E+00   4.08233681E+01   4.08233681E+01  -2.14827776E+00  -5.05026627E+00   4.58736343E+01  -1.12082748E+01   4.42799988E+01  -1.12273835E-01   3.87873650E+01  -5.05026627E+00   9.12935448E+00
              445                2   4.40710831E+01   4.05310593E+01   4.05310593E+01  -1.85596752E+00  -5.05026627E+00   4.05310593E+01   4.05310593E+01  -1.85596752E+00  -5.05026627E+00   4.55813255E+01  -1.12082748E+01   4.38094940E+01   2.21370816E-01   3.84537201E+01  -5.05026627E+00   9.15078449E+00
              445                3   4.42729568E+01   4.06708488E+01   4.06708488E+01  -1.99575520E+00  -5.05026627E+00   4.06708488E+01   4.06708488E+01  -1.99575520E+00  -5.05026627E+00   4.57211151E+01  -1.12082758E+01   4.40349541E+01  -1.09120019E-01   3.87842140E+01  -5.05026627E+00   8.77137089E+00
              445                4   4.38469086E+01   4.03754959E+01   4.03754959E+01  -1.70040214E+00  -5.05026627E+00   4.03754959E+01   4.03754959E+01  -1.70040214E+00  -5.05026627E+00   4.54257622E+01  -1.12082758E+01   4.35576134E+01   2.25229487E-01   3.84498634E+01  -5.05026627E+00   8.79287720E+00
              446                1   5.27885780E+01   4.83475800E+01   4.83475800E+01  -1.90262675E+00  -6.65763807E+00   4.83475800E+01   4.83475800E+01  -1.90262675E+00  -6.65763807E+00   5.50052185E+01  -1.32624388E+01   5.23035011E+01   1.20270691E+01   3.44178848E+01  -6.65763807E+00   2.24929695E+01
              446                2   5.14056473E+01   4.73728333E+01   4.73728333E+01  -9.27881181E-01  -6.65763807E+00   4.73728333E+01   4.73728333E+01  -9.27881181E-01  -6.65763807E+00   5.40304718E+01  -1.32624388E+01   5.06797638E+01   1.15507965E+01   3.48941574E+01  -6.65763807E+00   2.11426506E+01
              446                3   5.48658981E+01   4.97896576E+01   4.97896576E+01  -3.34470487E+00  -6.65763807E+00   4.97896576E+01   4.97896576E+01  -3.34470487E+00  -6.65763807E+00   5.64472961E+01  -1.32624388E+01   5.46401825E+01   1.07809315E+01   3.56640244E+01  -6.65763807E+00   2.34738808E+01
              446                4   5.35337601E+01   4.88677635E+01   4.88677635E+01  -2.42280602E+00  -6.65763807E+00   4.88677635E+01   4.88677635E+01  -2.42280602E+00  -6.65763807E+00   5.55254021E+01  -1.32624397E+01   5.31549454E+01   1.02747908E+01   3.61701660E+01  -6.65763807E+00   2.21368027E+01
              447                1   5.11881447E+01   4.44126816E+01   4.44126816E+01  -3.73677969E+00  -9.35124016E+00   4.44126816E+01   4.44126816E+01  -3.73677969E+00  -9.35124016E+00   5.37639236E+01  -1.04415541E+01   5.04884491E+01   4.11504030E+00   3.65608635E+01  -9.35124016E+00   1.77879124E+01
              447                2   5.04680748E+01   4.39004822E+01   4.39004822E+01  -3.22457981E+00  -9.35124016E+00   4.39004822E+01   4.39004822E+01  -3.22457981E+00  -9.35124016E+00   5.32517242E+01  -1.04415541E+01   4.96210785E+01   3.88400459E+00   3.67919006E+01  -9.35124016E+00   1.68659554E+01
              447                3   5.21842537E+01   4.51152802E+01   4.51152802E+01  -4.43937826E+00  -9.35124016E+00   4.51152802E+01   4.51152802E+01  -4.43937826E+00  -9.35124016E+00   5.44665222E+01  -1.04415541E+01   5.16603317E+01   3.30474448E+00   3.73711586E+01  -9.35124016E+00   1.79940529E+01
              447                4   5.14839783E+01   4.46220474E+01   4.46220474E+01  -3.94614339E+00  -9.35124016E+00   4.46220474E+01   4.46220474E+01  -3.94614339E+00  -9.35124016E+00   5.39732857E+01  -1.04415541E+01   5.08397636E+01   3.08230352E+00   3.75936012E+01  -9.35124016E+00   1.70868320E+01
              448                1   6.27260590E+01   5.59225388E+01   5.59225388E+01  -5.13061047E+00  -8.35226917E+00   5.59225388E+01   5.59225388E+01  -5.13061047E+00  -8.35226917E+00   6.42748108E+01  -1.41465530E+01   6.25395088E+01   2.68891394E-01   5.05230370E+01  -8.35226917E+00   1.73349915E+01
              448                2   6.21798286E+01   5.55477333E+01   5.55477333E+01  -4.75580740E+00  -8.35226917E+00   5.55477333E+01   5.55477333E+01  -4.75580740E+00  -8.35226917E+00   6.39000053E+01  -1.41465530E+01   6.19451675E+01   2.18978167E-01   5.05729485E+01  -8.35226917E+00   1.65906219E+01
              448                3   6.36220360E+01   5.65344734E+01   5.65344734E+01  -5.74254131E+00  -8.35226917E+00   5.65344734E+01   5.65344734E+01  -5.74254131E+00  -8.35226917E+00   6.48867416E+01  -1.41465540E+01   6.35014381E+01  -4.82045889E-01   5.12739754E+01  -8.35226917E+00   1.73186378E+01
              448                4   6.31093369E+01   5.61847343E+01   5.61847343E+01  -5.39280605E+00  -8.35226917E+00   5.61847343E+01   5.61847343E+01  -5.39280605E+00  -8.35226917E+00   6.45370026E+01  -1.41465530E+01   6.29529266E+01  -5.42328417E-01   5.13342552E+01  -8.35226917E+00   1.65877476E+01
              449                1   1.21981613E+02   1.41991928E+02   1.41991928E+02   1.85919209E+01   2.14799919E+01   1.41991928E+02   1.41991928E+02   2.14799919E+01   1.85919209E+01   1.23400009E+02  -6.06879463E+01   1.21904655E+02   2.08286476E+01   1.39755203E+02   2.14799919E+01   1.64623432E+01
              449                2   1.21689812E+02   1.41799561E+02   1.41799561E+02   1.87842999E+01   2.14799919E+01   1.41799561E+02   1.41799561E+02   2.14799919E+01   1.87842999E+01   1.23015259E+02  -6.06879539E+01   1.21622597E+02   2.09655437E+01   1.39618317E+02   2.14799919E+01   1.62347984E+01
              449                3   1.22252129E+02   1.42170135E+02   1.42170135E+02   1.84137096E+01   2.14799919E+01   1.42170135E+02   1.42170135E+02   2.14799919E+01   1.84137096E+01   1.23756424E+02  -6.06879463E+01   1.22165565E+02   2.06275673E+01   1.39956284E+02   2.14799919E+01   1.64035816E+01
              449                4   1.22042137E+02   1.42031815E+02   1.42031815E+02   1.85520401E+01   2.14799919E+01   1.42031815E+02   1.42031815E+02   2.14799919E+01   1.85520401E+01   1.23479767E+02  -6.06879463E+01   1.21963066E+02   2.07067089E+01   1.39877136E+02   2.14799919E+01   1.61683540E+01
              450                1   8.14137802E+01   7.70383987E+01   7.70383987E+01  -4.28212976E+00  -4.46829987E+00   7.70383987E+01   7.70383987E+01  -4.28212976E+00  -4.46829987E+00   8.15066986E+01  -2.27626572E+01   8.14132919E+01   3.25481105E+00   6.95014572E+01  -4.46829987E+00   2.35818310E+01
              450                2   8.02473679E+01   7.62579956E+01   7.62579956E+01  -3.50172162E+00  -4.46829987E+00   7.62579956E+01   7.62579956E+01  -3.50172162E+00  -4.46829987E+00   8.07262955E+01  -2.27626572E+01   8.02342682E+01   4.33971071E+00   6.84165573E+01  -4.46829987E+00   2.37474747E+01
              450                3   8.03676682E+01   7.63386612E+01   7.63386612E+01  -3.58239102E+00  -4.46829987E+00   7.63386612E+01   7.63386612E+01  -3.58239102E+00  -4.46829987E+00   8.08069611E+01  -2.27626572E+01   8.03566818E+01   3.36456776E+00   6.93917007E+01  -4.46829987E+00   2.25155106E+01
              450                4   7.92629547E+01   7.55962601E+01   7.55962601E+01  -2.83999491E+00  -4.46829987E+00   7.55962601E+01   7.55962601E+01  -2.83999491E+00  -4.46829987E+00   8.00645599E+01  -2.27626553E+01   7.92253113E+01   4.38913298E+00   6.83671341E+01  -4.46829987E+00   2.26884403E+01
              451                1   6.55510254E+01   5.88591614E+01   5.88591614E+01  -5.45356941E+00  -7.86368847E+00   5.88591614E+01   5.88591614E+01  -5.45356941E+00  -7.86368847E+00   6.67228470E+01  -1.51806335E+01   6.54512253E+01  -1.32577765E+00   5.47313690E+01  -7.86368847E+00   1.57616882E+01
              451                2   6.51270065E+01   5.85706711E+01   5.85706711E+01  -5.16508198E+00  -7.86368847E+00   5.85706711E+01   5.85706711E+01  -5.16508198E+00  -7.86368847E+00   6.64343643E+01  -1.51806335E+01   6.50010300E+01  -1.32086730E+00   5.47264557E+01  -7.86368847E+00   1.51735306E+01
              451                3   6.63486176E+01   5.93998718E+01   5.93998718E+01  -5.99428368E+00  -7.86368847E+00   5.93998718E+01   5.93998718E+01  -5.99428368E+00  -7.86368847E+00   6.72635651E+01  -1.51806335E+01   6.62893219E+01  -2.00387263E+00   5.54094620E+01  -7.86368847E+00   1.56533136E+01
              451                4   6.59434738E+01   5.91255264E+01   5.91255264E+01  -5.71993542E+00  -7.86368847E+00   5.91255264E+01   5.91255264E+01  -5.71993542E+00  -7.86368847E+00   6.69892120E+01  -1.51806335E+01   6.58650055E+01  -1.99310219E+00   5.53986931E+01  -7.86368847E+00   1.50923452E+01
              452                1   3.56801643E+01   3.10707836E+01   3.10707836E+01  -6.99026823E-01  -7.53158855E+00   3.10707836E+01   3.10707836E+01  -6.99026823E-01  -7.53158855E+00   3.86023712E+01  -7.61338949E+00   3.41614685E+01   1.35727406E+01   1.67990170E+01  -7.53158855E+00   1.58027849E+01
              452                2   3.58273506E+01   3.11808338E+01   3.11808338E+01  -8.09076488E-01  -7.53158855E+00   3.11808338E+01   3.11808338E+01  -8.09076488E-01  -7.53158855E+00   3.87124214E+01  -7.61338949E+00   3.43651352E+01   1.35623789E+01   1.68093777E+01  -7.53158855E+00   1.59123487E+01
              452                3   3.56745758E+01   3.10666008E+01   3.10666008E+01  -6.94843769E-01  -7.53158855E+00   3.10666008E+01   3.10666008E+01  -6.94843769E-01  -7.53158855E+00   3.85981903E+01  -7.61338949E+00   3.41537056E+01   1.36887827E+01   1.66829739E+01  -7.53158855E+00   1.58099985E+01
              452                4   3.58273811E+01   3.11808548E+01   3.11808548E+01  -8.09097946E-01  -7.53158855E+00   3.11808548E+01   3.11808548E+01  -8.09097946E-01  -7.53158855E+00   3.87124443E+01  -7.61338949E+00   3.43651772E+01   1.36814442E+01   1.66903133E+01  -7.53158855E+00   1.59240685E+01
              453                1   1.04034615E+02   1.08690582E+02   1.08690582E+02   4.35210705E+00   4.96251965E+00   1.08690582E+02   1.08690582E+02   4.96251965E+00   4.35210705E+00   1.04338470E+02  -3.93350677E+01   1.04030579E+02   7.55133486E+00   1.05491348E+02   4.96251965E+00   1.79879913E+01
              453                2   1.04886795E+02   1.09256294E+02   1.09256294E+02   3.78638101E+00   4.96251965E+00   1.09256294E+02   1.09256294E+02   4.96251965E+00   3.78638101E+00   1.05469917E+02  -3.93350639E+01   1.04871956E+02   6.94843483E+00   1.06094246E+02   4.96251965E+00   1.79861832E+01
              453                3   1.04348106E+02   1.08898865E+02   1.08898865E+02   4.14381552E+00   4.96251965E+00   1.08898865E+02   1.08898865E+02   4.96251965E+00   4.14381552E+00   1.04755051E+02  -3.93350639E+01   1.04340881E+02   7.55418539E+00   1.05488495E+02   4.96251965E+00   1.85909309E+01
              453                4   1.05181992E+02   1.09451920E+02   1.09451920E+02   3.59075761E+00   4.96251965E+00   1.09451920E+02   1.09451920E+02   4.96251965E+00   3.59075761E+00   1.05861160E+02  -3.93350639E+01   1.05161865E+02   6.96457195E+00   1.06078110E+02   4.96251965E+00   1.85949726E+01
              454                1   8.38616333E+01   7.92532578E+01   7.92532578E+01  -4.60230637E+00  -4.61443472E+00   7.92532578E+01   7.92532578E+01  -4.60230637E+00  -4.61443472E+00   8.38676987E+01  -2.33455067E+01   8.38616333E+01   1.44139409E+00   7.32095642E+01  -4.61443472E+00   2.16857414E+01
              454                2   8.26297684E+01   7.84299088E+01   7.84299088E+01  -3.77895427E+00  -4.61443472E+00   7.84299088E+01   7.84299088E+01  -3.77895427E+00  -4.61443472E+00   8.30443420E+01  -2.33455067E+01   8.26202698E+01   2.46590614E+00   7.21850510E+01  -4.61443472E+00   2.17803688E+01
              454                3   8.28688354E+01   7.85900192E+01   7.85900192E+01  -3.93906689E+00  -4.61443472E+00   7.85900192E+01   7.85900192E+01  -3.93906689E+00  -4.61443472E+00   8.32044601E+01  -2.33455067E+01   8.28626480E+01   1.65069044E+00   7.30002670E+01  -4.61443472E+00   2.07381783E+01
              454                4   8.16505585E+01   7.77723846E+01   7.77723846E+01  -3.12143183E+00  -4.61443472E+00   7.77723846E+01   7.77723846E+01  -3.12143183E+00  -4.61443472E+00   8.23868256E+01  -2.33455067E+01   8.16198349E+01   2.65895915E+00   7.19919968E+01  -4.61443472E+00   2.08371048E+01
              455                1   6.98571243E+01   6.55399628E+01   6.55399628E+01  -3.49425054E+00  -5.11197042E+00   6.55399628E+01   6.55399628E+01  -3.49425054E+00  -5.11197042E+00   7.06519394E+01  -1.89779148E+01   6.98149643E+01   7.66076469E+00   5.43849525E+01  -5.11197042E+00   2.54095116E+01
              455                2   6.91998520E+01   6.50957870E+01   6.50957870E+01  -3.05007076E+00  -5.11197042E+00   6.50957870E+01   6.50957870E+01  -3.05007076E+00  -5.11197042E+00   7.02077637E+01  -1.89779167E+01   6.91306839E+01   8.65368938E+00   5.33920288E+01  -5.11197042E+00   2.57018452E+01
              455                3   6.86715546E+01   6.47376251E+01   6.47376251E+01  -2.69190526E+00  -5.11197042E+00   6.47376251E+01   6.47376251E+01  -2.69190526E+00  -5.11197042E+00   6.98495941E+01  -1.89779167E+01   6.85755081E+01   7.79021358E+00   5.42555046E+01  -5.11197042E+00   2.44321423E+01
              455                4   6.80162659E+01   6.42918930E+01   6.42918930E+01  -2.24618053E+00  -5.11197042E+00   6.42918930E+01   6.42918930E+01  -2.24618053E+00  -5.11197042E+00   6.94038696E+01  -1.89779148E+01   6.78802261E+01   8.74871922E+00   5.32969971E+01  -5.11197042E+00   2.47121754E+01
              456                1   9.79865875E+01   9.82325745E+01   9.82325745E+01  -2.37579748E-01   7.36822665E-01   9.82325745E+01   9.82325745E+01   7.36822665E-01  -2.37579748E-01   9.84701538E+01  -3.29106064E+01   9.79756851E+01   4.25328398E+00   9.37417145E+01   7.36822665E-01   2.05438042E+01
              456                2   9.70855560E+01   9.76339493E+01   9.76339493E+01   3.61046731E-01   7.36822665E-01   9.76339493E+01   9.76339493E+01   7.36822665E-01   3.61046731E-01   9.72729034E+01  -3.29106064E+01   9.70839233E+01   4.90179586E+00   9.30932007E+01   7.36822665E-01   2.05200710E+01
              456                3   9.76198883E+01   9.79891586E+01   9.79891586E+01   5.83439320E-03   7.36822665E-01   9.79891586E+01   9.79891586E+01   7.36822665E-01   5.83439320E-03   9.79833298E+01  -3.29106064E+01   9.76137238E+01   4.22346973E+00   9.37715225E+01   7.36822665E-01   1.98864212E+01
              456                4   9.67168579E+01   9.73884659E+01   9.73884659E+01   6.06529057E-01   7.36822665E-01   9.73884659E+01   9.73884659E+01   7.36822665E-01   6.06529057E-01   9.67819366E+01  -3.29106064E+01   9.67166595E+01   4.86430311E+00   9.31306915E+01   7.36822665E-01   1.98480988E+01
              457                1   6.40064697E+01   5.72565956E+01   5.72565956E+01  -5.12116909E+00  -8.26286983E+00   5.72565956E+01   5.72565956E+01  -5.12116909E+00  -8.26286983E+00   6.55194626E+01  -1.46241846E+01   6.38326454E+01   8.08334947E-01   5.13270912E+01  -8.26286983E+00   1.82950859E+01
              457                2   6.33820496E+01   5.68285942E+01   5.68285942E+01  -4.69316721E+00  -8.26286983E+00   5.68285942E+01   5.68285942E+01  -4.69316721E+00  -8.26286983E+00   6.50914612E+01  -1.46241846E+01   6.31552849E+01   7.70218551E-01   5.13652077E+01  -8.26286983E+00   1.75005283E+01
              457                3   6.49489746E+01   5.78994598E+01   5.78994598E+01  -5.76403332E+00  -8.26286983E+00   5.78994598E+01   5.78994598E+01  -5.76403332E+00  -8.26286983E+00   6.61623306E+01  -1.46241846E+01   6.48406830E+01  -1.27284396E-02   5.21481552E+01  -8.26286983E+00   1.82502213E+01
              457                4   6.43539886E+01   5.74940643E+01   5.74940643E+01  -5.35863829E+00  -8.26286983E+00   5.74940643E+01   5.74940643E+01  -5.35863829E+00  -8.26286983E+00   6.57569351E+01  -1.46241846E+01   6.42062912E+01  -5.41281663E-02   5.21895523E+01  -8.26286983E+00   1.74718361E+01
              458                1   5.46854019E+01   5.04710121E+01   5.04710121E+01  -3.23095679E+00  -5.14743662E+00   5.04710121E+01   5.04710121E+01  -3.23095679E+00  -5.14743662E+00   5.56184502E+01  -1.40308723E+01   5.46097679E+01  -1.12991869E+00   4.83699722E+01  -5.14743662E+00   1.04122810E+01
              458                2   5.51251793E+01   5.07691116E+01   5.07691116E+01  -3.52905798E+00  -5.14743662E+00   5.07691116E+01   5.07691116E+01  -3.52905798E+00  -5.14743662E+00   5.59165497E+01  -1.40308723E+01   5.50716934E+01  -1.52963293E+00   4.87696877E+01  -5.14743662E+00   1.02258224E+01
              458                3   5.50661430E+01   5.07291451E+01   5.07291451E+01  -3.48909521E+00  -5.14743662E+00   5.07291451E+01   5.07291451E+01  -3.48909521E+00  -5.14743662E+00   5.58765831E+01  -1.40308714E+01   5.50099220E+01  -1.22720957E+00   4.84672623E+01  -5.14743662E+00   1.08406305E+01
              458                4   5.55012779E+01   5.10233421E+01   5.10233421E+01  -3.78329086E+00  -5.14743662E+00   5.10233421E+01   5.10233421E+01  -3.78329086E+00  -5.14743662E+00   5.61707802E+01  -1.40308714E+01   5.54635429E+01  -1.62812614E+00   4.88681793E+01  -5.14743662E+00   1.06523466E+01
              459                1   8.22978134E+01   7.70143890E+01   7.70143890E+01  -4.93608332E+00  -5.62641191E+00   7.70143890E+01   7.70143890E+01  -4.93608332E+00  -5.62641191E+00   8.26408005E+01  -2.21506329E+01   8.22912979E+01  -6.80741489E-01   7.27590485E+01  -5.62641191E+00   1.81829433E+01
              459                2   8.30527725E+01   7.75190430E+01   7.75190430E+01  -5.44073486E+00  -5.62641191E+00   7.75190430E+01   7.75190430E+01  -5.44073486E+00  -5.62641191E+00   8.31454544E+01  -2.21506329E+01   8.30523071E+01  -7.73352623E-01   7.28516617E+01  -5.62641191E+00   1.91159744E+01
              459                3   8.10287704E+01   7.61624756E+01   7.61624756E+01  -4.08416414E+00  -5.62641191E+00   7.61624756E+01   7.61624756E+01  -4.08416414E+00  -5.62641191E+00   8.17888870E+01  -2.21506329E+01   8.09957352E+01   3.09478521E-01   7.17688293E+01  -5.62641191E+00   1.82557106E+01
              459                4   8.19452820E+01   7.67781982E+01   7.67781982E+01  -4.69989061E+00  -5.62641191E+00   7.67781982E+01   7.67781982E+01  -4.69989061E+00  -5.62641191E+00   8.24046097E+01  -2.21506329E+01   8.19334869E+01   1.44444287E-01   7.19338608E+01  -5.62641191E+00   1.92675838E+01
              460                1   1.16375175E+02   1.30225372E+02   1.30225372E+02   1.04235744E+01   1.76098614E+01   1.30225372E+02   1.30225372E+02   1.76098614E+01   1.04235744E+01   1.19801796E+02  -5.27529335E+01   1.15874390E+02   3.00292301E+01   1.10619713E+02   1.76098614E+01   4.43216743E+01
              460                2   1.17248482E+02   1.30790375E+02   1.30790375E+02   9.85856819E+00   1.76098614E+01   1.30790375E+02   1.30790375E+02   1.76098614E+01   9.85856819E+00   1.20931808E+02  -5.27529335E+01   1.16669930E+02   2.86870174E+01   1.11961929E+02   1.76098614E+01   4.38457260E+01
              460                3   1.17917297E+02   1.31222366E+02   1.31222366E+02   9.42658043E+00   1.76098614E+01   1.31222366E+02   1.31222366E+02   1.76098614E+01   9.42658043E+00   1.21795776E+02  -5.27529335E+01   1.17275879E+02   2.99273148E+01   1.10721626E+02   1.76098614E+01   4.55699768E+01
              460                4   1.18962692E+02   1.31896362E+02   1.31896362E+02   8.75258350E+00   1.76098614E+01   1.31896362E+02   1.31896362E+02   1.76098614E+01   8.75258350E+00   1.23143776E+02  -5.27529335E+01   1.18217422E+02   2.85065098E+01   1.12142433E+02   1.76098614E+01   4.51924248E+01
              461                1   1.03635536E+02   1.09189590E+02   1.09189590E+02   4.91248608E+00   6.20775986E+00   1.09189590E+02   1.09189590E+02   6.20775986E+00   4.91248608E+00   1.04277100E+02  -4.01032753E+01   1.03617325E+02   1.06167221E+01   1.03485352E+02   6.20775986E+00   2.37125053E+01
              461                2   1.03087036E+02   1.08825859E+02   1.08825859E+02   5.27620602E+00   6.20775986E+00   1.08825859E+02   1.08825859E+02   6.20775986E+00   5.27620602E+00   1.03549652E+02  -4.01032753E+01   1.03077560E+02   1.05960951E+01   1.03505974E+02   6.20775986E+00   2.28598156E+01
              461                3   1.04757652E+02   1.09931801E+02   1.09931801E+02   4.17026472E+00   6.20775986E+00   1.09931801E+02   1.09931801E+02   6.20775986E+00   4.17026472E+00   1.05761536E+02  -4.01032753E+01   1.04713051E+02   9.78274918E+00   1.04319321E+02   6.20775986E+00   2.37083244E+01
              461                4   1.04233749E+02   1.09585579E+02   1.09585579E+02   4.51649094E+00   6.20775986E+00   1.09585579E+02   1.09585579E+02   6.20775986E+00   4.51649094E+00   1.05069092E+02  -4.01032753E+01   1.04202873E+02   9.75560474E+00   1.04346466E+02   6.20775986E+00   2.28696499E+01
              462                1   1.00250343E+02   1.07442604E+02   1.07442604E+02   5.98865986E+00   8.44086170E+00   1.07442604E+02   1.07442604E+02   8.44086170E+00   5.98865986E+00   1.01453949E+02  -4.06240425E+01   1.00182823E+02   1.79451046E+01   9.54861603E+01   8.44086170E+00   3.27119560E+01
              462                2   1.01036781E+02   1.07960068E+02   1.07960068E+02   5.47119045E+00   8.44086170E+00   1.07960068E+02   1.07960068E+02   8.44086170E+00   5.47119045E+00   1.02488876E+02  -4.06240425E+01   1.00938515E+02   1.76840000E+01   9.57472610E+01   8.44086170E+00   3.32042809E+01
              462                3   9.97683029E+01   1.07124825E+02   1.07124825E+02   6.30643225E+00   8.44086170E+00   1.07124825E+02   1.07124825E+02   8.44086170E+00   6.30643225E+00   1.00818398E+02  -4.06240425E+01   9.97169113E+01   1.85691395E+01   9.48621216E+01   8.44086170E+00   3.29534874E+01
              462                4   1.00813896E+02   1.07813538E+02   1.07813538E+02   5.61772585E+00   8.44086170E+00   1.07813538E+02   1.07813538E+02   8.44086170E+00   5.61772585E+00   1.02195816E+02  -4.06240425E+01   1.00724899E+02   1.81655102E+01   9.52657547E+01   8.44086170E+00   3.35392952E+01
              463                1   1.26924316E+02   1.45908966E+02   1.45908966E+02   1.63035221E+01   2.18474712E+01   1.45908966E+02   1.45908966E+02   2.18474712E+01   1.63035221E+01   1.29605453E+02  -6.13533211E+01   1.26651466E+02   2.28079071E+01   1.39404587E+02   2.18474712E+01   2.82965851E+01
              463                2   1.25462685E+02   1.44953156E+02   1.44953156E+02   1.72593403E+01   2.18474712E+01   1.44953156E+02   1.44953156E+02   2.18474712E+01   1.72593403E+01   1.27693810E+02  -6.13533211E+01   1.25273712E+02   2.32825279E+01   1.38929962E+02   2.18474712E+01   2.70711174E+01
              463                3   1.28492188E+02   1.46930862E+02   1.46930862E+02   1.52816343E+01   2.18474712E+01   1.46930862E+02   1.46930862E+02   2.18474712E+01   1.52816343E+01   1.31649231E+02  -6.13533211E+01   1.28113922E+02   2.16015282E+01   1.40610962E+02   2.18474712E+01   2.81437111E+01
              463                4   1.26887871E+02   1.45885178E+02   1.45885178E+02   1.63273163E+01   2.18474712E+01   1.45885178E+02   1.45885178E+02   2.18474712E+01   1.63273163E+01   1.29557861E+02  -6.13533211E+01   1.26617294E+02   2.21667843E+01   1.40045715E+02   2.18474712E+01   2.68784180E+01
              464                1   9.06313553E+01   8.74813461E+01   8.74813461E+01  -3.02377033E+00  -3.27573490E+00   8.74813461E+01   8.74813461E+01  -3.02377033E+00  -3.27573490E+00   9.07570801E+01  -2.70606136E+01   9.06305695E+01   8.07055295E-01   8.36505203E+01  -3.27573490E+00   1.82217960E+01
              464                2   9.02613602E+01   8.72341614E+01   8.72341614E+01  -2.77658248E+00  -3.27573490E+00   8.72341614E+01   8.72341614E+01  -2.77658248E+00  -3.27573490E+00   9.05098953E+01  -2.70606155E+01   9.02582474E+01   7.87048578E-01   8.36705322E+01  -3.27573490E+00   1.75517979E+01
              464                3   9.14234848E+01   8.80093994E+01   8.80093994E+01  -3.55181575E+00  -3.27573490E+00   8.80093994E+01   8.80093994E+01  -3.27573490E+00  -3.55181575E+00   9.15612106E+01  -2.70606155E+01   9.14225464E+01   2.15165511E-01   8.42424164E+01  -3.27573490E+00   1.81856842E+01
              464                4   9.10291290E+01   8.77466965E+01   8.77466965E+01  -3.28911853E+00  -3.27573490E+00   8.77466965E+01   8.77466965E+01  -3.27573490E+00  -3.28911853E+00   9.10358200E+01  -2.70606155E+01   9.10291214E+01   2.15844452E-01   8.42417374E+01  -3.27573490E+00   1.75154877E+01
              465                1   9.83034515E+01   9.96302109E+01   9.96302109E+01   6.81955636E-01   1.98449790E+00   9.96302109E+01   9.96302109E+01   1.98449790E+00   6.81955636E-01   9.89482498E+01  -3.40988884E+01   9.82840347E+01   6.43520927E+00   9.38769531E+01   1.98449790E+00   2.31554451E+01
              465                2   9.71965485E+01   9.88957596E+01   9.88957596E+01   1.41640007E+00   1.98449790E+00   9.88957596E+01   9.88957596E+01   1.98449790E+00   1.41640007E+00   9.74793549E+01  -3.40988846E+01   9.71928177E+01   7.25229979E+00   9.30598602E+01   1.98449790E+00   2.31262131E+01
              465                3   9.77554550E+01   9.92669296E+01   9.92669296E+01   1.04522443E+00   1.98449790E+00   9.92669296E+01   9.92669296E+01   1.98449790E+00   1.04522443E+00   9.82217102E+01  -3.40988846E+01   9.77453079E+01   6.38575268E+00   9.39264069E+01   1.98449790E+00   2.22718277E+01
              465                4   9.66230927E+01   9.85141907E+01   9.85141907E+01   1.79796708E+00   1.98449790E+00   9.85141907E+01   9.85141907E+01   1.98449790E+00   1.79796708E+00   9.67162247E+01  -3.40988846E+01   9.66226883E+01   7.21994686E+00   9.30922089E+01   1.98449790E+00   2.22484970E+01
              466                1   6.15522232E+01   5.44505653E+01   5.44505653E+01  -5.50137663E+00  -8.58595562E+00   5.44505653E+01   5.44505653E+01  -5.50137663E+00  -8.58595562E+00   6.30365219E+01  -1.34544106E+01   6.13779678E+01   4.69418019E-01   4.84797707E+01  -8.58595562E+00   1.79530029E+01
              466                2   6.05924187E+01   5.37914886E+01   5.37914886E+01  -4.84230185E+00  -8.58595562E+00   5.37914886E+01   5.37914886E+01  -4.84230185E+00  -8.58595562E+00   6.23774452E+01  -1.34544106E+01   6.03313980E+01   1.27414811E+00   4.76750412E+01  -8.58595562E+00   1.79226017E+01
              466                3   6.09910469E+01   5.40657425E+01   5.40657425E+01  -5.11655331E+00  -8.58595562E+00   5.40657425E+01   5.40657425E+01  -5.11655331E+00  -8.58595562E+00   6.26516991E+01  -1.34544106E+01   6.07684402E+01   3.94597828E-01   4.85545921E+01  -8.58595562E+00   1.71985378E+01
              466                4   5.99902458E+01   5.33757477E+01   5.33757477E+01  -4.42655420E+00  -8.58595562E+00   5.33757477E+01   5.33757477E+01  -4.42655420E+00  -8.58595562E+00   6.19617004E+01  -1.34544115E+01   5.96645279E+01   1.22230470E+00   4.77268867E+01  -8.58595562E+00   1.71641331E+01
              467                1   1.15247513E+02   1.28423706E+02   1.28423706E+02   1.03086748E+01   1.62755146E+01   1.28423706E+02   1.28423706E+02   1.62755146E+01   1.03086748E+01   1.18115028E+02  -5.16692963E+01   1.14899216E+02   2.54614983E+01   1.13270882E+02   1.62755146E+01   3.94989586E+01
              467                2   1.15080864E+02   1.28315277E+02   1.28315277E+02   1.04170980E+01   1.62755146E+01   1.28315277E+02   1.28315277E+02   1.62755146E+01   1.04170980E+01   1.17898178E+02  -5.16692963E+01   1.14744644E+02   2.53149586E+01   1.13417419E+02   1.62755146E+01   3.91724930E+01
              467                3   1.15874702E+02   1.28831375E+02   1.28831375E+02   9.90099716E+00   1.62755146E+01   1.28831375E+02   1.28831375E+02   1.62755146E+01   9.90099716E+00   1.18930382E+02  -5.16692963E+01   1.15479218E+02   2.51146088E+01   1.13617767E+02   1.62755146E+01   3.97228737E+01
              467                4   1.15774101E+02   1.28766037E+02   1.28766037E+02   9.96634674E+00   1.62755146E+01   1.28766037E+02   1.28766037E+02   1.62755146E+01   9.96634674E+00   1.18799683E+02  -5.16692963E+01   1.15386368E+02   2.49066563E+01   1.13825722E+02   1.62755146E+01   3.93915100E+01
              468                1   6.56010666E+01   6.37413216E+01   6.37413216E+01  -1.07696474E+00  -2.61546373E+00   6.37413216E+01   6.37413216E+01  -1.07696474E+00  -2.61546373E+00   6.63567810E+01  -2.00162983E+01   6.55604553E+01   1.55987673E+01   4.70655899E+01  -2.61546373E+00   2.83339424E+01
              468                2   6.51418839E+01   6.34311028E+01   6.34311028E+01  -7.66741157E-01  -2.61546373E+00   6.34311028E+01   6.34311028E+01  -7.66741157E-01  -2.61546373E+00   6.60465622E+01  -2.00162983E+01   6.50828171E+01   1.61576443E+01   4.65067139E+01  -2.61546373E+00   2.82855835E+01
              468                3   6.47725677E+01   6.31810036E+01   6.31810036E+01  -5.16647637E-01  -2.61546373E+00   6.31810036E+01   6.31810036E+01  -5.16647637E-01  -2.61546373E+00   6.57964706E+01  -2.00162983E+01   6.46959915E+01   1.55830393E+01   4.70813179E+01  -2.61546373E+00   2.76823463E+01
              468                4   6.43069839E+01   6.28649445E+01   6.28649445E+01  -2.00583383E-01  -2.61546373E+00   6.28649445E+01   6.28649445E+01  -2.00583383E-01  -2.61546373E+00   6.54804077E+01  -2.00162983E+01   6.42048416E+01   1.62144070E+01   4.64499512E+01  -2.61546373E+00   2.76725159E+01
              469                1   1.06676674E+02   1.16201591E+02   1.16201591E+02   5.45287514E+00   1.41265430E+01   1.16201591E+02   1.16201591E+02   1.41265430E+01   5.45287514E+00   1.10748711E+02  -4.52603340E+01   1.05878967E+02   3.26983833E+01   8.89560776E+01   1.41265430E+01   4.76978760E+01
              469                2   1.05450966E+02   1.15413406E+02   1.15413406E+02   6.24105692E+00   1.41265430E+01   1.15413406E+02   1.15413406E+02   1.41265430E+01   6.24105692E+00   1.09172348E+02  -4.52603340E+01   1.04784546E+02   3.44443321E+01   8.72101288E+01   1.41265430E+01   4.77869568E+01
              469                3   1.04583763E+02   1.14854408E+02   1.14854408E+02   6.80004597E+00   1.41265430E+01   1.14854408E+02   1.14854408E+02   1.41265430E+01   6.80004597E+00   1.08054367E+02  -4.52603340E+01   1.04004028E+02   3.26272202E+01   8.90272369E+01   1.41265430E+01   4.60835762E+01
              469                4   1.03411469E+02   1.14096916E+02   1.14096916E+02   7.55754614E+00   1.41265430E+01   1.14096916E+02   1.14096916E+02   1.41265430E+01   7.55754614E+00   1.06539375E+02  -4.52603340E+01   1.02940475E+02   3.43183327E+01   8.73361282E+01   1.41265430E+01   4.62053871E+01
              470                1   5.60517616E+01   5.13436775E+01   5.13436775E+01  -3.64090347E+00  -5.71754646E+00   5.13436775E+01   5.13436775E+01  -3.64090347E+00  -5.71754646E+00   5.70612259E+01  -1.39950762E+01   5.59651070E+01  -1.38834393E+00   4.90911179E+01  -5.71754646E+00   1.08987169E+01
              470                2   5.65336266E+01   5.16706200E+01   5.16706200E+01  -3.96784472E+00  -5.71754646E+00   5.16706200E+01   5.16706200E+01  -3.96784472E+00  -5.71754646E+00   5.73881645E+01  -1.39950762E+01   5.64726524E+01  -1.82370758E+00   4.95264816E+01  -5.71754646E+00   1.07097702E+01
              470                3   5.64367943E+01   5.16050072E+01   5.16050072E+01  -3.90223217E+00  -5.71754646E+00   5.16050072E+01   5.16050072E+01  -3.90223217E+00  -5.71754646E+00   5.73225517E+01  -1.39950762E+01   5.63710480E+01  -1.47976279E+00   4.91825371E+01  -5.71754646E+00   1.13400269E+01
              470                4   5.69094238E+01   5.19248657E+01   5.19248657E+01  -4.22209358E+00  -5.71754646E+00   5.19248657E+01   5.19248657E+01  -4.22209358E+00  -5.71754646E+00   5.76424141E+01  -1.39950762E+01   5.68651886E+01  -1.91465306E+00   4.96174278E+01  -5.71754646E+00   1.11459160E+01
              471                1   4.10166473E+01   3.70776482E+01   3.70776482E+01  -1.59143901E+00  -5.94004440E+00   3.70776482E+01   3.70776482E+01  -1.59143901E+00  -5.94004440E+00   4.30176926E+01  -9.84872150E+00   4.04931488E+01   3.41951340E-01   3.51442604E+01  -5.94004440E+00   8.42759609E+00
              471                2   4.08391762E+01   3.69520149E+01   3.69520149E+01  -1.46580660E+00  -5.94004440E+00   3.69520149E+01   3.69520149E+01  -1.46580660E+00  -5.94004440E+00   4.28920593E+01  -9.84872150E+00   4.02822304E+01   3.05997759E-01   3.51802139E+01  -5.94004440E+00   8.05788517E+00
              471                3   4.14833755E+01   3.74067688E+01   3.74067688E+01  -1.92055833E+00  -5.94004440E+00   3.74067688E+01   3.74067688E+01  -1.92055833E+00  -5.94004440E+00   4.33468132E+01  -9.84872150E+00   4.10418358E+01  -1.30883092E-02   3.54992981E+01  -5.94004440E+00   8.44850636E+00
              471                4   4.13084030E+01   3.72835999E+01   3.72835999E+01  -1.79738855E+00  -5.94004440E+00   3.72835999E+01   3.72835999E+01  -1.79738855E+00  -5.94004440E+00   4.32236443E+01  -9.84872150E+00   4.08371391E+01  -4.93985601E-02   3.55356102E+01  -5.94004440E+00   8.07822037E+00
              472                1   2.20449467E+01   1.47330856E+01   1.47330856E+01  -3.21232975E-01  -1.05706100E+01   1.47330856E+01   1.47330856E+01  -3.21232975E-01  -1.05706100E+01   2.53036957E+01  -1.28041422E+00   1.51061926E+01   7.42073727E+00   6.99111557E+00  -1.05706100E+01   7.52409363E+00
              472                2   2.17581940E+01   1.44496298E+01   1.44496298E+01  -3.77778821E-02  -1.05706100E+01   1.44496298E+01   1.44496298E+01  -3.77778821E-02  -1.05706100E+01   2.50202389E+01  -1.28041399E+00   1.40564642E+01   7.23085546E+00   7.18099689E+00  -1.05706100E+01   7.24366093E+00
              472                3   2.22566814E+01   1.49379940E+01   1.49379940E+01  -5.26142240E-01  -1.05706100E+01   1.49379940E+01   1.49379940E+01  -5.26142240E-01  -1.05706100E+01   2.55086040E+01  -1.28041399E+00   1.58041687E+01   7.08950233E+00   7.32235003E+00  -1.05706100E+01   7.73119164E+00
              472                4   2.20063248E+01   1.46953201E+01   1.46953201E+01  -2.83468395E-01  -1.05706100E+01   1.46953201E+01   1.46953201E+01  -2.83468395E-01  -1.05706100E+01   2.52659302E+01  -1.28041399E+00   1.49724827E+01   6.87640190E+00   7.53545046E+00  -1.05706100E+01   7.48214149E+00
              473                1   8.02744598E+01   7.51129837E+01   7.51129837E+01  -4.99246168E+00  -5.32943296E+00   7.51129837E+01   7.51129837E+01  -4.99246168E+00  -5.32943296E+00   8.04424133E+01  -2.15970306E+01   8.02728653E+01   1.73331404E+00   6.83872070E+01  -5.32943296E+00   2.22156525E+01
              473                2   7.88969803E+01   7.41899872E+01   7.41899872E+01  -4.06946516E+00  -5.32943296E+00   7.41899872E+01   7.41899872E+01  -4.06946516E+00  -5.32943296E+00   7.95194168E+01  -2.15970306E+01   7.88743362E+01   2.95648313E+00   6.71640396E+01  -5.32943296E+00   2.23714733E+01
              473                3   7.92280960E+01   7.44123611E+01   7.44123611E+01  -4.29183960E+00  -5.32943296E+00   7.44123611E+01   7.44123611E+01  -4.29183960E+00  -5.32943296E+00   7.97417908E+01  -2.15970306E+01   7.92127991E+01   1.90305984E+00   6.82174606E+01  -5.32943296E+00   2.11940536E+01
              473                4   7.79729309E+01   7.35676193E+01   7.35676193E+01  -3.44709897E+00  -5.32943296E+00   7.35676193E+01   7.35676193E+01  -3.44709897E+00  -5.32943296E+00   7.88970566E+01  -2.15970306E+01   7.79217834E+01   3.02150249E+00   6.70990219E+01  -5.32943296E+00   2.13619881E+01
              474                1   8.23054886E+01   8.39244537E+01   8.39244537E+01   1.66164720E+00   1.57634664E+00   8.39244537E+01   8.39244537E+01   1.66164720E+00   1.57634664E+00   8.23481064E+01  -2.90541477E+01   8.23053894E+01   1.59530334E+01   6.96330643E+01   1.57634664E+00   3.11673832E+01
              474                2   8.29212341E+01   8.43346481E+01   8.43346481E+01   1.25144136E+00   1.57634664E+00   8.43346481E+01   8.43346481E+01   1.57634664E+00   1.25144136E+00   8.30832062E+01  -2.90541458E+01   8.29198074E+01   1.49982796E+01   7.05878143E+01   1.57634664E+00   3.08732204E+01
              474                3   8.36632462E+01   8.48276443E+01   8.48276443E+01   7.58451760E-01   1.57634664E+00   8.48276443E+01   8.48276443E+01   1.57634664E+00   7.58451760E-01   8.40691910E+01  -2.90541477E+01   8.36542435E+01   1.57709255E+01   6.98151703E+01   1.57634664E+00   3.21980171E+01
              474                4   8.42866592E+01   8.52407608E+01   8.52407608E+01   3.45339864E-01   1.57634664E+00   8.52407608E+01   8.52407608E+01   1.57634664E+00   3.45339864E-01   8.48954163E+01  -2.90541477E+01   8.42664261E+01   1.46721115E+01   7.09139862E+01   1.57634664E+00   3.17965546E+01
              475                1   1.00933182E+02   1.01842857E+02   1.01842857E+02   4.66891438E-01   1.35835946E+00   1.01842857E+02   1.01842857E+02   1.35835946E+00   4.66891438E-01   1.01375961E+02  -3.45560341E+01   1.00924324E+02   3.47800756E+00   9.88317413E+01   1.35835946E+00   1.72101040E+01
              475                2   1.00168800E+02   1.01334869E+02   1.01334869E+02   9.74875808E-01   1.35835946E+00   1.01334869E+02   1.01334869E+02   1.35835946E+00   9.74875808E-01   1.00359993E+02  -3.45560341E+01   1.00167152E+02   4.02939701E+00   9.82803497E+01   1.35835946E+00   1.72401142E+01
              475                3   1.00635124E+02   1.01644920E+02   1.01644920E+02   6.64822459E-01   1.35835946E+00   1.01644920E+02   1.01644920E+02   1.35835946E+00   6.64822459E-01   1.00980103E+02  -3.45560341E+01   1.00629745E+02   3.48300314E+00   9.88267441E+01   1.35835946E+00   1.66324348E+01
              475                4   9.98673553E+01   1.01134186E+02   1.01134186E+02   1.17555702E+00   1.35835946E+00   1.01134186E+02   1.01134186E+02   1.35835946E+00   1.17555702E+00   9.99586334E+01  -3.45560341E+01   9.98669739E+01   4.03501654E+00   9.82747269E+01   1.35835946E+00   1.66628742E+01
              476                1   6.28838387E+01   5.67150612E+01   5.67150612E+01  -5.41589689E+00  -6.89554262E+00   5.67150612E+01   5.67150612E+01  -5.41589689E+00  -6.89554262E+00   6.36106033E+01  -1.48012075E+01   6.28446503E+01  -2.70351768E+00   5.40026817E+01  -6.89554262E+00   1.26951056E+01
              476                2   6.22893105E+01   5.63132019E+01   5.63132019E+01  -5.01403570E+00  -6.89554262E+00   5.63132019E+01   5.63132019E+01  -5.01403570E+00  -6.89554262E+00   6.32087440E+01  -1.48012085E+01   6.22253227E+01  -2.20334768E+00   5.35025139E+01  -6.89554262E+00   1.28246574E+01
              476                3   6.25030327E+01   5.64578285E+01   5.64578285E+01  -5.15866327E+00  -6.89554262E+00   5.64578285E+01   5.64578285E+01  -5.15866327E+00  -6.89554262E+00   6.33533707E+01  -1.48012075E+01   6.24487000E+01  -2.62872005E+00   5.39278831E+01  -6.89554262E+00   1.22264318E+01
              476                4   6.19057922E+01   5.60532112E+01   5.60532112E+01  -4.75404692E+00  -6.89554262E+00   5.60532112E+01   5.60532112E+01  -4.75404692E+00  -6.89554262E+00   6.29487534E+01  -1.48012075E+01   6.18223686E+01  -2.12904429E+00   5.34282074E+01  -6.89554262E+00   1.23583422E+01
              477                1   6.06188354E+01   5.50638733E+01   5.50638733E+01  -4.51036072E+00  -6.54817152E+00   5.50638733E+01   5.50638733E+01  -4.51036072E+00  -6.54817152E+00   6.16120453E+01  -1.46684465E+01   6.05416946E+01  -2.05661130E+00   5.26101227E+01  -6.54817152E+00   1.18388939E+01
              477                2   6.11756325E+01   5.54409294E+01   5.54409294E+01  -4.88741636E+00  -6.54817152E+00   5.54409294E+01   5.54409294E+01  -4.88741636E+00  -6.54817152E+00   6.19891014E+01  -1.46684465E+01   6.11248817E+01  -2.52039146E+00   5.30739021E+01  -6.54817152E+00   1.17130699E+01
              477                3   6.09643478E+01   5.52980003E+01   5.52980003E+01  -4.74448967E+00  -6.54817152E+00   5.52980003E+01   5.52980003E+01  -4.74448967E+00  -6.54817152E+00   6.18461723E+01  -1.46684465E+01   6.09042702E+01  -2.13205385E+00   5.26855659E+01  -6.54817152E+00   1.22487698E+01
              477                4   6.15137939E+01   5.56693039E+01   5.56693039E+01  -5.11579561E+00  -6.54817152E+00   5.56693039E+01   5.56693039E+01  -5.11579561E+00  -6.54817152E+00   6.22174759E+01  -1.46684456E+01   6.14762573E+01  -2.59706712E+00   5.31505775E+01  -6.54817152E+00   1.21143332E+01
              478                1   3.50068855E+01   4.40089493E+01   4.40089493E+01   9.01655197E+00   8.98759174E+00   4.40089493E+01   4.40089493E+01   9.01655197E+00   8.98759174E+00   3.50213585E+01  -2.06710300E+01   3.50068588E+01   9.22602081E+00   4.37994804E+01   8.98759174E+00   2.69924688E+00
              478                2   3.54051514E+01   4.42740707E+01   4.42740707E+01   8.75143051E+00   8.98759174E+00   4.42740707E+01   4.42740707E+01   8.98759174E+00   8.75143051E+00   3.55226402E+01  -2.06710300E+01   3.54033775E+01   8.96687222E+00   4.40586281E+01   8.98759174E+00   2.75801921E+00
              478                3   3.49830704E+01   4.39930611E+01   4.39930611E+01   9.03243542E+00   8.98759174E+00   4.39930611E+01   4.39930611E+01   9.03243542E+00   8.98759174E+00   3.50054703E+01  -2.06710300E+01   3.49830055E+01   9.28207970E+00   4.37434196E+01   8.98759174E+00   2.94369316E+00
              478                4   3.53826561E+01   4.42591209E+01   4.42591209E+01   8.76637840E+00   8.98759174E+00   4.42591209E+01   4.42591209E+01   8.98759174E+00   8.76637840E+00   3.54927444E+01  -2.06710300E+01   3.53810997E+01   9.02207851E+00   4.40034218E+01   8.98759174E+00   3.00168991E+00
              479                1   8.64308395E+01   8.22360382E+01   8.22360382E+01  -3.87885451E+00  -4.50731659E+00   8.22360382E+01   8.22360382E+01  -3.87885451E+00  -4.50731659E+00   8.67433548E+01  -2.46166229E+01   8.64256973E+01   1.65734127E-01   7.81914520E+01  -4.50731659E+00   1.82192364E+01
              479                2   8.69598999E+01   8.25896683E+01   8.25896683E+01  -4.23248672E+00  -4.50731659E+00   8.25896683E+01   8.25896683E+01  -4.23248672E+00  -4.50731659E+00   8.70969849E+01  -2.46166229E+01   8.69589233E+01  -2.15433717E-01   7.85726166E+01  -4.50731659E+00   1.82382202E+01
              479                3   8.65238724E+01   8.22982788E+01   8.22982788E+01  -3.94109273E+00  -4.50731659E+00   8.22982788E+01   8.22982788E+01  -3.94109273E+00  -4.50731659E+00   8.68055954E+01  -2.46166229E+01   8.65196991E+01   2.78685421E-01   7.80784988E+01  -4.50731659E+00   1.86038857E+01
              479                4   8.71805573E+01   8.27369461E+01   8.27369461E+01  -4.37976074E+00  -4.50731659E+00   8.27369461E+01   8.27369461E+01  -4.37976074E+00  -4.50731659E+00   8.72442627E+01  -2.46166229E+01   8.71803436E+01  -1.93292409E-01   7.85504761E+01  -4.50731659E+00   1.86329002E+01
              480                1   1.93872971E+02   2.05696457E+02   2.05696457E+02   1.06536889E+00   2.47595425E+01   2.05696457E+02   2.05696457E+02   2.47595425E+01   1.06536889E+00   2.04631088E+02  -7.71737900E+01   1.90574677E+02   1.27804542E+00   2.05483780E+02   2.47595425E+01   6.59356117E+00
              480                2   1.92191559E+02   2.04723541E+02   2.04723541E+02   2.87141991E+00   2.39264145E+01   2.04723541E+02   2.04723541E+02   2.39264145E+01   2.87141991E+00   2.01852112E+02  -7.71737900E+01   1.89570801E+02   3.45502067E+00   2.04139938E+02   2.39264145E+01   1.08378849E+01
              480                3   1.92313248E+02   2.04834290E+02   2.04834290E+02   3.08561373E+00   2.36014557E+01   2.04834290E+02   2.04834290E+02   2.36014557E+01   3.08561373E+00   2.01748672E+02  -7.71737900E+01   1.89827850E+02   3.12814426E+00   2.04791763E+02   2.36014557E+01   2.92890787E+00
              480                4   1.90463531E+02   2.03741791E+02   2.03741791E+02   5.08499002E+00   2.26945877E+01   2.03741791E+02   2.03741791E+02   2.26945877E+01   5.08499002E+00   1.98656799E+02  -7.71737900E+01   1.88619003E+02   5.35658598E+00   2.03470200E+02   2.26945877E+01   7.34029770E+00
              481                1   3.74149246E+01   4.19213181E+01   4.19213181E+01   1.86823535E+00   7.87017918E+00   4.19213181E+01   4.19213181E+01   7.87017918E+00   1.86823535E+00   4.00530853E+01  -1.72199116E+01   3.63080978E+01   3.65132737E+00   4.01382256E+01   7.87017918E+00   8.26068878E+00
              481                2   3.78955421E+01   4.22203178E+01   4.22203178E+01   1.56923449E+00   7.87017918E+00   4.22203178E+01   4.22203178E+01   7.87017918E+00   1.56923449E+00   4.06510811E+01  -1.72199097E+01   3.66891556E+01   3.35181975E+00   4.04377327E+01   7.87017918E+00   8.32384205E+00
              481                3   3.75287743E+01   4.19922028E+01   4.19922028E+01   1.79735291E+00   7.87017918E+00   4.19922028E+01   4.19922028E+01   7.87017918E+00   1.79735291E+00   4.01948471E+01  -1.72199116E+01   3.63986435E+01   3.72148466E+00   4.00680695E+01   7.87017918E+00   8.58125401E+00
              481                4   3.80137939E+01   4.22937889E+01   4.22937889E+01   1.49576533E+00   7.87017918E+00   4.22937889E+01   4.22937889E+01   7.87017918E+00   1.49576533E+00   4.07980232E+01  -1.72199116E+01   3.67824364E+01   3.41953254E+00   4.03700218E+01   7.87017918E+00   8.64783382E+00
              482                1   1.07131027E+02   1.16287865E+02   1.16287865E+02   8.09064293E+00   1.02558527E+01   1.16287865E+02   1.16287865E+02   1.02558527E+01   8.09064293E+00   1.08197220E+02  -4.48781242E+01   1.07081779E+02   1.56024361E+01   1.08776077E+02   1.02558527E+01   2.75014133E+01
              482                2   1.08074921E+02   1.16910095E+02   1.16910095E+02   7.46842051E+00   1.02558527E+01   1.16910095E+02   1.16910095E+02   1.02558527E+01   7.46842051E+00   1.09441673E+02  -4.48781242E+01   1.07994003E+02   1.48692474E+01   1.09509270E+02   1.02558527E+01   2.74806595E+01
              482                3   1.07525719E+02   1.16548256E+02   1.16548256E+02   7.83026266E+00   1.02558527E+01   1.16548256E+02   1.16548256E+02   1.02558527E+01   7.83026266E+00   1.08717995E+02  -4.48781242E+01   1.07464134E+02   1.56798954E+01   1.08698624E+02   1.02558527E+01   2.81385746E+01
              482                4   1.08455185E+02   1.17160309E+02   1.17160309E+02   7.21821117E+00   1.02558527E+01   1.17160309E+02   1.17160309E+02   1.02558527E+01   7.21821117E+00   1.09942093E+02  -4.48781242E+01   1.08359413E+02   1.49594965E+01   1.09419022E+02   1.02558527E+01   2.81276646E+01
              483                1   2.39570656E+01   1.61295052E+01   1.61295052E+01  -1.20091176E+00  -1.12087717E+01   1.61295052E+01   1.61295052E+01  -1.20091176E+00  -1.12087717E+01   2.73382759E+01  -1.23994029E+00   1.82793427E+01   6.15915346E+00   8.76943970E+00  -1.12087717E+01   8.56635475E+00
              483                2   2.29637871E+01   1.51812048E+01   1.51812048E+01  -2.52611876E-01  -1.12087717E+01   1.51812048E+01   1.51812048E+01  -2.52611876E-01  -1.12087717E+01   2.63899765E+01  -1.23994029E+00   1.51785383E+01   6.82701874E+00   8.10157394E+00  -1.12087717E+01   7.69054937E+00
              483                3   2.35453033E+01   1.57447529E+01   1.57447529E+01  -8.16160142E-01  -1.12087717E+01   1.57447529E+01   1.57447529E+01  -8.16160142E-01  -1.12087717E+01   2.69535236E+01  -1.23994029E+00   1.71134758E+01   4.73736954E+00   1.01912231E+01  -1.12087717E+01   7.81855679E+00
              483                4   2.23363972E+01   1.45408096E+01   1.45408096E+01   3.87782693E-01  -1.12087717E+01   1.45408096E+01   1.45408096E+01   3.87782693E-01  -1.12087717E+01   2.57495823E+01  -1.23994029E+00   1.23961277E+01   5.96238899E+00   8.96620369E+00  -1.12087717E+01   6.91529608E+00
              484                1   8.44052277E+01   8.20308838E+01   8.20308838E+01  -2.46947241E+00  -2.27889919E+00   8.20308838E+01   8.20308838E+01  -2.27889919E+00  -2.46947241E+00   8.45003510E+01  -2.57608356E+01   8.44047470E+01   6.38304853E+00   7.31783600E+01  -2.27889919E+00   2.58780613E+01
              484                2   8.34628067E+01   8.14021301E+01   8.14021301E+01  -1.84072495E+00  -2.27889919E+00   8.14021301E+01   8.14021301E+01  -1.84072495E+00  -2.27889919E+00   8.36810303E+01  -2.57608356E+01   8.34602203E+01   7.58243799E+00   7.19789734E+01  -2.27889919E+00   2.63745117E+01
              484                3   8.36062317E+01   8.14979706E+01   8.14979706E+01  -1.93655705E+00  -2.27889919E+00   8.14979706E+01   8.14979706E+01  -1.93655705E+00  -2.27889919E+00   8.37768707E+01  -2.57608395E+01   8.36046524E+01   6.26038170E+00   7.33010330E+01  -2.27889919E+00   2.48338089E+01
              484                4   8.25701370E+01   8.08043442E+01   8.08043442E+01  -1.24293125E+00  -2.27889919E+00   8.08043442E+01   8.08043442E+01  -1.24293125E+00  -2.27889919E+00   8.30832443E+01  -2.57608395E+01   8.25555115E+01   7.38750076E+00   7.21739120E+01  -2.27889919E+00   2.51717968E+01
              485                1   1.28554108E+02   1.52596970E+02   1.52596970E+02   2.20739460E+01   2.61066666E+01   1.52596970E+02   1.52596970E+02   2.61066666E+01   2.20739460E+01   1.30523026E+02  -6.69258652E+01   1.28411682E+02   2.41629848E+01   1.50507935E+02   2.61066666E+01   1.63799706E+01
              485                2   1.28278320E+02   1.52415833E+02   1.52415833E+02   2.22550945E+01   2.61066666E+01   1.52415833E+02   1.52415833E+02   2.61066666E+01   2.22550945E+01   1.30160736E+02  -6.69258652E+01   1.28148132E+02   2.43444767E+01   1.50326447E+02   2.61066666E+01   1.63581848E+01
              485                3   1.28596359E+02   1.52624710E+02   1.52624710E+02   2.20462151E+01   2.61066666E+01   1.52624710E+02   1.52624710E+02   2.61066666E+01   2.20462151E+01   1.30578491E+02  -6.69258652E+01   1.28452011E+02   2.41007671E+01   1.50570160E+02   2.61066666E+01   1.62499027E+01
              485                4   1.28322739E+02   1.52445007E+02   1.52445007E+02   2.22259159E+01   2.61066666E+01   1.52445007E+02   1.52445007E+02   2.61066666E+01   2.22259159E+01   1.30219101E+02  -6.69258652E+01   1.28190613E+02   2.42727604E+01   1.50398163E+02   2.61066666E+01   1.61971893E+01
              486                1   4.30583305E+01   4.29968262E+01   4.29968262E+01   3.52515161E-01  -4.63913649E-01   4.29968262E+01   4.29968262E+01   3.52515161E-01  -4.63913649E-01   4.34607391E+01  -1.42951431E+01   4.30409126E+01   2.14101195E+00   4.12083321E+01  -4.63913649E-01   8.54812431E+00
              486                2   4.32439690E+01   4.31216927E+01   4.31216927E+01   2.27654532E-01  -4.63913649E-01   4.31216927E+01   4.31216927E+01   2.27654532E-01  -4.63913649E-01   4.35856056E+01  -1.42951441E+01   4.32315216E+01   1.97524118E+00   4.13741035E+01  -4.63913649E-01   8.47980213E+00
              486                3   4.32870293E+01   4.31506271E+01   4.31506271E+01   1.98719248E-01  -4.63913649E-01   4.31506271E+01   4.31506271E+01   1.98719248E-01  -4.63913649E-01   4.36145401E+01  -1.42951441E+01   4.32756119E+01   2.05742168E+00   4.12919235E+01  -4.63913649E-01   8.73956966E+00
              486                4   4.34780273E+01   4.32788544E+01   4.32788544E+01   7.04917163E-02  -4.63913649E-01   4.32788544E+01   4.32788544E+01   7.04917163E-02  -4.63913649E-01   4.37427673E+01  -1.42951441E+01   4.34706383E+01   1.88884282E+00   4.14605026E+01  -4.63913649E-01   8.67534447E+00
              487                1   8.89600983E+01   9.60361252E+01   9.60361252E+01   3.93662024E+00   1.05889168E+01   9.60361252E+01   9.60361252E+01   1.05889168E+01   3.93662024E+00   9.20995102E+01  -3.68538857E+01   8.83979034E+01   3.77136459E+01   6.22590981E+01   1.05889168E+01   4.43842316E+01
              487                2   9.03215485E+01   9.69112167E+01   9.69112167E+01   3.06153202E+00   1.05889168E+01   9.69112167E+01   9.69112167E+01   1.05889168E+01   3.06153202E+00   9.38496857E+01  -3.68538857E+01   8.96117706E+01   3.81929359E+01   6.17798080E+01   1.05889168E+01   4.54186707E+01
              487                3   8.77424850E+01   9.52507248E+01   9.52507248E+01   4.72202539E+00   1.05889168E+01   9.52507248E+01   9.52507248E+01   1.05889168E+01   4.72202539E+00   9.05286942E+01  -3.68538857E+01   8.72995453E+01   3.88030853E+01   6.11696587E+01   1.05889168E+01   4.38610916E+01
              487                4   8.91402664E+01   9.61521149E+01   9.61521149E+01   3.82063079E+00   1.05889168E+01   9.61521149E+01   9.61521149E+01   1.05889168E+01   3.82063079E+00   9.23314896E+01  -3.68538857E+01   8.85593872E+01   3.92715378E+01   6.07012062E+01   1.05889168E+01   4.49051018E+01
              488                1   2.09474686E+02   2.09066574E+02   2.09066574E+02  -1.04433508E+01   1.13276215E+01   2.09066574E+02   2.09066574E+02   1.13276215E+01  -1.04433508E+01   2.19509933E+02  -6.99836197E+01   2.06906403E+02  -1.03371649E+01   2.08960388E+02   1.13276215E+01  -4.82690144E+00
              488                2   2.10410965E+02   2.09542694E+02   2.09542694E+02  -1.20448961E+01   1.24530420E+01   2.09542694E+02   2.09542694E+02   1.24530420E+01  -1.20448961E+01   2.21587601E+02  -6.99836197E+01   2.07165985E+02  -1.18546619E+01   2.09352463E+02   1.24530420E+01  -6.48982763E+00
              488                3   2.09180557E+02   2.08887085E+02   2.08887085E+02  -1.01858683E+01   1.12496290E+01   2.08887085E+02   2.08887085E+02   1.12496290E+01  -1.01858683E+01   2.19072952E+02  -6.99836197E+01   2.06687943E+02  -1.01795549E+01   2.08880768E+02   1.12496290E+01  -1.17645562E+00
              488                4   2.10278564E+02   2.09448517E+02   2.09448517E+02  -1.20444870E+01   1.25468254E+01   2.09448517E+02   2.09448517E+02   1.25468254E+01  -1.20444870E+01   2.21492996E+02  -6.99836197E+01   2.07006424E+02  -1.19887400E+01   2.09392761E+02   1.25468254E+01  -3.51350951E+00
              489                1   7.96978607E+01   7.38474350E+01   7.38474350E+01  -5.53542471E+00  -6.16173649E+00   7.38474350E+01   7.38474350E+01  -5.53542471E+00  -6.16173649E+00   8.00091705E+01  -2.07167587E+01   7.96923294E+01  -3.98312241E-01   6.87103271E+01  -6.16173649E+00   1.95296841E+01
              489                2   7.87416611E+01   7.32061005E+01   7.32061005E+01  -4.89407873E+00  -6.16173649E+00   7.32061005E+01   7.32061005E+01  -4.89407873E+00  -6.16173649E+00   7.93678360E+01  -2.07167606E+01   7.87186966E+01   4.55994099E-01   6.78560257E+01  -6.16173649E+00   1.97286167E+01
              489                3   7.89247055E+01   7.33290787E+01   7.33290787E+01  -5.01706219E+00  -6.16173649E+00   7.33290787E+01   7.33290787E+01  -5.01706219E+00  -6.16173649E+00   7.94908142E+01  -2.07167606E+01   7.89060211E+01  -2.37543389E-01   6.85495605E+01  -6.16173649E+00   1.87513523E+01
              489                4   7.78295059E+01   7.25917206E+01   7.25917206E+01  -4.27969980E+00  -6.16173649E+00   7.25917206E+01   7.25917206E+01  -4.27969980E+00  -6.16173649E+00   7.87534561E+01  -2.07167606E+01   7.77782822E+01   6.98218763E-01   6.76138000E+01  -6.16173649E+00   1.89177170E+01
              490                1   1.87554581E+02   1.89824921E+02   1.89824921E+02   2.26324368E+00   2.27744174E+00   1.89824921E+02   1.89824921E+02   2.27744174E+00   2.26324368E+00   1.87561676E+02  -6.47885361E+01   1.87554581E+02   2.26363134E+00   1.89824539E+02   2.27744174E+00   2.67827958E-01
              490                2   1.87824387E+02   1.90004745E+02   1.90004745E+02   2.08356214E+00   2.27730107E+00   1.90004745E+02   1.90004745E+02   2.27730107E+00   2.08356214E+00   1.87921173E+02  -6.47885361E+01   1.87824158E+02   2.08383441E+00   1.90004471E+02   2.27730107E+00   2.25075200E-01
              490                3   1.87626587E+02   1.89872925E+02   1.89872925E+02   2.21529961E+00   2.27738094E+00   1.89872925E+02   1.89872925E+02   2.27738094E+00   2.21529961E+00   1.87657623E+02  -6.47885361E+01   1.87626572E+02   2.21638584E+00   1.89871841E+02   2.27738094E+00   4.51279342E-01
              490                4   1.87895309E+02   1.90052002E+02   1.90052002E+02   2.03638053E+00   2.27724051E+00   1.90052002E+02   1.90052002E+02   2.27724051E+00   2.03638053E+00   1.88015625E+02  -6.47885361E+01   1.87894958E+02   2.03727317E+00   1.90051102E+02   2.27724051E+00   4.10614341E-01
              491                1   6.35029488E+01   6.03544464E+01   6.03544464E+01  -1.77312636E+00  -4.43985510E+00   6.03544464E+01   6.03544464E+01  -1.77312636E+00  -4.43985510E+00   6.47943039E+01  -1.80471554E+01   6.33767815E+01   1.19085588E+01   4.66727638E+01  -4.43985510E+00   2.57453175E+01
              491                2   6.46484146E+01   6.11323013E+01   6.11323013E+01  -2.55097771E+00  -4.43985510E+00   6.11323013E+01   6.11323013E+01  -2.55097771E+00  -4.43985510E+00   6.55721512E+01  -1.80471554E+01   6.45862808E+01   1.18965578E+01   4.66847649E+01  -4.43985510E+00   2.66708660E+01
              491                3   6.27481194E+01   5.98388672E+01   5.98388672E+01  -1.25754297E+00  -4.43985510E+00   5.98388672E+01   5.98388672E+01  -1.25754297E+00  -4.43985510E+00   6.42787247E+01  -1.80471573E+01   6.25661697E+01   1.26923094E+01   4.58890152E+01  -4.43985510E+00   2.56454201E+01
              491                4   6.39592018E+01   6.06649170E+01   6.06649170E+01  -2.08359098E+00  -4.43985510E+00   6.06649170E+01   6.06649170E+01  -2.08359098E+00  -4.43985510E+00   6.51047745E+01  -1.80471573E+01   6.38614349E+01   1.29336958E+01   4.56476288E+01  -4.43985510E+00   2.67729988E+01
              492                1   1.41696091E+02   1.57611816E+02   1.57611816E+02   8.07128620E+00   2.53436832E+01   1.57611816E+02   1.57611816E+02   2.53436832E+01   8.07128620E+00   1.49540527E+02  -6.36755981E+01   1.39298126E+02   3.85309410E+01   1.27152168E+02   2.53436832E+01   6.02259254E+01
              492                2   1.45586746E+02   1.60063080E+02   1.60063080E+02   5.62001848E+00   2.53436832E+01   1.60063080E+02   1.60063080E+02   2.53436832E+01   5.62001848E+00   1.54443069E+02  -6.36755981E+01   1.42534378E+02   3.77709923E+01   1.27912117E+02   2.53436832E+01   6.27041435E+01
              492                3   1.40004272E+02   1.56541824E+02   1.56541824E+02   9.14127731E+00   2.53436832E+01   1.56541824E+02   1.56541824E+02   2.53436832E+01   9.14127731E+00   1.47400558E+02  -6.36755981E+01   1.37871338E+02   4.14728088E+01   1.24210304E+02   2.53436832E+01   6.09947319E+01
              492                4   1.43803192E+02   1.58940948E+02   1.58940948E+02   6.74215651E+00   2.53436832E+01   1.58940948E+02   1.58940948E+02   2.53436832E+01   6.74215651E+00   1.52198792E+02  -6.36755981E+01   1.41058380E+02   4.10132599E+01   1.24669846E+02   2.53436832E+01   6.35728874E+01
              493                1   8.27732162E+01   7.93977051E+01   7.93977051E+01  -3.35798192E+00  -3.39301705E+00   7.93977051E+01   7.93977051E+01  -3.35798192E+00  -3.39301705E+00   8.27907257E+01  -2.42155685E+01   8.27732010E+01   4.93311167E+00   7.11066132E+01  -3.39301705E+00   2.48473949E+01
              493                2   8.17228241E+01   7.86957932E+01   7.86957932E+01  -2.65606427E+00  -3.39301705E+00   7.86957932E+01   7.86957932E+01  -2.65606427E+00  -3.39301705E+00   8.20888062E+01  -2.42155685E+01   8.17153473E+01   5.91751671E+00   7.01222076E+01  -3.39301705E+00   2.49794025E+01
              493                3   8.19064789E+01   7.88187332E+01   7.88187332E+01  -2.77901816E+00  -3.39301705E+00   7.88187332E+01   7.88187332E+01  -2.77901816E+00  -3.39301705E+00   8.22117538E+01  -2.42155666E+01   8.19013062E+01   4.89382362E+00   7.11458969E+01  -3.39301705E+00   2.38162556E+01
              493                4   8.08503799E+01   7.81104126E+01   7.81104126E+01  -2.07069349E+00  -3.39301705E+00   7.81104126E+01   7.81104126E+01  -2.07069349E+00  -3.39301705E+00   8.15034256E+01  -2.42155666E+01   8.08260498E+01   5.86023855E+00   7.01794815E+01  -3.39301705E+00   2.39376507E+01
              494                1   3.51390457E+01   4.41774750E+01   4.41774750E+01   9.06947041E+00   9.00747013E+00   4.41774750E+01   4.41774750E+01   9.06947041E+00   9.00747013E+00   3.51700058E+01  -2.07514706E+01   3.51389236E+01   9.20910645E+00   4.40378380E+01   9.00747013E+00   2.20971727E+00
              494                2   3.55421982E+01   4.44459686E+01   4.44459686E+01   8.80097198E+00   9.00747013E+00   4.44459686E+01   4.44459686E+01   9.00747013E+00   8.80097198E+00   3.56449966E+01  -2.07514706E+01   3.55408516E+01   8.94483376E+00   4.43021088E+01   9.00747013E+00   2.25991273E+00
              494                3   3.51160545E+01   4.41621323E+01   4.41621323E+01   9.08480835E+00   9.00747013E+00   4.41621323E+01   4.41621323E+01   9.08480835E+00   9.00747013E+00   3.51546631E+01  -2.07514706E+01   3.51158676E+01   9.25789452E+00   4.39890480E+01   9.00747013E+00   2.45791841E+00
              494                4   3.55246010E+01   4.44342728E+01   4.44342728E+01   8.81267262E+00   9.00747013E+00   4.44342728E+01   4.44342728E+01   9.00747013E+00   8.81267262E+00   3.56215973E+01  -2.07514706E+01   3.55233994E+01   8.99016857E+00   4.42567749E+01   9.00747013E+00   2.50822997E+00
              495                1   8.43728638E+01   8.40691605E+01   8.40691605E+01  -7.56002307E-01   1.55976161E-01   8.40691605E+01   8.40691605E+01   1.55976161E-01  -7.56002307E-01   8.48251572E+01  -2.78230438E+01   8.43617706E+01   1.14565086E+01   7.18566437E+01   1.55976161E-01   2.97789001E+01
              495                2   8.34637299E+01   8.34652481E+01   8.34652481E+01  -1.52092502E-01   1.55976161E-01   8.34652481E+01   8.34652481E+01   1.55976161E-01  -1.52092502E-01   8.36173401E+01  -2.78230438E+01   8.34624557E+01   1.28978205E+01   7.04153366E+01   1.55976161E-01   3.03463135E+01
              495                3   8.28745193E+01   8.30727005E+01   8.30727005E+01   2.40453511E-01   1.55976161E-01   8.30727005E+01   8.30727005E+01   2.40453511E-01   1.55976161E-01   8.29167252E+01  -2.78230438E+01   8.28744278E+01   1.14686356E+01   7.18445206E+01   1.55976161E-01   2.83546028E+01
              495                4   8.16317978E+01   8.22416763E+01   8.22416763E+01   1.07147825E+00   1.55976161E-01   8.22416763E+01   8.22416763E+01   1.07147825E+00   1.55976161E-01   8.20857010E+01  -2.78230438E+01   8.16202469E+01   1.30006523E+01   7.03125000E+01   1.55976161E-01   2.87400131E+01
              496                1   2.14010284E+02   2.18599426E+02   2.18599426E+02  -6.79840028E-01   1.02792187E+01   2.18599426E+02   2.18599426E+02   1.02792187E+01  -6.79840028E-01   2.19279266E+02  -7.60662689E+01   2.13377594E+02  -6.69275224E-01   2.18588867E+02   1.02792187E+01   1.52160072E+00
              496                2   2.13977310E+02   2.18586853E+02   2.18586853E+02  -4.86399710E-01   1.00983658E+01   2.18586853E+02   2.18586853E+02   1.00983658E+01  -4.86399710E-01   2.19073242E+02  -7.60662766E+01   2.13387070E+02  -4.86207426E-01   2.18586655E+02   1.00983658E+01   2.05975294E-01
              496                3   2.14151123E+02   2.18661133E+02   2.18661133E+02  -1.30835783E+00   1.08460426E+01   2.18661133E+02   2.18661133E+02   1.08460426E+01  -1.30835783E+00   2.19969482E+02  -7.60662689E+01   2.13373032E+02  -1.30242312E+00   2.18655197E+02   1.08460426E+01   1.14196408E+00
              496                4   2.14119934E+02   2.18650314E+02   2.18650314E+02  -1.12417543E+00   1.06726856E+01   2.18650314E+02   2.18650314E+02   1.06726856E+01  -1.12417543E+00   2.19774490E+02  -7.60662766E+01   2.13386932E+02  -1.12405682E+00   2.18650192E+02   1.06726856E+01  -1.63408130E-01
              497                1   5.73430710E+01   5.22033424E+01   5.22033424E+01  -4.00225115E+00  -6.21324873E+00   5.22033424E+01   5.22033424E+01  -4.00225115E+00  -6.21324873E+00   5.84165916E+01  -1.39959478E+01   5.72470474E+01  -1.58363438E+00   4.97847252E+01  -6.21324873E+00   1.14057064E+01
              497                2   5.78377380E+01   5.25392380E+01   5.25392380E+01  -4.33814716E+00  -6.21324873E+00   5.25392380E+01   5.25392380E+01  -4.33814716E+00  -6.21324873E+00   5.87524872E+01  -1.39959478E+01   5.77692909E+01  -2.02838182E+00   5.02294731E+01  -6.21324873E+00   1.12266836E+01
              497                3   5.77204475E+01   5.24596939E+01   5.24596939E+01  -4.25860262E+00  -6.21324873E+00   5.24596939E+01   5.24596939E+01  -4.25860262E+00  -6.21324873E+00   5.86729431E+01  -1.39959478E+01   5.76459122E+01  -1.66651225E+00   4.98676033E+01  -6.21324873E+00   1.18448324E+01
              497                4   5.82213554E+01   5.27989769E+01   5.27989769E+01  -4.59788895E+00  -6.21324873E+00   5.27989769E+01   5.27989769E+01  -4.59788895E+00  -6.21324873E+00   5.90122261E+01  -1.39959459E+01   5.81709023E+01  -2.11848068E+00   5.03195686E+01  -6.21324873E+00   1.16688814E+01
              498                1   8.96947556E+01   8.61544342E+01   8.61544342E+01  -3.59530306E+00  -3.48524737E+00   8.61544342E+01   8.61544342E+01  -3.48524737E+00  -3.59530306E+00   8.97497330E+01  -2.63579617E+01   8.96946030E+01   7.66748667E-01   8.17923813E+01  -3.48524737E+00   1.92993603E+01
              498                2   8.91394348E+01   8.57840576E+01   8.57840576E+01  -3.22492456E+00  -3.48524737E+00   8.57840576E+01   8.57840576E+01  -3.22492456E+00  -3.48524737E+00   8.92693100E+01  -2.63579636E+01   8.91385727E+01   1.17180526E+00   8.13873291E+01  -3.48524737E+00   1.92877502E+01
              498                3   8.94371719E+01   8.59827347E+01   8.59827347E+01  -3.42359900E+00  -3.48524737E+00   8.59827347E+01   8.59827347E+01  -3.42359900E+00  -3.48524737E+00   8.94679794E+01  -2.63579636E+01   8.94371185E+01   7.36409366E-01   8.18227234E+01  -3.48524737E+00   1.88315067E+01
              498                4   8.88695374E+01   8.56037750E+01   8.56037750E+01  -3.04463720E+00  -3.48524737E+00   8.56037750E+01   8.56037750E+01  -3.04463720E+00  -3.48524737E+00   8.90890198E+01  -2.63579636E+01   8.88670731E+01   1.13065326E+00   8.14284821E+01  -3.48524737E+00   1.87803040E+01
              499                1   3.29096298E+01   2.64561348E+01   2.64561348E+01  -1.25495219E+00  -9.91863346E+00   2.64561348E+01   2.64561348E+01  -1.25495219E+00  -9.91863346E+00   3.63747673E+01  -5.09418344E+00   3.01798553E+01   8.19295120E+00   1.70082321E+01  -9.91863346E+00   1.31357832E+01
              499                2   3.30702553E+01   2.65830364E+01   2.65830364E+01  -1.38185263E+00  -9.91863346E+00   2.65830364E+01   2.65830364E+01  -1.38185263E+00  -9.91863346E+00   3.65016708E+01  -5.09418344E+00   3.04396381E+01   8.21302986E+00   1.69881535E+01  -9.91863346E+00   1.32762213E+01
              499                3   3.28296585E+01   2.63927498E+01   2.63927498E+01  -1.19156599E+00  -9.91863346E+00   2.63927498E+01   2.63927498E+01  -1.19156599E+00  -9.91863346E+00   3.63113823E+01  -5.09418344E+00   3.00493088E+01   8.33084393E+00   1.68703403E+01  -9.91863346E+00   1.31146049E+01
              499                4   3.29938240E+01   2.65227203E+01   2.65227203E+01  -1.32153606E+00  -9.91863346E+00   2.65227203E+01   2.65227203E+01  -1.32153606E+00  -9.91863346E+00   3.64413528E+01  -5.09418344E+00   3.03164215E+01   8.34799576E+00   1.68531876E+01  -9.91863346E+00   1.32567368E+01
              500                1   5.56690636E+01   4.88585052E+01   4.88585052E+01  -4.50964689E+00  -8.85660553E+00   4.88585052E+01   4.88585052E+01  -4.50964689E+00  -8.85660553E+00   5.77151108E+01  -1.18307505E+01   5.52852898E+01   6.93169713E-01   4.36556892E+01  -8.85660553E+00   1.58302040E+01
              500                2   5.52664146E+01   4.85780373E+01   4.85780373E+01  -4.22917891E+00  -8.85660553E+00   4.85780373E+01   4.85780373E+01  -4.22917891E+00  -8.85660553E+00   5.74346428E+01  -1.18307505E+01   5.48280182E+01   6.00277305E-01   4.37485809E+01  -8.85660553E+00   1.52219076E+01
              500                3   5.65657806E+01   4.94798775E+01   4.94798775E+01  -5.13101530E+00  -8.85660553E+00   4.94798775E+01   4.94798775E+01  -5.13101530E+00  -8.85660553E+00   5.83364830E+01  -1.18307524E+01   5.62887459E+01   2.26841923E-02   4.43261757E+01  -8.85660553E+00   1.59651995E+01
              500                4   5.61662788E+01   4.92035866E+01   4.92035866E+01  -4.85472727E+00  -8.85660553E+00   4.92035866E+01   4.92035866E+01  -4.85472727E+00  -8.85660553E+00   5.80601921E+01  -1.18307505E+01   5.58441696E+01  -8.24761689E-02   4.44313354E+01  -8.85660553E+00   1.53364077E+01
              501                1   4.25636063E+01   4.23030510E+01   4.23030510E+01   1.38061285E-01  -6.48274720E-01   4.23030510E+01   4.23030510E+01   1.38061285E-01  -6.48274720E-01   4.29513245E+01  -1.39309464E+01   4.25472565E+01   1.98908341E+00   4.04520302E+01  -6.48274720E-01   8.63840294E+00
              501                2   4.23494759E+01   4.21588173E+01   4.21588173E+01   2.82295257E-01  -6.48274720E-01   4.21588173E+01   4.21588173E+01   2.82295257E-01  -6.48274720E-01   4.28070908E+01  -1.39309464E+01   4.23264618E+01   2.05879116E+00   4.03823204E+01  -6.48274720E-01   8.44023514E+00
              501                3   4.27805977E+01   4.24489479E+01   4.24489479E+01  -7.83594605E-03  -6.48274720E-01   4.24489479E+01   4.24489479E+01  -7.83594605E-03  -6.48274720E-01   4.30972214E+01  -1.39309464E+01   4.27698097E+01   1.80446255E+00   4.06366501E+01  -6.48274720E-01   8.58253670E+00
              501                4   4.25689964E+01   4.23066788E+01   4.23066788E+01   1.34432897E-01  -6.48274720E-01   4.23066788E+01   4.23066788E+01   1.34432897E-01  -6.48274720E-01   4.29549561E+01  -1.39309464E+01   4.25528030E+01   1.87292516E+00   4.05681877E+01  -6.48274720E-01   8.38413715E+00
              502                1   1.05378105E+02   1.11983383E+02   1.11983383E+02   5.35690212E+00   7.89968395E+00   1.11983383E+02   1.11983383E+02   7.89968395E+00   5.35690212E+00   1.06626480E+02  -4.17466545E+01   1.05309044E+02   1.27280426E+01   1.04612244E+02   7.89968395E+00   2.70485687E+01
              502                2   1.04318893E+02   1.11284439E+02   1.11284439E+02   6.05584860E+00   7.89968395E+00   1.11284439E+02   1.11284439E+02   7.89968395E+00   6.05584860E+00   1.05228592E+02  -4.17466545E+01   1.04282227E+02   1.35268717E+01   1.03813416E+02   7.89968395E+00   2.70249691E+01
              502                3   1.04938736E+02   1.11693718E+02   1.11693718E+02   5.64657450E+00   7.89968395E+00   1.11693718E+02   1.11693718E+02   7.89968395E+00   5.64657450E+00   1.06047142E+02  -4.17466583E+01   1.04884293E+02   1.26201296E+01   1.04720161E+02   7.89968395E+00   2.62848892E+01
              502                4   1.03819145E+02   1.10953911E+02   1.10953911E+02   6.38638687E+00   7.89968395E+00   1.10953911E+02   1.10953911E+02   7.89968395E+00   6.38638687E+00   1.04567520E+02  -4.17466583E+01   1.03794327E+02   1.34728603E+01   1.03867432E+02   7.89968395E+00   2.62830181E+01
              503                1   1.05248688E+02   1.11274742E+02   1.11274742E+02   5.42379713E+00   6.63882685E+00   1.11274742E+02   1.11274742E+02   6.63882685E+00   5.42379713E+00   1.05850945E+02  -4.11124535E+01   1.05232910E+02   1.00085831E+01   1.06689957E+02   6.63882685E+00   2.15472431E+01
              503                2   1.04848473E+02   1.11009285E+02   1.11009285E+02   5.68925142E+00   6.63882685E+00   1.11009285E+02   1.11009285E+02   6.63882685E+00   5.68925142E+00   1.05320038E+02  -4.11124535E+01   1.04838799E+02   9.99566364E+00   1.06702873E+02   6.63882685E+00   2.08568115E+01
              503                3   1.06180847E+02   1.11891777E+02   1.11891777E+02   4.80675220E+00   6.63882685E+00   1.11891777E+02   1.11891777E+02   6.63882685E+00   4.80675220E+00   1.07085030E+02  -4.11124535E+01   1.06145279E+02   9.32878494E+00   1.07369751E+02   6.63882685E+00   2.15358505E+01
              503                4   1.05812950E+02   1.11648460E+02   1.11648460E+02   5.05008078E+00   6.63882685E+00   1.11648460E+02   1.11648460E+02   6.63882685E+00   5.05008078E+00   1.06598381E+02  -4.11124535E+01   1.05786110E+02   9.29769802E+00   1.07400841E+02   6.63882685E+00   2.08505859E+01
              504                1   3.36727905E+01   2.66052990E+01   2.66052990E+01  -1.61624718E+00  -1.06682663E+01   2.66052990E+01   2.66052990E+01  -1.61624718E+00  -1.06682663E+01   3.72735634E+01  -4.77359533E+00   3.07517910E+01   5.86134434E+00   1.91277084E+01  -1.06682663E+01   1.24545097E+01
              504                2   3.32501564E+01   2.62671795E+01   2.62671795E+01  -1.27812743E+00  -1.06682663E+01   2.62671795E+01   2.62671795E+01  -1.27812743E+00  -1.06682663E+01   3.69354439E+01  -4.77359533E+00   3.00428009E+01   5.81601286E+00   1.91730385E+01  -1.06682663E+01   1.20450592E+01
              504                3   3.38964844E+01   2.67827110E+01   2.67827110E+01  -1.79365849E+00  -1.06682663E+01   2.67827110E+01   2.67827110E+01  -1.79365849E+00  -1.06682663E+01   3.74509773E+01  -4.77359533E+00   3.11176357E+01   5.48002100E+00   1.95090313E+01  -1.06682663E+01   1.24478483E+01
              504                4   3.34708214E+01   2.64442081E+01   2.64442081E+01  -1.45515585E+00  -1.06682663E+01   2.64442081E+01   2.64442081E+01  -1.45515585E+00  -1.06682663E+01   3.71124725E+01  -4.77359533E+00   3.04159851E+01   5.44337749E+00   1.95456753E+01  -1.06682663E+01   1.20363998E+01
              505                1   9.18775253E+01   8.82639389E+01   8.82639389E+01  -3.51873326E+00  -3.70814657E+00   8.82639389E+01   8.82639389E+01  -3.51873326E+00  -3.70814657E+00   9.19720917E+01  -2.70123539E+01   9.18770905E+01  -1.02454150E+00   8.57697525E+01  -3.70814657E+00   1.49232168E+01
              505                2   9.15738831E+01   8.80611877E+01   8.80611877E+01  -3.31598115E+00  -3.70814657E+00   8.80611877E+01   8.80611877E+01  -3.31598115E+00  -3.70814657E+00   9.17693329E+01  -2.70123539E+01   9.15719910E+01  -9.81697857E-01   8.57269058E+01  -3.70814657E+00   1.44170523E+01
              505                3   9.25456467E+01   8.87092743E+01   8.87092743E+01  -3.96406531E+00  -3.70814657E+00   8.87092743E+01   8.87092743E+01  -3.70814657E+00  -3.96406531E+00   9.26733398E+01  -2.70123539E+01   9.25448456E+01  -1.51312768E+00   8.62583389E+01  -3.70814657E+00   1.48704157E+01
              505                4   9.22449417E+01   8.85089722E+01   8.85089722E+01  -3.76376557E+00  -3.70814657E+00   8.85089722E+01   8.85089722E+01  -3.70814657E+00  -3.76376557E+00   9.22727432E+01  -2.70123539E+01   9.22449036E+01  -1.47053432E+00   8.62157440E+01  -3.70814657E+00   1.43646698E+01
              506                1   7.65200424E+01   7.04671097E+01   7.04671097E+01  -5.50119591E+00  -6.59298944E+00   7.04671097E+01   7.04671097E+01  -5.50119591E+00  -6.59298944E+00   7.70600967E+01  -1.94576397E+01   7.65025177E+01   3.77180763E-02   6.49281921E+01  -6.59298944E+00   1.97510109E+01
              506                2   7.57598267E+01   6.99557037E+01   6.99557037E+01  -4.98980236E+00  -6.59298944E+00   6.99557037E+01   6.99557037E+01  -4.98980236E+00  -6.59298944E+00   7.65486984E+01  -1.94576378E+01   7.57216492E+01   7.46032655E-01   6.42198715E+01  -6.59298944E+00   1.99242382E+01
              506                3   7.59128723E+01   7.00588074E+01   7.00588074E+01  -5.09290600E+00  -6.59298944E+00   7.00588074E+01   7.00588074E+01  -5.09290600E+00  -6.59298944E+00   7.66518021E+01  -1.94576378E+01   7.58795166E+01   1.65130541E-01   6.48007736E+01  -6.59298944E+00   1.91703815E+01
              506                4   7.51495056E+01   6.95438004E+01   6.95438004E+01  -4.57789135E+00  -6.59298944E+00   6.95438004E+01   6.95438004E+01  -4.57789135E+00  -6.59298944E+00   7.61367950E+01  -1.94576397E+01   7.50886841E+01   8.09323728E-01   6.41565857E+01  -6.59298944E+00   1.92428551E+01
              507                1   1.16020050E+02   1.29011963E+02   1.29011963E+02   1.03854008E+01   1.57871389E+01   1.29011963E+02   1.29011963E+02   1.57871389E+01   1.03854008E+01   1.18626572E+02  -5.17281685E+01   1.15736603E+02   2.19195499E+01   1.17477814E+02   1.57871389E+01   3.51456985E+01
              507                2   1.15525970E+02   1.28689621E+02   1.28689621E+02   1.07077303E+01   1.57871389E+01   1.28689621E+02   1.28689621E+02   1.57871389E+01   1.07077303E+01   1.17981895E+02  -5.17281647E+01   1.15274330E+02   2.24628277E+01   1.16934532E+02   1.57871389E+01   3.53370361E+01
              507                3   1.15374107E+02   1.28590485E+02   1.28590485E+02   1.08068914E+01   1.57871389E+01   1.28590485E+02   1.28590485E+02   1.57871389E+01   1.08068914E+01   1.17783585E+02  -5.17281685E+01   1.15131882E+02   2.20602360E+01   1.17337128E+02   1.57871389E+01   3.46240044E+01
              507                4   1.14912109E+02   1.28288620E+02   1.28288620E+02   1.11087561E+01   1.57871389E+01   1.28288620E+02   1.28288620E+02   1.57871389E+01   1.11087561E+01   1.17179855E+02  -5.17281685E+01   1.14697533E+02   2.25582066E+01   1.16839157E+02   1.57871389E+01   3.47930336E+01
              508                1   1.74124969E+02   1.93661072E+02   1.93661072E+02   9.25719929E+00   3.20623474E+01   1.93661072E+02   1.93661072E+02   3.20623474E+01   9.25719929E+00   1.84403870E+02  -7.83268738E+01   1.70716614E+02   3.25644150E+01   1.70353851E+02   3.20623474E+01   6.12757339E+01
              508                2   1.77584991E+02   1.95835175E+02   1.95835175E+02   7.08309412E+00   3.20623474E+01   1.95835175E+02   1.95835175E+02   3.20623474E+01   7.08309412E+00   1.88752090E+02  -7.83268738E+01   1.73566452E+02   3.13478069E+01   1.71570465E+02   3.20623474E+01   6.31762543E+01
              508                3   1.72654694E+02   1.92734787E+02   1.92734787E+02   1.01834927E+01   3.20623474E+01   1.92734787E+02   1.92734787E+02   3.20623474E+01   1.01834927E+01   1.82551285E+02  -7.83268738E+01   1.69493820E+02   3.48225327E+01   1.68095734E+02   3.20623474E+01   6.23763351E+01
              508                4   1.76053864E+02   1.94874069E+02   1.94874069E+02   8.04420853E+00   3.20623474E+01   1.94874069E+02   1.94874069E+02   3.20623474E+01   8.04420853E+00   1.86829865E+02  -7.83268738E+01   1.72310059E+02   3.37029572E+01   1.69215317E+02   3.20623474E+01   6.43074570E+01
              509                1   4.22893372E+01   3.57089996E+01   3.57089996E+01  -2.35994816E+00  -9.81045532E+00   3.57089996E+01   3.57089996E+01  -2.35994816E+00  -9.81045532E+00   4.55194550E+01  -7.84619904E+00   4.07733383E+01   5.99706411E+00   2.73519897E+01  -9.81045532E+00   1.57576332E+01
              509                2   4.25555992E+01   3.59057922E+01   3.59057922E+01  -2.55673790E+00  -9.81045532E+00   3.59057922E+01   3.59057922E+01  -2.55673790E+00  -9.81045532E+00   4.57162476E+01  -7.84620047E+00   4.11301079E+01   5.54159784E+00   2.78074570E+01  -9.81045532E+00   1.56811819E+01
              509                3   4.28186646E+01   3.60994568E+01   3.60994568E+01  -2.75040317E+00  -9.81045532E+00   3.60994568E+01   3.60994568E+01  -2.75040317E+00  -9.81045532E+00   4.59099121E+01  -7.84619904E+00   4.14787636E+01   5.99764585E+00   2.73514080E+01  -9.81045532E+00   1.62275105E+01
              509                4   4.30844917E+01   3.62944069E+01   3.62944069E+01  -2.94535112E+00  -9.81045532E+00   3.62944069E+01   3.62944069E+01  -2.94535112E+00  -9.81045532E+00   4.61048622E+01  -7.84620047E+00   4.18273468E+01   5.54314280E+00   2.78059120E+01  -9.81045532E+00   1.61564827E+01
              510                1   4.42034149E+01   4.32303238E+01   4.32303238E+01   1.49491918E+00  -3.08455849E+00   4.32303238E+01   4.32303238E+01   1.49491918E+00  -3.08455849E+00   4.63148804E+01  -1.38802290E+01   4.36649361E+01   2.26041431E+01   2.21211014E+01  -3.08455849E+00   2.08663044E+01
              510                2   4.48842850E+01   4.37092857E+01   4.37092857E+01   1.01595771E+00  -3.08455849E+00   4.37092857E+01   4.37092857E+01   1.01595771E+00  -3.08455849E+00   4.67938423E+01  -1.38802290E+01   4.44599495E+01   2.14671059E+01   2.32581387E+01  -3.08455849E+00   2.13278713E+01
              510                3   4.54848022E+01   4.41288681E+01   4.41288681E+01   5.96376061E-01  -3.08455849E+00   4.41288681E+01   4.41288681E+01   5.96376061E-01  -3.08455849E+00   4.72134247E+01  -1.38802290E+01   4.51478767E+01   2.30122795E+01   2.17129650E+01  -3.08455849E+00   2.17565479E+01
              510                4   4.61039047E+01   4.45588036E+01   4.45588036E+01   1.66444078E-01  -3.08455849E+00   4.45588036E+01   4.45588036E+01   1.66444078E-01  -3.08455849E+00   4.76433601E+01  -1.38802290E+01   4.58449593E+01   2.19579353E+01   2.27673111E+01  -3.08455849E+00   2.21924896E+01
              511                1   1.01356949E+02   1.05103745E+02   1.05103745E+02   3.28306961E+00   4.21696138E+00   1.05103745E+02   1.05103745E+02   4.21696138E+00   3.28306961E+00   1.01820671E+02  -3.75345917E+01   1.01347267E+02   8.54000378E+00   9.98468094E+01   4.21696138E+00   2.25306225E+01
              511                2   1.00819435E+02   1.04746727E+02   1.04746727E+02   3.64009261E+00   4.21696138E+00   1.04746727E+02   1.04746727E+02   4.21696138E+00   3.64009261E+00   1.01106636E+02  -3.75345955E+01   1.00815720E+02   8.53243923E+00   9.98543777E+01   4.21696138E+00   2.16959381E+01
              511                3   1.02436241E+02   1.05818787E+02   1.05818787E+02   2.56802726E+00   4.21696138E+00   1.05818787E+02   1.05818787E+02   4.21696138E+00   2.56802726E+00   1.03250755E+02  -3.75345917E+01   1.02406372E+02   7.75434256E+00   1.00632469E+02   4.21696138E+00   2.25520058E+01
              511                4   1.01922905E+02   1.05478989E+02   1.05478989E+02   2.90782070E+00   4.21696138E+00   1.05478989E+02   1.05478989E+02   4.21696138E+00   2.90782070E+00   1.02571167E+02  -3.75345917E+01   1.01903984E+02   7.74113655E+00   1.00645676E+02   4.21696138E+00   2.17347126E+01
              512                1   3.71803017E+01   3.12049179E+01   3.12049179E+01  -1.55114007E+00  -9.20757103E+00   3.12049179E+01   3.12049179E+01  -1.55114007E+00  -9.20757103E+00   4.04124908E+01  -6.81540251E+00   3.53407173E+01   9.17584419E+00   2.04779339E+01  -9.20757103E+00   1.53722324E+01
              512                2   3.75687103E+01   3.14977474E+01   3.14977474E+01  -1.84397006E+00  -9.20757103E+00   3.14977474E+01   3.14977474E+01  -1.84397006E+00  -9.20757103E+00   4.07053185E+01  -6.81540251E+00   3.58908081E+01   9.22093105E+00   2.04328480E+01  -9.20757103E+00   1.57000246E+01
              512                3   3.69957123E+01   3.10649872E+01   3.10649872E+01  -1.41120625E+00  -9.20757103E+00   3.10649872E+01   3.10649872E+01  -1.41120625E+00  -9.20757103E+00   4.02725563E+01  -6.81540298E+00   3.50752411E+01   9.50035667E+00   2.01534233E+01  -9.20757103E+00   1.53396158E+01
              512                4   3.73956718E+01   3.13675575E+01   3.13675575E+01  -1.71377873E+00  -9.20757103E+00   3.13675575E+01   3.13675575E+01  -1.71377873E+00  -9.20757103E+00   4.05751266E+01  -6.81540251E+00   3.56471329E+01   9.53911209E+00   2.01146660E+01  -9.20757103E+00   1.56726866E+01
              513                1   9.36200333E+01   9.01171265E+01   9.01171265E+01  -3.55237913E+00  -3.45334816E+00   9.01171265E+01   9.01171265E+01  -3.45334816E+00  -3.55237913E+00   9.36695099E+01  -2.77038021E+01   9.36199112E+01  -1.68871760E+00   8.82534714E+01  -3.45334816E+00   1.30803194E+01
              513                2   9.38789749E+01   9.02895889E+01   9.02895889E+01  -3.72483206E+00  -3.45334816E+00   9.02895889E+01   9.02895889E+01  -3.45334816E+00  -3.72483206E+00   9.40144196E+01  -2.77038040E+01   9.38780899E+01  -1.73734367E+00   8.83021011E+01  -3.45334816E+00   1.35241461E+01
              513                3   9.30292816E+01   8.97230911E+01   8.97230911E+01  -3.15833950E+00  -3.45334816E+00   8.97230911E+01   8.97230911E+01  -3.15833950E+00  -3.45334816E+00   9.31764374E+01  -2.77038021E+01   9.30282288E+01  -1.26155782E+00   8.78263092E+01  -3.45334816E+00   1.31368923E+01
              513                4   9.32884827E+01   8.98960800E+01   8.98960800E+01  -3.33132553E+00  -3.45334816E+00   8.98960800E+01   8.98960800E+01  -3.33132553E+00  -3.45334816E+00   9.33494339E+01  -2.77038040E+01   9.32882996E+01  -1.30940998E+00   8.78741684E+01  -3.45334816E+00   1.35797567E+01
              514                1   8.55249557E+01   8.16846619E+01   8.16846619E+01  -3.60367727E+00  -4.07496214E+00   8.16846619E+01   8.16846619E+01  -3.60367727E+00  -4.07496214E+00   8.57596283E+01  -2.46686764E+01   8.55220337E+01   1.48320067E+00   7.65977859E+01  -4.07496214E+00   2.01983910E+01
              514                2   8.62736969E+01   8.21844711E+01   8.21844711E+01  -4.10348654E+00  -4.07496214E+00   8.21844711E+01   8.21844711E+01  -4.07496214E+00  -4.10348654E+00   8.62879562E+01  -2.46686764E+01   8.62736893E+01   1.39521289E+00   7.66857758E+01  -4.07496214E+00   2.10768986E+01
              514                3   8.47598038E+01   8.11723557E+01   8.11723557E+01  -3.09137034E+00  -4.07496214E+00   8.11723557E+01   8.11723557E+01  -3.09137034E+00  -4.07496214E+00   8.52473221E+01  -2.46686764E+01   8.47469559E+01   2.25606060E+00   7.58249283E+01  -4.07496214E+00   2.05426197E+01
              514                4   8.54743195E+01   8.16508102E+01   8.16508102E+01  -3.56982255E+00  -4.07496214E+00   8.16508102E+01   8.16508102E+01  -3.56982255E+00  -4.07496214E+00   8.57257690E+01  -2.46686764E+01   8.54709549E+01   2.08633447E+00   7.59946518E+01  -4.07496214E+00   2.12138901E+01
              515                1   1.98530060E+02   2.26508835E+02   2.26508835E+02   1.12749205E+01   5.05547981E+01   2.26508835E+02   2.26508835E+02   5.05547981E+01   1.12749205E+01   2.15233917E+02  -9.61128540E+01   1.89489151E+02   1.82771893E+01   2.19506561E+02   5.05547981E+01   3.81850014E+01
              515                2   1.99652130E+02   2.26744385E+02   2.26744385E+02   8.69405937E+00   5.29001045E+01   2.26744385E+02   2.26744385E+02   5.29001045E+01   8.69405937E+00   2.18050323E+02  -9.61128540E+01   1.88162384E+02   1.67608242E+01   2.18677628E+02   5.29001045E+01   4.11568565E+01
              515                3   1.97740692E+02   2.26235596E+02   2.26235596E+02   1.27526665E+01   4.93502998E+01   2.26235596E+02   2.26235596E+02   4.93502998E+01   1.27526665E+01   2.13482925E+02  -9.61128540E+01   1.89895477E+02   2.23743229E+01   2.16613937E+02   4.93502998E+01   4.42886467E+01
              515                4   1.98944458E+02   2.26526123E+02   2.26526123E+02   9.99572468E+00   5.18167038E+01   2.26526123E+02   2.26526123E+02   5.18167038E+01   9.99572468E+00   2.16530396E+02  -9.61128540E+01   1.88670349E+02   2.07763500E+01   2.15745499E+02   5.18167038E+01   4.70968323E+01
              516                1   1.02317009E+02   1.04080711E+02   1.04080711E+02   1.64509439E+00   1.88272965E+00   1.04080711E+02   1.04080711E+02   1.88272965E+00   1.64509439E+00   1.02435616E+02  -3.58695107E+01   1.02316391E+02   3.41011238E+00   1.02315697E+02   1.88272965E+00   1.33298626E+01
              516                2   1.02818039E+02   1.04414078E+02   1.04414078E+02   1.31172574E+00   1.88272965E+00   1.04414078E+02   1.04414078E+02   1.88272965E+00   1.31172574E+00   1.03102356E+02  -3.58695107E+01   1.02814476E+02   3.07273459E+00   1.02653076E+02   1.88272965E+00   1.33589916E+01
              516                3   1.02436455E+02   1.04160240E+02   1.04160240E+02   1.56556904E+00   1.88272965E+00   1.04160240E+02   1.04160240E+02   1.88272965E+00   1.56556904E+00   1.02594666E+02  -3.58695107E+01   1.02435356E+02   3.42488408E+00   1.02300926E+02   1.88272965E+00   1.36857023E+01
              516                4   1.02935303E+02   1.04492027E+02   1.04492027E+02   1.23378158E+00   1.88272965E+00   1.04492027E+02   1.04492027E+02   1.88272965E+00   1.23378158E+00   1.03258247E+02  -3.58695107E+01   1.02930702E+02   3.08905911E+00   1.02636749E+02   1.88272965E+00   1.37160683E+01
              517                1   9.40907211E+01   9.26103516E+01   9.26103516E+01  -1.85425377E+00  -1.10197866E+00   9.26103516E+01   9.26103516E+01  -1.10197866E+00  -1.85425377E+00   9.44645996E+01  -2.98847046E+01   9.40839539E+01   3.13783765E+00   8.76182556E+01  -1.10197866E+00   2.11342182E+01
              517                2   9.31310577E+01   9.19720459E+01   9.19720459E+01  -1.21594715E+00  -1.10197866E+00   9.19720459E+01   9.19720459E+01  -1.10197866E+00  -1.21594715E+00   9.31879883E+01  -2.98847046E+01   9.31309052E+01   3.87130666E+00   8.68847885E+01  -1.10197866E+00   2.11705189E+01
              517                3   9.35668106E+01   9.22621384E+01   9.22621384E+01  -1.50604498E+00  -1.10197866E+00   9.22621384E+01   9.22621384E+01  -1.10197866E+00  -1.50604498E+00   9.37681885E+01  -2.98847046E+01   9.35648499E+01   3.12022996E+00   8.76358643E+01  -1.10197866E+00   2.03075142E+01
              517                4   9.25853882E+01   9.16081314E+01   9.16081314E+01  -8.52029324E-01  -1.10197866E+00   9.16081314E+01   9.16081314E+01  -8.52029324E-01  -1.10197866E+00   9.27101135E+01  -2.98847065E+01   9.25846329E+01   3.86605453E+00   8.68900452E+01  -1.10197866E+00   2.03463707E+01
              518                1   1.91648911E+02   1.90385681E+02   1.90385681E+02  -1.73694420E+00  -7.85968602E-01   1.90385681E+02   1.90385681E+02  -7.85968602E-01  -1.73694420E+00   1.92122635E+02  -6.26209259E+01   1.91643600E+02  -1.71908081E+00   1.90367828E+02  -7.85968602E-01   1.85221648E+00
              518                2   1.91927353E+02   1.90570816E+02   1.90570816E+02  -1.92181063E+00  -7.86232054E-01   1.90570816E+02   1.90570816E+02  -7.86232054E-01  -1.92181063E+00   1.92492630E+02  -6.26209221E+01   1.91919800E+02  -1.89223659E+00   1.90541245E+02  -7.86232054E-01   2.38553739E+00
              518                3   1.90935364E+02   1.89910873E+02   1.89910873E+02  -1.26255584E+00  -7.85542250E-01   1.89910873E+02   1.89910873E+02  -7.85542250E-01  -1.26255584E+00   1.91173431E+02  -6.26209259E+01   1.90934021E+02  -1.24143410E+00   1.89889755E+02  -7.85542250E-01   2.00907159E+00
              518                4   1.91223709E+02   1.90102814E+02   1.90102814E+02  -1.45422697E+00  -7.85811186E-01   1.90102814E+02   1.90102814E+02  -7.85811186E-01  -1.45422697E+00   1.91557037E+02  -6.26209259E+01   1.91221085E+02  -1.42050290E+00   1.90069092E+02  -7.85811186E-01   2.54148912E+00
              519                1   1.25217598E+02   1.47236542E+02   1.47236542E+02   2.02943764E+01   2.38178730E+01   1.47236542E+02   1.47236542E+02   2.38178730E+01   2.02943764E+01   1.26942162E+02  -6.37829285E+01   1.25105980E+02   2.25176182E+01   1.45013290E+02   2.38178730E+01   1.66517467E+01
              519                2   1.24559593E+02   1.46803482E+02   1.46803482E+02   2.07274284E+01   2.38178730E+01   1.46803482E+02   1.46803482E+02   2.38178730E+01   2.07274284E+01   1.26076057E+02  -6.37829285E+01   1.24473297E+02   2.29491482E+01   1.44581772E+02   2.38178730E+01   1.65882320E+01
              519                3   1.25397209E+02   1.47354630E+02   1.47354630E+02   2.01762924E+01   2.38178730E+01   1.47354630E+02   1.47354630E+02   2.38178730E+01   2.01762924E+01   1.27178329E+02  -6.37829285E+01   1.25278152E+02   2.22604942E+01   1.45270416E+02   2.38178730E+01   1.61468868E+01
              519                4   1.24606697E+02   1.46834503E+02   1.46834503E+02   2.06964054E+01   2.38178730E+01   1.46834503E+02   1.46834503E+02   2.38178730E+01   2.06964054E+01   1.26138107E+02  -6.37829285E+01   1.24518692E+02   2.27755051E+01   1.44755417E+02   2.38178730E+01   1.60602169E+01
              520                1   1.00588882E+02   1.03498299E+02   1.03498299E+02   2.05306101E+00   3.78821874E+00   1.03498299E+02   1.03498299E+02   3.78821874E+00   2.05306101E+00   1.01445236E+02  -3.64465256E+01   1.00555206E+02   8.33512402E+00   9.72162399E+01   3.78821874E+00   2.44503746E+01
              520                2   9.92985611E+01   1.02643616E+02   1.02643616E+02   2.90775228E+00   3.78821874E+00   1.02643616E+02   1.02643616E+02   3.78821874E+00   2.90775228E+00   9.97358627E+01  -3.64465294E+01   9.92897797E+01   9.28127098E+00   9.62700958E+01   3.78821874E+00   2.43935814E+01
              520                3   9.99360199E+01   1.03066292E+02   1.03066292E+02   2.48507595E+00   3.78821874E+00   1.03066292E+02   1.03066292E+02   3.78821874E+00   2.48507595E+00   1.00581215E+02  -3.64465294E+01   9.99169006E+01   8.30686951E+00   9.72444992E+01   3.78821874E+00   2.34876518E+01
              520                4   9.86235046E+01   1.02195061E+02   1.02195061E+02   3.35630250E+00   3.78821874E+00   1.02195061E+02   1.02195061E+02   3.78821874E+00   3.35630250E+00   9.88387527E+01  -3.64465256E+01   9.86213837E+01   9.26326275E+00   9.62881012E+01   3.78821874E+00   2.34295578E+01
              521                1   1.16748642E+02   1.32423584E+02   1.32423584E+02   1.46900473E+01   1.66854172E+01   1.32423584E+02   1.32423584E+02   1.66854172E+01   1.46900473E+01   1.17733536E+02  -5.45996819E+01   1.16710281E+02   1.69166470E+01   1.30196991E+02   1.66854172E+01   1.60370655E+01
              521                2   1.16637817E+02   1.32350311E+02   1.32350311E+02   1.47633266E+01   1.66854172E+01   1.32350311E+02   1.32350311E+02   1.66854172E+01   1.47633266E+01   1.17586975E+02  -5.45996819E+01   1.16602188E+02   1.69438381E+01   1.30169800E+02   1.66854172E+01   1.58633194E+01
              521                3   1.16981491E+02   1.32577469E+02   1.32577469E+02   1.45361719E+01   1.66854172E+01   1.32577469E+02   1.32577469E+02   1.66854172E+01   1.45361719E+01   1.18041306E+02  -5.45996895E+01   1.16937050E+02   1.67570667E+01   1.30356583E+02   1.66854172E+01   1.60382271E+01
              521                4   1.16880981E+02   1.32511063E+02   1.32511063E+02   1.46025848E+01   1.66854172E+01   1.32511063E+02   1.32511063E+02   1.66854172E+01   1.46025848E+01   1.17908478E+02  -5.45996895E+01   1.16839195E+02   1.67753544E+01   1.30338287E+02   1.66854172E+01   1.58577194E+01
              522                1   1.03544182E+02   1.07514816E+02   1.07514816E+02   3.34571195E+00   4.60707331E+00   1.07514816E+02   1.07514816E+02   4.60707331E+00   3.34571195E+00   1.04169106E+02  -3.84892006E+01   1.03526901E+02   7.29562330E+00   1.03564903E+02   4.60707331E+00   1.98961544E+01
              522                2   1.03949776E+02   1.07783417E+02   1.07783417E+02   3.07710648E+00   4.60707331E+00   1.07783417E+02   1.07783417E+02   4.60707331E+00   3.07710648E+00   1.04706314E+02  -3.84892006E+01   1.03924438E+02   7.31108046E+00   1.03549446E+02   4.60707331E+00   2.06251621E+01
              522                3   1.02562096E+02   1.06863022E+02   1.06863022E+02   3.99750257E+00   4.60707331E+00   1.06863022E+02   1.06863022E+02   4.60707331E+00   3.99750257E+00   1.02865524E+02  -3.84892006E+01   1.02558022E+02   7.98974323E+00   1.02870781E+02   4.60707331E+00   1.98677177E+01
              522                4   1.02984840E+02   1.07143829E+02   1.07143829E+02   3.71668673E+00   4.60707331E+00   1.07143829E+02   1.07143829E+02   4.60707331E+00   3.71668673E+00   1.03427147E+02  -3.84891968E+01   1.02976181E+02   8.00093460E+00   1.02859589E+02   4.60707331E+00   2.06095219E+01
              523                1   9.66139297E+01   1.01852768E+02   1.01852768E+02   4.31383371E+00   6.19120979E+00   1.01852768E+02   1.01852768E+02   6.19120979E+00   4.31383371E+00   9.75389328E+01  -3.74526024E+01   9.65728760E+01   1.64511032E+01   8.97154999E+01   6.19120979E+00   3.21953888E+01
              523                2   9.60326309E+01   1.01468552E+02   1.01468552E+02   4.69805145E+00   6.19120979E+00   1.01468552E+02   1.01468552E+02   6.19120979E+00   4.69805145E+00   9.67705002E+01  -3.74526024E+01   9.60065079E+01   1.62226486E+01   8.99439545E+01   6.19120979E+00   3.13436546E+01
              523                3   9.78413315E+01   1.02661713E+02   1.02661713E+02   3.50488067E+00   6.19120979E+00   1.02661713E+02   1.02661713E+02   6.19120979E+00   3.50488067E+00   9.91568375E+01  -3.74526024E+01   9.77583084E+01   1.57648191E+01   9.04017792E+01   6.19120979E+00   3.26397057E+01
              523                4   9.69992828E+01   1.02107079E+02   1.02107079E+02   4.05952120E+00   6.19120979E+00   1.02107079E+02   1.02107079E+02   6.19120979E+00   4.05952120E+00   9.80475616E+01  -3.74526024E+01   9.69465637E+01   1.56031342E+01   9.05634689E+01   6.19120979E+00   3.16001282E+01
              524                1   7.28567123E+01   7.11590195E+01   7.11590195E+01  -1.30803502E+00  -2.08119416E+00   7.11590195E+01   7.11590195E+01  -1.30803502E+00  -2.08119416E+00   7.32402115E+01  -2.25899296E+01   7.28474731E+01   1.30945673E+01   5.67564163E+01  -2.08119416E+00   2.89184914E+01
              524                2   7.25989761E+01   7.09861679E+01   7.09861679E+01  -1.13518250E+00  -2.08119416E+00   7.09861679E+01   7.09861679E+01  -1.13518250E+00  -2.08119416E+00   7.30673599E+01  -2.25899296E+01   7.25851059E+01   1.36977739E+01   5.61532097E+01  -2.08119416E+00   2.91505775E+01
              524                3   7.19837875E+01   7.05727005E+01   7.05727005E+01  -7.21717834E-01  -2.08119416E+00   7.05727005E+01   7.05727005E+01  -7.21717834E-01  -2.08119416E+00   7.26538925E+01  -2.25899296E+01   7.19548874E+01   1.32126169E+01   5.66383667E+01  -2.08119416E+00   2.82714443E+01
              524                4   7.17089005E+01   7.03875427E+01   7.03875427E+01  -5.36562622E-01  -2.08119416E+00   7.03875427E+01   7.03875427E+01  -5.36562622E-01  -2.08119416E+00   7.24687424E+01  -2.25899296E+01   7.16714554E+01   1.38386393E+01   5.60123444E+01  -2.08119416E+00   2.85114346E+01
              525                1   1.90539536E+02   2.19726761E+02   2.19726761E+02   2.06621819E+01   3.90447159E+01   2.19726761E+02   2.19726761E+02   3.90447159E+01   2.06621819E+01   1.99064575E+02  -9.31445541E+01   1.88529053E+02   2.77583618E+01   2.12630585E+02   3.90447159E+01   3.69085655E+01
              525                2   1.84401215E+02   2.15795242E+02   2.15795242E+02   2.45937042E+01   3.90447159E+01   2.15795242E+02   2.15795242E+02   3.90447159E+01   2.45937042E+01   1.91201538E+02  -9.31445541E+01   1.83120743E+02   3.12994194E+01   2.09089523E+02   3.90447159E+01   3.51735306E+01
              525                3   1.91875305E+02   2.20578491E+02   2.20578491E+02   1.98104610E+01   3.90447159E+01   2.20578491E+02   2.20578491E+02   3.90447159E+01   1.98104610E+01   2.00768021E+02  -9.31445541E+01   1.89688171E+02   2.55029278E+01   2.14886017E+02   3.90447159E+01   3.33235855E+01
              525                4   1.85681122E+02   2.16617493E+02   2.16617493E+02   2.37714558E+01   3.90447159E+01   2.16617493E+02   2.16617493E+02   3.90447159E+01   2.37714558E+01   1.92846039E+02  -9.31445541E+01   1.84259918E+02   2.90967350E+01   2.11292206E+02   3.90447159E+01   3.16006527E+01
              526                1   4.34376602E+01   3.66337433E+01   3.66337433E+01  -3.01896119E+00  -9.79294205E+00   3.66337433E+01   3.66337433E+01  -3.01896119E+00  -9.79294205E+00   4.64266853E+01  -7.94061279E+00   4.22247467E+01   1.73795831E+00   3.18768234E+01  -9.79294205E+00   1.28839598E+01
              526                2   4.30459785E+01   3.63469124E+01   3.63469124E+01  -2.73212862E+00  -9.79294205E+00   3.63469124E+01   3.63469124E+01  -2.73212862E+00  -9.79294205E+00   4.61398544E+01  -7.94061422E+00   4.17131920E+01   1.57129514E+00   3.20434875E+01  -9.79294205E+00   1.22333250E+01
              526                3   4.42969933E+01   3.72577057E+01   3.72577057E+01  -3.64292216E+00  -9.79294205E+00   3.72577057E+01   3.72577057E+01  -3.64292216E+00  -9.79294205E+00   4.70506477E+01  -7.94061422E+00   4.33208733E+01   1.09463334E+00   3.25201492E+01  -9.79294205E+00   1.30891018E+01
              526                4   4.39278870E+01   3.69905663E+01   3.69905663E+01  -3.37578511E+00  -9.79294205E+00   3.69905663E+01   3.69905663E+01  -3.37578511E+00  -9.79294205E+00   4.67835083E+01  -7.94061279E+00   4.28543015E+01   9.29436505E-01   3.26853447E+01  -9.79294205E+00   1.24599810E+01
              527                1   1.16142876E+02   1.30397903E+02   1.30397903E+02   1.26330557E+01   1.59479713E+01   1.30397903E+02   1.30397903E+02   1.59479713E+01   1.26330557E+01   1.17764847E+02  -5.29929771E+01   1.16036369E+02   1.94045925E+01   1.23626366E+02   1.59479713E+01   2.74152412E+01
              527                2   1.17047028E+02   1.30991684E+02   1.30991684E+02   1.20392637E+01   1.59479713E+01   1.30991684E+02   1.30991684E+02   1.59479713E+01   1.20392637E+01   1.18952415E+02  -5.29929695E+01   1.16900055E+02   1.86620865E+01   1.24368866E+02   1.59479713E+01   2.72752380E+01
              527                3   1.16750214E+02   1.30796906E+02   1.30796906E+02   1.22340384E+01   1.59479713E+01   1.30796906E+02   1.30796906E+02   1.59479713E+01   1.22340384E+01   1.18562866E+02  -5.29929695E+01   1.16617210E+02   1.93669357E+01   1.23664017E+02   1.59479713E+01   2.81925201E+01
              527                4   1.17626282E+02   1.31371399E+02   1.31371399E+02   1.16595478E+01   1.59479713E+01   1.31371399E+02   1.31371399E+02   1.59479713E+01   1.16595478E+01   1.19711853E+02  -5.29929695E+01   1.17450218E+02   1.86331253E+01   1.24397827E+02   1.59479713E+01   2.80390568E+01
              528                1   1.01025398E+02   1.09133743E+02   1.09133743E+02   6.32950163E+00   9.98649979E+00   1.09133743E+02   1.09133743E+02   9.98649979E+00   6.32950163E+00   1.02804237E+02  -4.18165779E+01   1.00876312E+02   2.19564400E+01   9.35067978E+01   9.98649979E+00   3.69095459E+01
              528                2   1.01337334E+02   1.09338013E+02   1.09338013E+02   6.12522793E+00   9.98649979E+00   1.09338013E+02   1.09338013E+02   9.98649979E+00   6.12522793E+00   1.03212784E+02  -4.18165779E+01   1.01171631E+02   2.20671024E+01   9.33961411E+01   9.98649979E+00   3.72996216E+01
              528                3   1.00562897E+02   1.08830544E+02   1.08830544E+02   6.63269663E+00   9.98649979E+00   1.08830544E+02   1.08830544E+02   9.98649979E+00   6.63269663E+00   1.02197845E+02  -4.18165779E+01   1.00436958E+02   2.24054966E+01   9.30577469E+01   9.98649979E+00   3.69210625E+01
              528                4   1.00930504E+02   1.09071564E+02   1.09071564E+02   6.39167690E+00   9.98649979E+00   1.09071564E+02   1.09071564E+02   9.98649979E+00   6.39167690E+00   1.02679886E+02  -4.18165779E+01   1.00786316E+02   2.24441986E+01   9.30190430E+01   9.98649979E+00   3.72905846E+01
              529                1   2.07837540E+02   2.32631271E+02   2.32631271E+02   6.63702202E+00   4.96956825E+01   2.32631271E+02   2.32631271E+02   4.96956825E+01   6.63702202E+00   2.25994247E+02  -9.63213272E+01   1.97424393E+02   7.42406559E+00   2.31844223E+02   4.96956825E+01   1.33135023E+01
              529                2   2.08248123E+02   2.32785782E+02   2.32785782E+02   5.97916222E+00   5.01990356E+01   2.32785782E+02   2.32785782E+02   5.01990356E+01   5.97916222E+00   2.26806610E+02  -9.63213272E+01   1.97265671E+02   6.23257399E+00   2.32532364E+02   5.01990356E+01   7.57702780E+00
              529                3   2.09079041E+02   2.32999039E+02   2.32999039E+02   4.30233622E+00   5.16625938E+01   2.32999039E+02   2.32999039E+02   5.16625938E+01   4.30233622E+00   2.28696701E+02  -9.63213196E+01   1.96458939E+02   5.30358696E+00   2.31997787E+02   5.16625938E+01   1.50990295E+01
              529                4   2.09468750E+02   2.33140778E+02   2.33140778E+02   3.70322704E+00   5.21199608E+01   2.33140778E+02   2.33140778E+02   5.21199608E+01   3.70322704E+00   2.29437561E+02  -9.63213196E+01   1.96277756E+02   4.09278917E+00   2.32751221E+02   5.21199608E+01   9.44607449E+00
              530                1   1.06766296E+02   1.15033699E+02   1.15033699E+02   6.55661392E+00   1.00646696E+01   1.15033699E+02   1.15033699E+02   1.00646696E+01   6.55661392E+00   1.08477089E+02  -4.38849945E+01   1.06636505E+02   1.66857414E+01   1.04904572E+02   1.00646696E+01   3.15623093E+01
              530                2   1.05512878E+02   1.14209839E+02   1.14209839E+02   7.38047075E+00   1.00646696E+01   1.14209839E+02   1.14209839E+02   1.00646696E+01   7.38047075E+00   1.06829369E+02  -4.38849945E+01   1.05436012E+02   1.75871258E+01   1.04003181E+02   1.00646696E+01   3.14037399E+01
              530                3   1.06256783E+02   1.14699150E+02   1.14699150E+02   6.89115858E+00   1.00646696E+01   1.14699150E+02   1.14699150E+02   1.00646696E+01   6.89115858E+00   1.07807991E+02  -4.38849945E+01   1.06150078E+02   1.64953022E+01   1.05095009E+02   1.00646696E+01   3.07109699E+01
              530                4   1.05090477E+02   1.13931541E+02   1.13931541E+02   7.65876818E+00   1.00646696E+01   1.13931541E+02   1.13931541E+02   1.00646696E+01   7.65876818E+00   1.06272774E+02  -4.38849945E+01   1.05028488E+02   1.73502140E+01   1.04240097E+02   1.00646696E+01   3.05943222E+01
              531                1   2.05247742E+02   2.16924088E+02   2.16924088E+02  -2.11830091E+00   2.90322342E+01   2.16924088E+02   2.16924088E+02   2.90322342E+01  -2.11830091E+00   2.19042389E+02  -8.12793350E+01   1.99825516E+02  -2.08853984E+00   2.16894333E+02   2.90322342E+01   2.55274677E+00
              531                2   2.04520538E+02   2.16579163E+02   2.16579163E+02  -9.77114618E-01   2.82359715E+01   2.16579163E+02   2.16579163E+02   2.82359715E+01  -9.77114618E-01   2.17556274E+02  -8.12793427E+01   1.99745667E+02  -7.46362388E-01   2.16348419E+02   2.82359715E+01   7.08145809E+00
              531                3   2.04088379E+02   2.16391434E+02   2.16391434E+02  -1.53402656E-01   2.75999832E+01   2.16391434E+02   2.16391434E+02   2.75999832E+01  -1.53402656E-01   2.16544846E+02  -8.12793350E+01   1.99776688E+02  -1.53161839E-01   2.16391205E+02   2.75999832E+01   2.25554228E-01
              531                4   2.03303055E+02   2.16005966E+02   2.16005966E+02   1.11249387E+00   2.67195797E+01   2.16005966E+02   2.16005966E+02   2.67195797E+01   1.11249387E+00   2.14893463E+02  -8.12793427E+01   1.99626495E+02   1.21708679E+00   2.15901367E+02   2.67195797E+01   4.73976612E+00
              532                1   1.29760208E+02   1.52655350E+02   1.52655350E+02   2.06611385E+01   2.52509193E+01   1.52655350E+02   1.52655350E+02   2.52509193E+01   2.06611385E+01   1.31994202E+02  -6.61891327E+01   1.29577393E+02   2.46903725E+01   1.48626114E+02   2.52509193E+01   2.27068329E+01
              532                2   1.30683243E+02   1.53259674E+02   1.53259674E+02   2.00568256E+01   2.52509193E+01   1.53259674E+02   1.53259674E+02   2.52509193E+01   2.00568256E+01   1.33202850E+02  -6.61891403E+01   1.30450699E+02   2.35242138E+01   1.49792282E+02   2.52509193E+01   2.12095146E+01
              532                3   1.31749817E+02   1.53956467E+02   1.53956467E+02   1.93600101E+01   2.52509193E+01   1.53956467E+02   1.53956467E+02   2.52509193E+01   1.93600101E+01   1.34596466E+02  -6.61891327E+01   1.31453018E+02   2.40411568E+01   1.49275330E+02   2.52509193E+01   2.46607437E+01
              532                4   1.32613998E+02   1.54519897E+02   1.54519897E+02   1.87965984E+01   2.52509193E+01   1.54519897E+02   1.54519897E+02   2.52509193E+01   1.87965984E+01   1.35723297E+02  -6.61891403E+01   1.32259918E+02   2.28225117E+01   1.50493988E+02   2.52509193E+01   2.30261173E+01
              533                1   1.32817902E+02   1.57831635E+02   1.57831635E+02   2.26948433E+01   2.74609165E+01   1.57831635E+02   1.57831635E+02   2.74609165E+01   2.26948433E+01   1.35136780E+02  -6.93291321E+01   1.32625290E+02   2.59598694E+01   1.54566605E+02   2.74609165E+01   2.07500534E+01
              533                2   1.33827805E+02   1.58492630E+02   1.58492630E+02   2.20338440E+01   2.74609165E+01   1.58492630E+02   1.58492630E+02   2.74609165E+01   2.20338440E+01   1.36458786E+02  -6.93291321E+01   1.33579880E+02   2.47798882E+01   1.55746582E+02   2.74609165E+01   1.91619835E+01
              533                3   1.34863632E+02   1.59169128E+02   1.59169128E+02   2.13573265E+01   2.74609165E+01   1.59169128E+02   1.59169128E+02   2.74609165E+01   2.13573265E+01   1.37811813E+02  -6.93291245E+01   1.34552353E+02   2.52202473E+01   1.55306213E+02   2.74609165E+01   2.27471714E+01
              533                4   1.35784637E+02   1.59769440E+02   1.59769440E+02   2.07570267E+01   2.74609165E+01   1.59769440E+02   1.59769440E+02   2.74609165E+01   2.07570267E+01   1.39012405E+02  -6.93291245E+01   1.35411545E+02   2.39993820E+01   1.56527084E+02   2.74609165E+01   2.09812717E+01
              534                1   9.32297974E+01   9.65248871E+01   9.65248871E+01   2.76489496E+00   3.83448172E+00   9.65248871E+01   9.65248871E+01   3.83448172E+00   2.76489496E+00   9.37599869E+01  -3.43747520E+01   9.32159958E+01   1.40216923E+01   8.52680893E+01   3.83448172E+00   3.04749336E+01
              534                2   9.24752426E+01   9.60240402E+01   9.60240402E+01   3.26574135E+00   3.83448172E+00   9.60240402E+01   9.60240402E+01   3.83448172E+00   3.26574135E+00   9.27583008E+01  -3.43747520E+01   9.24713058E+01   1.37324820E+01   8.55572968E+01   3.83448172E+00   2.93483295E+01
              534                3   9.50153732E+01   9.77050171E+01   9.77050171E+01   1.58476150E+00   3.83448172E+00   9.77050171E+01   9.77050171E+01   3.83448172E+00   1.58476150E+00   9.61202545E+01  -3.43747520E+01   9.49554214E+01   1.27791500E+01   8.65106277E+01   3.83448172E+00   3.08333149E+01
              534                4   9.40082855E+01   9.70402679E+01   9.70402679E+01   2.24951434E+00   3.83448172E+00   9.70402679E+01   9.70402679E+01   3.83448172E+00   2.24951434E+00   9.47907486E+01  -3.43747520E+01   9.39782181E+01   1.25256948E+01   8.67640839E+01   3.83448172E+00   2.94701042E+01
              535                1   1.38797684E+02   1.64811188E+02   1.64811188E+02   2.27641563E+01   2.95087872E+01   1.64811188E+02   1.64811188E+02   2.95087872E+01   2.27641563E+01   1.42047043E+02  -7.23613815E+01   1.38428253E+02   2.52597160E+01   1.62315628E+02   2.95087872E+01   1.86617146E+01
              535                2   1.37848343E+02   1.64192200E+02   1.64192200E+02   2.33831539E+01   2.95087872E+01   1.64192200E+02   1.64192200E+02   2.95087872E+01   2.33831539E+01   1.40809036E+02  -7.23613815E+01   1.37541611E+02   2.64885349E+01   1.61086807E+02   2.95087872E+01   2.06790466E+01
              535                3   1.36573090E+02   1.63358826E+02   1.63358826E+02   2.42165222E+01   2.95087872E+01   1.63358826E+02   1.63358826E+02   2.95087872E+01   2.42165222E+01   1.39142303E+02  -7.23613815E+01   1.36342102E+02   2.63167133E+01   1.61258636E+02   2.95087872E+01   1.69650955E+01
              535                4   1.35713745E+02   1.62795990E+02   1.62795990E+02   2.47793522E+01   2.95087872E+01   1.62795990E+02   1.62795990E+02   2.95087872E+01   2.47793522E+01   1.38016647E+02  -7.23613815E+01   1.35528137E+02   2.74112339E+01   1.60164108E+02   2.95087872E+01   1.88763733E+01
              536                1   1.04628372E+02   1.13366180E+02   1.13366180E+02   7.11170721E+00   1.04435043E+01   1.13366180E+02   1.13366180E+02   1.04435043E+01   7.11170721E+00   1.06254478E+02  -4.36404610E+01   1.04508919E+02   1.94743042E+01   1.01003586E+02   1.04435043E+01   3.40697441E+01
              536                2   1.04805016E+02   1.13482117E+02   1.13482117E+02   6.99577522E+00   1.04435043E+01   1.13482117E+02   1.13482117E+02   1.04435043E+01   6.99577522E+00   1.06486343E+02  -4.36404610E+01   1.04677315E+02   1.94059219E+01   1.01071968E+02   1.04435043E+01   3.41686897E+01
              536                3   1.04519394E+02   1.13294632E+02   1.13294632E+02   7.18325996E+00   1.04435043E+01   1.13294632E+02   1.13294632E+02   1.04435043E+01   7.18325996E+00   1.06111374E+02  -4.36404610E+01   1.04404900E+02   1.95963554E+01   1.00881531E+02   1.04435043E+01   3.41040459E+01
              536                4   1.04722801E+02   1.13428169E+02   1.13428169E+02   7.04972315E+00   1.04435043E+01   1.13428169E+02   1.13428169E+02   1.04435043E+01   7.04972315E+00   1.06378441E+02  -4.36404610E+01   1.04598976E+02   1.95364914E+01   1.00941399E+02   1.04435043E+01   3.42403793E+01
              537                1   9.12478333E+01   8.67809296E+01   8.67809296E+01  -4.32444572E+00  -4.60869980E+00   8.67809296E+01   8.67809296E+01  -4.32444572E+00  -4.60869980E+00   9.13896255E+01  -2.59492588E+01   9.12468414E+01  -3.25652361E+00   8.57130051E+01  -4.60869980E+00   9.80576611E+00
              537                2   9.16702499E+01   8.70627594E+01   8.70627594E+01  -4.60627937E+00  -4.60869980E+00   8.70627594E+01   8.70627594E+01  -4.60627937E+00  -4.60869980E+00   9.16714630E+01  -2.59492588E+01   9.16702576E+01  -3.56248474E+00   8.60189667E+01  -4.60869980E+00   9.72595119E+00
              537                3   9.14648361E+01   8.69257660E+01   8.69257660E+01  -4.46928549E+00  -4.60869980E+00   8.69257660E+01   8.69257660E+01  -4.46928549E+00  -4.60869980E+00   9.15344696E+01  -2.59492588E+01   9.14646072E+01  -3.33487415E+00   8.57913589E+01  -4.60869980E+00   1.01189146E+01
              537                4   9.18858261E+01   8.72064285E+01   8.72064285E+01  -4.74994326E+00  -4.60869980E+00   8.72064285E+01   8.72064285E+01  -4.60869980E+00  -4.74994326E+00   9.19563675E+01  -2.59492588E+01   9.18855896E+01  -3.64084506E+00   8.60973282E+01  -4.60869980E+00   1.00378504E+01
              538                1   3.96835480E+01   4.09059067E+01   4.09059067E+01   1.33177471E+00   1.11384118E+00   4.09059067E+01   4.09059067E+01   1.33177471E+00   1.11384118E+00   3.97920647E+01  -1.44505081E+01   3.96822014E+01   3.16704202E+00   3.90706406E+01   1.11384118E+00   8.32231331E+00
              538                2   3.98157272E+01   4.09942207E+01   4.09942207E+01   1.24346137E+00   1.11384118E+00   4.09942207E+01   4.09942207E+01   1.24346137E+00   1.11384118E+00   3.98803787E+01  -1.44505081E+01   3.98152504E+01   3.03284788E+00   3.92048340E+01   1.11384118E+00   8.24181938E+00
              538                3   3.98913002E+01   4.10446701E+01   4.10446701E+01   1.19301355E+00   1.11384118E+00   4.10446701E+01   4.10446701E+01   1.19301355E+00   1.11384118E+00   3.99308281E+01  -1.44505081E+01   3.98911209E+01   3.08231258E+00   3.91553688E+01   1.11384118E+00   8.46890068E+00
              538                4   4.00224648E+01   4.11321526E+01   4.11321526E+01   1.10553145E+00   1.11384118E+00   4.11321526E+01   4.11321526E+01   1.11384118E+00   1.10553145E+00   4.00266190E+01  -1.44505081E+01   4.00224609E+01   2.94869828E+00   3.92889824E+01   1.11384118E+00   8.38919163E+00
              539                1   3.79012718E+01   3.34650078E+01   3.34650078E+01  -1.50658166E+00  -6.80778599E+00   3.34650078E+01   3.34650078E+01  -1.50658166E+00  -6.80778599E+00   4.02727966E+01  -8.38354778E+00   3.70534058E+01   1.44743338E-01   3.18136845E+01  -6.80778599E+00   7.41772032E+00
              539                2   3.74126549E+01   3.31106606E+01   3.31106606E+01  -1.15223348E+00  -6.80778599E+00   3.31106606E+01   3.31106606E+01  -1.15223348E+00  -6.80778599E+00   3.99184456E+01  -8.38354778E+00   3.64322853E+01   5.12231648E-01   3.14461956E+01  -6.80778599E+00   7.36606789E+00
              539                3   3.77712135E+01   3.33709488E+01   3.33709488E+01  -1.41251934E+00  -6.80778599E+00   3.33709488E+01   3.33709488E+01  -1.41251934E+00  -6.80778599E+00   4.01787338E+01  -8.38354778E+00   3.68893356E+01   7.71920532E-02   3.18812370E+01  -6.80778599E+00   7.04259157E+00
              539                4   3.72797470E+01   3.30138054E+01   3.30138054E+01  -1.05537760E+00  -6.80778599E+00   3.30138054E+01   3.30138054E+01  -1.05537760E+00  -6.80778599E+00   3.98215942E+01  -8.38354778E+00   3.62610550E+01   4.44799125E-01   3.15136299E+01  -6.80778599E+00   6.98994112E+00
              540                1   4.08413162E+01   4.12079048E+01   4.12079048E+01   6.23731375E-01   1.14209630E-01   4.12079048E+01   4.12079048E+01   6.23731375E-01   1.14209630E-01   4.10936928E+01  -1.39819479E+01   4.08341675E+01   2.45651245E+00   3.93751221E+01   1.14209630E-01   8.42750359E+00
              540                2   4.06442299E+01   4.10755692E+01   4.10755692E+01   7.56066680E-01   1.14209630E-01   4.10755692E+01   4.10755692E+01   7.56066680E-01   1.14209630E-01   4.09613571E+01  -1.39819479E+01   4.06328278E+01   2.52259326E+00   3.93090401E+01   1.14209630E-01   8.25256920E+00
              540                3   4.10247536E+01   4.13308754E+01   4.13308754E+01   5.00761032E-01   1.14209630E-01   4.13308754E+01   4.13308754E+01   5.00761032E-01   1.14209630E-01   4.12166634E+01  -1.39819479E+01   4.10206566E+01   2.29451895E+00   3.95371170E+01   1.14209630E-01   8.36789799E+00
              540                4   4.08290176E+01   4.11996498E+01   4.11996498E+01   6.31984472E-01   1.14209630E-01   4.11996498E+01   4.11996498E+01   6.31984472E-01   1.14209630E-01   4.10854416E+01  -1.39819479E+01   4.08216286E+01   2.35919785E+00   3.94724350E+01   1.14209630E-01   8.19059277E+00
              541                1   1.01893936E+02   1.03253334E+02   1.03253334E+02   1.03853142E+00   1.68332016E+00   1.03253334E+02   1.03253334E+02   1.68332016E+00   1.03853142E+00   1.02214798E+02  -3.53250618E+01   1.01889343E+02   3.29085970E+00   1.01000999E+02   1.68332016E+00   1.50049534E+01
              541                2   1.02103706E+02   1.03392693E+02   1.03392693E+02   8.99169564E-01   1.68332016E+00   1.03392693E+02   1.03392693E+02   1.68332016E+00   8.99169564E-01   1.02493523E+02  -3.53250618E+01   1.02096931E+02   3.29091334E+00   1.01000946E+02   1.68332016E+00   1.54731417E+01
              541                3   1.01251457E+02   1.02825912E+02   1.02825912E+02   1.46594715E+00   1.68332016E+00   1.02825912E+02   1.02825912E+02   1.68332016E+00   1.46594715E+00   1.01359970E+02  -3.53250618E+01   1.01250931E+02   3.73815966E+00   1.00553703E+02   1.68332016E+00   1.50049458E+01
              541                4   1.01465759E+02   1.02968582E+02   1.02968582E+02   1.32327509E+00   1.68332016E+00   1.02968582E+02   1.02968582E+02   1.68332016E+00   1.32327509E+00   1.01645302E+02  -3.53250580E+01   1.01464325E+02   3.73713183E+00   1.00554726E+02   1.68332016E+00   1.54767647E+01
              542                1   2.12678284E+02   2.17619019E+02   2.17619019E+02  -6.76046228E+00   1.89860153E+01   2.17619019E+02   2.17619019E+02   1.89860153E+01  -6.76046228E+00   2.24379471E+02  -7.66148605E+01   2.09129044E+02  -6.71954584E+00   2.17578094E+02   1.89860153E+01  -3.02980375E+00
              542                2   2.13410339E+02   2.17976196E+02   2.17976196E+02  -7.99606848E+00   1.98644314E+01   2.17976196E+02   2.17976196E+02   1.98644314E+01  -7.99606848E+00   2.25972275E+02  -7.66148529E+01   2.09260223E+02  -7.76964664E+00   2.17749786E+02   1.98644314E+01  -7.14928865E+00
              542                3   2.13756393E+02   2.18124725E+02   2.18124725E+02  -8.69402695E+00   2.04138832E+01   2.18124725E+02   2.18124725E+02   2.04138832E+01  -8.69402695E+00   2.26818741E+02  -7.66148605E+01   2.09227875E+02  -8.69137955E+00   2.18122070E+02   2.04138832E+01  -7.75391996E-01
              542                4   2.14337891E+02   2.18370010E+02   2.18370010E+02  -9.84108925E+00   2.13156490E+01   2.18370010E+02   2.18370010E+02   2.13156490E+01  -9.84108925E+00   2.28211090E+02  -7.66148529E+01   2.09152054E+02  -9.73944187E+00   2.18268356E+02   2.13156490E+01  -4.81529236E+00
              543                1   2.05241837E+02   2.01394791E+02   2.01394791E+02  -1.17079449E+01   5.04013824E+00   2.01394791E+02   2.01394791E+02   5.04013824E+00  -1.17079449E+01   2.13102737E+02  -6.49089966E+01   2.03695908E+02  -1.16452093E+01   2.01332047E+02   5.04013824E+00  -3.65605044E+00
              543                2   2.06247284E+02   2.01963348E+02   2.01963348E+02  -1.31780386E+01   5.94165897E+00   2.01963348E+02   2.01963348E+02   5.94165897E+00  -1.31780386E+01   2.15141388E+02  -6.49089890E+01   2.04239151E+02  -1.30179853E+01   2.01803299E+02   5.94165897E+00  -5.86578178E+00
              543                3   2.05778580E+02   2.01696472E+02   2.01696472E+02  -1.25307045E+01   5.56120396E+00   2.01696472E+02   2.01696472E+02   5.56120396E+00  -1.25307045E+01   2.14227188E+02  -6.49089890E+01   2.03977737E+02  -1.25206270E+01   2.01686401E+02   5.56120396E+00  -1.46908176E+00
              543                4   2.07192261E+02   2.02482178E+02   2.02482178E+02  -1.45902185E+01   6.83502436E+00   2.02482178E+02   2.02482178E+02   6.83502436E+00  -1.45902185E+01   2.17072388E+02  -6.49089890E+01   2.04677750E+02  -1.45318708E+01   2.02423828E+02   6.83502436E+00  -3.55826068E+00
              544                1   3.54222870E+01   3.96687622E+01   3.96687622E+01   2.79706907E+00   5.90004635E+00   3.96687622E+01   3.96687622E+01   5.90004635E+00   2.79706907E+00   3.68716927E+01  -1.61219597E+01   3.51145554E+01   5.14120722E+00   3.73246231E+01   5.90004635E+00   8.99652195E+00
              544                2   3.52858772E+01   3.95813599E+01   3.95813599E+01   2.88447046E+00   5.90004635E+00   3.95813599E+01   3.95813599E+01   5.90004635E+00   2.88447046E+00   3.66968918E+01  -1.61219597E+01   3.49942055E+01   5.29533005E+00   3.71705017E+01   5.90004635E+00   9.09168911E+00
              544                3   3.51881294E+01   3.95186806E+01   3.95186806E+01   2.94715118E+00   5.90004635E+00   3.95186806E+01   3.95186806E+01   5.90004635E+00   2.94715118E+00   3.65715294E+01  -1.61219597E+01   3.49077415E+01   5.23110104E+00   3.72347298E+01   5.90004635E+00   8.84935856E+00
              544                4   3.50531197E+01   3.94320374E+01   3.94320374E+01   3.03379250E+00   5.90004635E+00   3.94320374E+01   3.94320374E+01   5.90004635E+00   3.03379250E+00   3.63982468E+01  -1.61219597E+01   3.47880020E+01   5.38540554E+00   3.70804253E+01   5.90004635E+00   8.94787884E+00
              545                1   1.27142509E+02   1.50471222E+02   1.50471222E+02   2.16258297E+01   2.51029167E+01   1.50471222E+02   1.50471222E+02   2.51029167E+01   2.16258297E+01   1.28845383E+02  -6.57333221E+01   1.27035461E+02   2.43214149E+01   1.47775635E+02   2.51029167E+01   1.84403667E+01
              545                2   1.27878822E+02   1.50955185E+02   1.50955185E+02   2.11418552E+01   2.51029167E+01   1.50955185E+02   1.50955185E+02   2.51029167E+01   2.11418552E+01   1.29813339E+02  -6.57333221E+01   1.27740677E+02   2.32702923E+01   1.48826752E+02   2.51029167E+01   1.64854355E+01
              545                3   1.28821594E+02   1.51573669E+02   1.51573669E+02   2.05233707E+01   2.51029167E+01   1.51573669E+02   1.51573669E+02   2.51029167E+01   2.05233707E+01   1.31050308E+02  -6.57333221E+01   1.28638260E+02   2.37455502E+01   1.48351501E+02   2.51029167E+01   2.02949486E+01
              545                4   1.29563965E+02   1.52059769E+02   1.52059769E+02   2.00372772E+01   2.51029167E+01   1.52059769E+02   1.52059769E+02   2.51029167E+01   2.00372772E+01   1.32022491E+02  -6.57333221E+01   1.29340881E+02   2.27297897E+01   1.49367264E+02   2.51029167E+01   1.86607113E+01
              546                1   1.28613937E+02   1.44931808E+02   1.44931808E+02   1.20013685E+01   2.11196880E+01   1.44931808E+02   1.44931808E+02   2.11196880E+01   1.20013685E+01   1.32930450E+02  -5.93509560E+01   1.27883675E+02   2.61224251E+01   1.30810760E+02   2.11196880E+01   4.09599037E+01
              546                2   1.27423767E+02   1.44163239E+02   1.44163239E+02   1.27699385E+01   2.11196880E+01   1.44163239E+02   1.44163239E+02   2.11196880E+01   1.27699385E+01   1.31393311E+02  -5.93509560E+01   1.26806084E+02   2.78226662E+01   1.29110519E+02   2.11196880E+01   4.18478508E+01
              546                3   1.26070236E+02   1.43286957E+02   1.43286957E+02   1.36462374E+01   2.11196880E+01   1.43286957E+02   1.43286957E+02   2.11196880E+01   1.36462374E+01   1.29640717E+02  -5.93509636E+01   1.25570396E+02   2.65052891E+01   1.30427902E+02   2.11196880E+01   3.87517967E+01
              546                4   1.23597061E+02   1.41679367E+02   1.41679367E+02   1.52538099E+01   2.11196880E+01   1.41679367E+02   1.41679367E+02   2.11196880E+01   1.52538099E+01   1.26425560E+02  -5.93509560E+01   1.23283295E+02   2.88387928E+01   1.28094391E+02   2.11196880E+01   3.91527405E+01
              547                1   6.34240532E+01   5.90365982E+01   5.90365982E+01  -2.53608871E+00  -6.08942556E+00   5.90365982E+01   5.90365982E+01  -2.53608871E+00  -6.08942556E+00   6.51260223E+01  -1.68036957E+01   6.31995201E+01   8.53762436E+00   4.79628868E+01  -6.08942556E+00   2.36476460E+01
              547                2   6.41685867E+01   5.95466537E+01   5.95466537E+01  -3.04614210E+00  -6.08942556E+00   5.95466537E+01   5.95466537E+01  -3.04614210E+00  -6.08942556E+00   6.56360779E+01  -1.68036957E+01   6.40059128E+01   7.59503698E+00   4.89054756E+01  -6.08942556E+00   2.35122604E+01
              547                3   6.45679321E+01   5.98192520E+01   5.98192520E+01  -3.31873918E+00  -6.08942556E+00   5.98192520E+01   5.98192520E+01  -3.31873918E+00  -6.08942556E+00   6.59086761E+01  -1.68036957E+01   6.44339752E+01   8.53014755E+00   4.79703636E+01  -6.08942556E+00   2.46519527E+01
              547                4   6.53272934E+01   6.03357735E+01   6.03357735E+01  -3.83526325E+00  -6.08942556E+00   6.03357735E+01   6.03357735E+01  -3.83526325E+00  -6.08942556E+00   6.64252014E+01  -1.68036957E+01   6.52397003E+01   7.56399584E+00   4.89365158E+01  -6.08942556E+00   2.45267029E+01
              548                1   4.12921448E+01   4.18728752E+01   4.18728752E+01   8.63574326E-01   3.03580523E-01   4.18728752E+01   4.18728752E+01   8.63574326E-01   3.03580523E-01   4.15692940E+01  -1.43466768E+01   4.12835999E+01   2.66949821E+00   4.00669518E+01   3.03580523E-01   8.41417408E+00
              548                2   4.14683838E+01   4.19910927E+01   4.19910927E+01   7.45359421E-01   3.03580523E-01   4.19910927E+01   4.19910927E+01   7.45359421E-01   3.03580523E-01   4.16875114E+01  -1.43466768E+01   4.14630890E+01   2.50629115E+00   4.02301598E+01   3.03580523E-01   8.33846569E+00
              548                3   4.15031891E+01   4.20144157E+01   4.20144157E+01   7.22035289E-01   3.03580523E-01   4.20144157E+01   4.20144157E+01   7.22035289E-01   3.03580523E-01   4.17108345E+01  -1.43466768E+01   4.14984436E+01   2.59274077E+00   4.01437111E+01   3.03580523E-01   8.58756542E+00
              548                4   4.16798782E+01   4.21327248E+01   4.21327248E+01   6.03726566E-01   3.03580523E-01   4.21327248E+01   4.21327248E+01   6.03726566E-01   3.03580523E-01   4.18291435E+01  -1.43466768E+01   4.16774483E+01   2.43007421E+00   4.03063774E+01   3.03580523E-01   8.51532650E+00
              549                1   2.60333633E+01   1.96829948E+01   1.96829948E+01  -5.04362226E-01  -9.70029068E+00   1.96829948E+01   1.96829948E+01  -5.04362226E-01  -9.70029068E+00   2.93832855E+01  -3.15944743E+00   2.19045353E+01   9.06402588E+00   1.01146069E+01  -9.70029068E+00   1.00800009E+01
              549                2   2.63570786E+01   1.99592514E+01   1.99592514E+01  -7.80618489E-01  -9.70029068E+00   1.99592514E+01   1.99592514E+01  -7.80618489E-01  -9.70029068E+00   2.96595421E+01  -3.15944743E+00   2.25661697E+01   9.16718864E+00   1.00114441E+01  -9.70029068E+00   1.03613396E+01
              549                3   2.58799953E+01   1.95506611E+01   1.95506611E+01  -3.72028589E-01  -9.70029068E+00   1.95506611E+01   1.95506611E+01  -3.72028589E-01  -9.70029068E+00   2.92509518E+01  -3.15944743E+00   2.15796509E+01   9.36838818E+00   9.81024456E+00  -9.70029068E+00   9.95889473E+00
              549                4   2.62062817E+01   1.98310642E+01   1.98310642E+01  -6.52432263E-01  -9.70029068E+00   1.98310642E+01   1.98310642E+01  -6.52432263E-01  -9.70029068E+00   2.95313549E+01  -3.15944743E+00   2.22618332E+01   9.47332096E+00   9.70531178E+00  -9.70029068E+00   1.02410917E+01
              550                1   9.13375397E+01   9.02104721E+01   9.02104721E+01  -1.55625427E+00  -6.91745758E-01   9.02104721E+01   9.02104721E+01  -6.91745758E-01  -1.55625427E+00   9.17667313E+01  -2.93208256E+01   9.13283310E+01   5.65173388E+00   8.30024872E+01  -6.91745758E-01   2.46880207E+01
              550                2   9.01379547E+01   8.94127884E+01   8.94127884E+01  -7.58564532E-01  -6.91745758E-01   8.94127884E+01   8.94127884E+01  -6.91745758E-01  -7.58564532E-01   9.01713486E+01  -2.93208256E+01   9.01379013E+01   6.65699148E+00   8.19972305E+01  -6.91745758E-01   2.47725677E+01
              550                3   9.06255569E+01   8.97374420E+01   8.97374420E+01  -1.08321881E+00  -6.91745758E-01   8.97374420E+01   8.97374420E+01  -6.91745758E-01  -1.08321881E+00   9.08206558E+01  -2.93208256E+01   9.06236496E+01   5.59375525E+00   8.30604630E+01  -6.91745758E-01   2.37028561E+01
              550                4   8.94098129E+01   8.89268799E+01   8.89268799E+01  -2.72657424E-01  -6.91745758E-01   8.89268799E+01   8.89268799E+01  -2.72657424E-01  -6.91745758E-01   8.96186218E+01  -2.93208256E+01   8.94076004E+01   6.58774567E+00   8.20664749E+01  -6.91745758E-01   2.37671967E+01
              551                1   5.53557167E+01   4.90751915E+01   4.90751915E+01  -4.24929523E+00  -8.10965633E+00   4.90751915E+01   4.90751915E+01  -4.24929523E+00  -8.10965633E+00   5.71848488E+01  -1.22387466E+01   5.50516434E+01  -5.98176897E-01   4.54240723E+01  -8.10965633E+00   1.34671240E+01
              551                2   5.60370865E+01   4.95454941E+01   4.95454941E+01  -4.71960211E+00  -8.10965633E+00   4.95454941E+01   4.95454941E+01  -4.71960211E+00  -8.10965633E+00   5.76551514E+01  -1.22387457E+01   5.58056755E+01  -1.16107452E+00   4.59869690E+01  -8.10965633E+00   1.34328213E+01
              551                3   5.57943153E+01   4.93782120E+01   4.93782120E+01  -4.55231476E+00  -8.10965633E+00   4.93782120E+01   4.93782120E+01  -4.55231476E+00  -8.10965633E+00   5.74878693E+01  -1.22387466E+01   5.55383072E+01  -6.02666020E-01   4.54285622E+01  -8.10965633E+00   1.40501585E+01
              551                4   5.64731407E+01   4.98452072E+01   4.98452072E+01  -5.01930952E+00  -8.10965633E+00   4.98452072E+01   4.98452072E+01  -5.01930952E+00  -8.10965633E+00   5.79548645E+01  -1.22387466E+01   5.62824287E+01  -1.16687822E+00   4.59927750E+01  -8.10965633E+00   1.40185795E+01
              552                1   3.70191345E+01   4.19799042E+01   4.19799042E+01   2.38432503E+00   8.23367596E+00   4.19799042E+01   4.19799042E+01   8.23367596E+00   2.38432503E+00   3.95955772E+01  -1.75326347E+01   3.59573364E+01   4.80764627E+00   3.95565796E+01   8.23367596E+00   9.49106789E+00
              552                2   3.69938850E+01   4.19641647E+01   4.19641647E+01   2.40006375E+00   8.23367596E+00   4.19641647E+01   4.19641647E+01   8.23367596E+00   2.40006375E+00   3.95640984E+01  -1.75326347E+01   3.59371643E+01   5.02109528E+00   3.93431320E+01   8.23367596E+00   9.84016991E+00
              552                3   3.63972282E+01   4.15917282E+01   4.15917282E+01   2.77249980E+00   8.23367596E+00   4.15917282E+01   4.15917282E+01   8.23367596E+00   2.77249980E+00   3.88192291E+01  -1.75326347E+01   3.54578629E+01   5.13363647E+00   3.92305908E+01   8.23367596E+00   9.27806759E+00
              552                4   3.63770142E+01   4.15790901E+01   4.15790901E+01   2.78513265E+00   8.23367596E+00   4.15790901E+01   4.15790901E+01   8.23367596E+00   2.78513265E+00   3.87939568E+01  -1.75326328E+01   3.54415359E+01   5.34851980E+00   3.90157051E+01   8.23367596E+00   9.63706017E+00
              553                1   1.99679840E+02   2.19126129E+02   2.19126129E+02   5.36341763E+00   3.74038162E+01   2.19126129E+02   2.19126129E+02   3.74038162E+01   5.36341763E+00   2.13762711E+02  -8.72977905E+01   1.93769577E+02   5.92359018E+00   2.18565964E+02   3.74038162E+01   1.09283514E+01
              553                2   1.98863510E+02   2.18744843E+02   2.18744843E+02   6.62484407E+00   3.65236855E+01   2.18744843E+02   2.18744843E+02   3.65236855E+01   6.62484407E+00   2.12119995E+02  -8.72977905E+01   1.93709808E+02   7.87982321E+00   2.17489868E+02   3.65236855E+01   1.62674809E+01
              553                3   1.98261459E+02   2.18475739E+02   2.18475739E+02   7.68047714E+00   3.57371559E+01   2.18475739E+02   2.18475739E+02   3.57371559E+01   7.68047714E+00   2.10795273E+02  -8.72977905E+01   1.93719559E+02   7.98353004E+00   2.18172684E+02   3.57371559E+01   7.98695850E+00
              553                4   1.97303940E+02   2.17995529E+02   2.17995529E+02   9.10928345E+00   3.47885513E+01   2.17995529E+02   2.17995529E+02   3.47885513E+01   9.10928345E+00   2.08886246E+02  -8.72977905E+01   1.93490723E+02   9.97349739E+00   2.17131317E+02   3.47885513E+01   1.34080248E+01
              554                1   7.89851532E+01   7.37414551E+01   7.37414551E+01  -4.66499376E+00  -5.80994797E+00   7.37414551E+01   7.37414551E+01  -4.66499376E+00  -5.80994797E+00   7.95514069E+01  -2.10888386E+01   7.89664764E+01   8.23130906E-01   6.82533340E+01  -5.80994797E+00   2.00046158E+01
              554                2   8.03170547E+01   7.46333389E+01   7.46333389E+01  -5.55688095E+00  -5.80994797E+00   7.46333389E+01   7.46333389E+01  -5.55688095E+00  -5.80994797E+00   8.04432907E+01  -2.10888386E+01   8.03161621E+01   3.45927924E-01   6.87305374E+01  -5.80994797E+00   2.09404907E+01
              554                3   7.75728226E+01   7.27898865E+01   7.27898865E+01  -3.71342611E+00  -5.80994797E+00   7.27898865E+01   7.27898865E+01  -3.71342611E+00  -5.80994797E+00   7.85998383E+01  -2.10888386E+01   7.75090485E+01   1.97143114E+00   6.71050339E+01  -5.80994797E+00   2.00647106E+01
              554                4   7.89202347E+01   7.36978531E+01   7.36978531E+01  -4.62138462E+00  -5.80994797E+00   7.36978531E+01   7.36978531E+01  -4.62138462E+00  -5.80994797E+00   7.95078049E+01  -2.10888405E+01   7.89000931E+01   1.47396505E+00   6.76025009E+01  -5.80994797E+00   2.09816608E+01
              555                1   9.04774551E+01   9.00748978E+01   9.00748978E+01  -9.73078132E-01   1.78961620E-01   9.00748978E+01   9.00748978E+01   1.78961620E-01  -9.73078132E-01   9.10479813E+01  -2.97602615E+01   9.04609528E+01   8.02609444E+00   8.10757294E+01   1.78961620E-01   2.71729870E+01
              555                2   8.92480774E+01   8.92586670E+01   8.92586670E+01  -1.56835988E-01   1.78961620E-01   8.92586670E+01   8.92586670E+01   1.78961620E-01  -1.56835988E-01   8.94155045E+01  -2.97602634E+01   8.92466507E+01   9.13360310E+00   7.99682236E+01   1.78961620E-01   2.72836437E+01
              555                3   8.94483414E+01   8.93918762E+01   8.93918762E+01  -2.90047675E-01   1.78961620E-01   8.93918762E+01   8.93918762E+01   1.78961620E-01  -2.90047675E-01   8.96819229E+01  -2.97602634E+01   8.94455719E+01   7.97203779E+00   8.11297913E+01   1.78961620E-01   2.59364166E+01
              555                4   8.81958542E+01   8.85571213E+01   8.85571213E+01   5.44709384E-01   1.78961620E-01   8.85571213E+01   8.85571213E+01   5.44709384E-01   1.78961620E-01   8.83781586E+01  -2.97602634E+01   8.81941452E+01   9.10362148E+00   7.99982071E+01   1.78961620E-01   2.60774918E+01
              556                1   3.93317032E+01   4.03224449E+01   4.03224449E+01   1.06015849E+00   9.21691298E-01   4.03224449E+01   4.03224449E+01   1.06015849E+00   9.21691298E-01   3.94007530E+01  -1.41014318E+01   3.93311539E+01   2.88029456E+00   3.85023079E+01   9.21691298E-01   8.25529003E+00
              556                2   3.91570778E+01   4.02057343E+01   4.02057343E+01   1.17686963E+00   9.21691298E-01   4.02057343E+01   4.02057343E+01   1.17686963E+00   9.21691298E-01   3.92840424E+01  -1.41014318E+01   3.91552048E+01   2.94457579E+00   3.84380264E+01   9.21691298E-01   8.11583614E+00
              556                3   3.94693222E+01   4.04142990E+01   4.04142990E+01   9.68303323E-01   9.21691298E-01   4.04142990E+01   4.04142990E+01   9.68303323E-01   9.21691298E-01   3.94926071E+01  -1.41014318E+01   3.94692612E+01   2.75201750E+00   3.86305847E+01   9.21691298E-01   8.19626522E+00
              556                4   3.92959633E+01   4.02985725E+01   4.02985725E+01   1.08403099E+00   9.21691298E-01   4.02985725E+01   4.02985725E+01   1.08403099E+00   9.21691298E-01   3.93768806E+01  -1.41014318E+01   3.92952080E+01   2.81578279E+00   3.85668182E+01   9.21691298E-01   8.05673313E+00
              557                1   9.87131271E+01   9.95560532E+01   9.95560532E+01   6.48299456E-01   1.03872061E+00   9.95560532E+01   9.95560532E+01   1.03872061E+00   6.48299456E-01   9.89077530E+01  -3.37476921E+01   9.87113876E+01   4.39567327E+00   9.58086777E+01   1.03872061E+00   1.88839016E+01
              557                2   9.84015961E+01   9.93486710E+01   9.93486710E+01   8.55681598E-01   1.03872061E+00   9.93486710E+01   9.93486710E+01   1.03872061E+00   8.55681598E-01   9.84929886E+01  -3.37476921E+01   9.84012146E+01   4.37048483E+00   9.58338699E+01   1.03872061E+00   1.82710018E+01
              557                3   9.95262833E+01   1.00096375E+02   1.00096375E+02   1.07982233E-01   1.03872061E+00   1.00096375E+02   1.00096375E+02   1.03872061E+00   1.07982233E-01   9.99883881E+01  -3.37476921E+01   9.95164948E+01   3.82139015E+00   9.63829651E+01   1.03872061E+00   1.89078846E+01
              557                4   9.92151489E+01   9.98898010E+01   9.98898010E+01   3.14551741E-01   1.03872061E+00   9.98898010E+01   9.98898010E+01   1.03872061E+00   3.14551741E-01   9.95752487E+01  -3.37476921E+01   9.92092056E+01   3.80100369E+00   9.64033508E+01   1.03872061E+00   1.83032475E+01
              558                1   8.69309769E+01   8.38172684E+01   8.38172684E+01  -3.00746751E+00  -3.21956301E+00   8.38172684E+01   8.38172684E+01  -3.00746751E+00  -3.21956301E+00   8.70368271E+01  -2.58634109E+01   8.69303970E+01   2.57286453E+00   7.82369385E+01  -3.21956301E+00   2.12924976E+01
              558                2   8.77501602E+01   8.43632050E+01   8.43632050E+01  -3.55339646E+00  -3.21956301E+00   8.43632050E+01   8.43632050E+01  -3.21956301E+00  -3.55339646E+00   8.79166031E+01  -2.58634129E+01   8.77487335E+01   2.50008059E+00   7.83097229E+01  -3.21956301E+00   2.22611046E+01
              558                3   8.57674561E+01   8.30388565E+01   8.30388565E+01  -2.22905016E+00  -3.21956301E+00   8.30388565E+01   8.30388565E+01  -2.22905016E+00  -3.21956301E+00   8.62584229E+01  -2.58634129E+01   8.57545853E+01   3.52942538E+00   7.72803802E+01  -3.21956301E+00   2.13975048E+01
              558                4   8.66047287E+01   8.35993652E+01   8.35993652E+01  -2.78955889E+00  -3.21956301E+00   8.35993652E+01   8.35993652E+01  -2.78955889E+00  -3.21956301E+00   8.68189316E+01  -2.58634129E+01   8.66023254E+01   3.42803955E+00   7.73817673E+01  -3.21956301E+00   2.23265114E+01
              559                1   1.36182541E+02   1.60489365E+02   1.60489365E+02   2.12956753E+01   2.75322647E+01   1.60489365E+02   1.60489365E+02   2.75322647E+01   2.12956753E+01   1.39193680E+02  -6.97724304E+01   1.35860687E+02   2.62392597E+01   1.55545776E+02   2.75322647E+01   2.57619190E+01
              559                2   1.37068970E+02   1.61067017E+02   1.61067017E+02   2.07180176E+01   2.75322647E+01   1.61067017E+02   1.61067017E+02   2.75322647E+01   2.07180176E+01   1.40348999E+02  -6.97724304E+01   1.36687103E+02   2.50583553E+01   1.56726685E+02   2.75322647E+01   2.42965603E+01
              559                3   1.38606659E+02   1.62066681E+02   1.62066681E+02   1.97183590E+01   2.75322647E+01   1.62066681E+02   1.62066681E+02   2.75322647E+01   1.97183590E+01   1.42348312E+02  -6.97724304E+01   1.38109802E+02   2.53960228E+01   1.56389008E+02   2.75322647E+01   2.78562450E+01
              559                4   1.39447571E+02   1.62612122E+02   1.62612122E+02   1.91729183E+01   2.75322647E+01   1.62612122E+02   1.62612122E+02   2.75322647E+01   1.91729183E+01   1.43439194E+02  -6.97724304E+01   1.38882172E+02   2.41104774E+01   1.57674561E+02   2.75322647E+01   2.61507072E+01
              560                1   2.05107346E+02   1.98919144E+02   1.98919144E+02  -9.07833385E+00  -3.17041111E+00   1.98919144E+02   1.98919144E+02  -3.17041111E+00  -9.07833385E+00   2.07997467E+02  -6.22234650E+01   2.04915756E+02  -8.94367123E+00   1.98784470E+02  -3.17041111E+00   5.29082489E+00
              560                2   2.05844269E+02   1.99376282E+02   1.99376282E+02  -1.03258314E+01  -2.38005948E+00   1.99376282E+02   1.99376282E+02  -2.38005948E+00  -1.03258314E+01   2.09702103E+02  -6.22234612E+01   2.05498810E+02  -1.02567015E+01   1.99307144E+02  -2.38005948E+00   3.80691624E+00
              560                3   2.05484116E+02   1.99145615E+02   1.99145615E+02  -9.95478821E+00  -2.52045035E+00   1.99145615E+02   1.99145615E+02  -2.52045035E+00  -9.95478821E+00   2.09100403E+02  -6.22234612E+01   2.05181198E+02  -9.67773151E+00   1.98868561E+02  -2.52045035E+00   7.60626507E+00
              560                4   2.06203766E+02   1.99585220E+02   1.99585220E+02  -1.11628838E+01  -1.75195384E+00   1.99585220E+02   1.99585220E+02  -1.75195384E+00  -1.11628838E+01   2.10748093E+02  -6.22234612E+01   2.05719742E+02  -1.09875317E+01   1.99409866E+02  -1.75195384E+00   6.07650328E+00
              561                1   3.95689087E+01   3.44203110E+01   3.44203110E+01  -1.55024207E+00  -7.96349382E+00   3.44203110E+01   3.44203110E+01  -1.55024207E+00  -7.96349382E+00   4.23838043E+01  -8.30219173E+00   3.83734207E+01   1.20398026E+01   2.08302650E+01  -7.96349382E+00   1.74399567E+01
              561                2   3.94351692E+01   3.43221283E+01   3.43221283E+01  -1.45206070E+00  -7.96349382E+00   3.43221283E+01   3.43221283E+01  -1.45206070E+00  -7.96349382E+00   4.22856216E+01  -8.30219173E+00   3.81975441E+01   1.23442736E+01   2.05257931E+01  -7.96349382E+00   1.74130363E+01
              561                3   3.92036247E+01   3.41516533E+01   3.41516533E+01  -1.28158665E+00  -7.96349382E+00   3.41516533E+01   3.41516533E+01  -1.28158665E+00  -7.96349382E+00   4.21151466E+01  -8.30219173E+00   3.78905983E+01   1.19830599E+01   2.08870068E+01  -7.96349382E+00   1.71481361E+01
              561                4   3.90662270E+01   3.40501976E+01   3.40501976E+01  -1.18012917E+00  -7.96349382E+00   3.40501976E+01   3.40501976E+01  -1.18012917E+00  -7.96349382E+00   4.20136909E+01  -8.30219173E+00   3.77069511E+01   1.23054857E+01   2.05645809E+01  -7.96349382E+00   1.71242752E+01
              562                1   2.05434113E+02   2.29151184E+02   2.29151184E+02   5.81539345E+00   4.82444420E+01   2.29151184E+02   2.29151184E+02   4.82444420E+01   5.81539345E+00   2.23335800E+02  -9.44036789E+01   1.95207489E+02   6.47478247E+00   2.28491806E+02   4.82444420E+01   1.21173096E+01
              562                2   2.04828705E+02   2.28918594E+02   2.28918594E+02   6.79343843E+00   4.74990120E+01   2.28918594E+02   2.28918594E+02   4.74990120E+01   6.79343843E+00   2.22125153E+02  -9.44036865E+01   1.95415207E+02   8.19655609E+00   2.27515472E+02   4.74990120E+01   1.75983143E+01
              562                3   2.04237701E+02   2.28746231E+02   2.28746231E+02   8.03854084E+00   4.64262505E+01   2.28746231E+02   2.28746231E+02   4.64262505E+01   8.03854084E+00   2.20707687E+02  -9.44036789E+01   1.95872849E+02   8.45137405E+00   2.28333405E+02   4.64262505E+01   9.53646851E+00
              562                4   2.03595581E+02   2.28488327E+02   2.28488327E+02   9.11209583E+00   4.56106110E+01   2.28488327E+02   2.28488327E+02   4.56106110E+01   9.11209583E+00   2.19376221E+02  -9.44036789E+01   1.96031433E+02   1.01619320E+01   2.27438492E+02   4.56106110E+01   1.51395416E+01
              563                1   2.11550385E+02   2.13185867E+02   2.13185867E+02  -2.35119629E+00   5.86135340E+00   2.13185867E+02   2.13185867E+02   5.86135340E+00  -2.35119629E+00   2.15537064E+02  -7.22320099E+01   2.11191269E+02  -2.30384731E+00   2.13138519E+02   5.86135340E+00   3.19421458E+00
              563                2   2.12057510E+02   2.13497513E+02   2.13497513E+02  -3.14470148E+00   6.34321928E+00   2.13497513E+02   2.13497513E+02   6.34321928E+00  -3.14470148E+00   2.16642212E+02  -7.22320099E+01   2.11579163E+02  -3.11433482E+00   2.13467148E+02   6.34321928E+00   2.56474948E+00
              563                3   2.11665039E+02   2.13246704E+02   2.13246704E+02  -2.76644135E+00   6.21576357E+00   2.13246704E+02   2.13246704E+02   6.21576357E+00  -2.76644135E+00   2.16013153E+02  -7.22320099E+01   2.11235596E+02  -2.66207910E+00   2.13142349E+02   6.21576357E+00   4.74687004E+00
              563                4   2.12161606E+02   2.13549881E+02   2.13549881E+02  -3.53815246E+00   6.68429995E+00   2.13549881E+02   2.13549881E+02   6.68429995E+00  -3.53815246E+00   2.17088043E+02  -7.22320099E+01   2.11606445E+02  -3.46026969E+00   2.13472000E+02   6.68429995E+00   4.11121988E+00
              564                1   1.43050568E+02   1.68118896E+02   1.68118896E+02   2.09619160E+01   2.95628376E+01   1.68118896E+02   1.68118896E+02   2.95628376E+01   2.09619160E+01   1.47156982E+02  -7.28812180E+01   1.42467087E+02   2.50103321E+01   1.64070480E+02   2.95628376E+01   2.40699539E+01
              564                2   1.42236526E+02   1.67590942E+02   1.67590942E+02   2.14898777E+01   2.95628376E+01   1.67590942E+02   1.67590942E+02   2.95628376E+01   2.14898777E+01   1.46101074E+02  -7.28812180E+01   1.41719681E+02   2.62354393E+01   1.62845383E+02   2.95628376E+01   2.59000340E+01
              564                3   1.40545822E+02   1.66491882E+02   1.66491882E+02   2.25889282E+01   2.95628376E+01   1.66491882E+02   1.66491882E+02   2.95628376E+01   2.25889282E+01   1.43902954E+02  -7.28812180E+01   1.40155746E+02   2.61333542E+01   1.62947464E+02   2.95628376E+01   2.23044720E+01
              564                4   1.39699173E+02   1.65940170E+02   1.65940170E+02   2.31406612E+01   2.95628376E+01   1.65940170E+02   1.65940170E+02   2.95628376E+01   2.31406612E+01   1.42799500E+02  -7.28812180E+01   1.39366455E+02   2.73073540E+01   1.61773468E+02   2.95628376E+01   2.40341587E+01
              565                1   1.99667625E+01   1.17357683E+01   1.17357683E+01   1.41634747E-01  -1.13197365E+01   1.17357683E+01   1.17357683E+01   1.41634747E-01  -1.13197365E+01   2.30555058E+01  -1.85888931E-01   4.29791498E+00   4.66533947E+00   7.21206331E+00  -1.13197365E+01   5.65548706E+00
              565                2   1.97726212E+01   1.15095434E+01   1.15095434E+01   3.67859542E-01  -1.13197365E+01   1.15095434E+01   1.15095434E+01   3.67859542E-01  -1.13197365E+01   2.28292809E+01  -1.85888931E-01  -6.84033680E+00   5.24118662E+00   6.63621616E+00  -1.13197365E+01   5.52700233E+00
              565                3   1.96784420E+01   1.13972549E+01   1.13972549E+01   4.80148435E-01  -1.13197365E+01   1.13972549E+01   1.13972549E+01   4.80148435E-01  -1.13197365E+01   2.27169914E+01  -1.85888931E-01  -8.00222969E+00   4.32153273E+00   7.55587053E+00  -1.13197365E+01   5.21349859E+00
              565                4   1.94093742E+01   1.10660830E+01   1.10660830E+01   8.11320186E-01  -1.13197365E+01   1.10660830E+01  -1.13197365E+01   8.11320186E-01  -1.13197365E+01   2.23858204E+01  -1.85888931E-01  -1.01863852E+01   5.06415033E+00   6.81325293E+00  -1.13197365E+01   5.05224705E+00
              566                1   4.88540535E+01   4.66390076E+01   4.66390076E+01  -7.87542537E-02  -4.10246944E+00   4.66390076E+01   4.66390076E+01  -7.87542537E-02  -4.10246944E+00   5.07414780E+01  -1.41525946E+01   4.84791489E+01   1.85774097E+01   2.79828434E+01  -4.10246944E+00   2.28805981E+01
              566                2   4.86830711E+01   4.65197105E+01   4.65197105E+01   4.05423678E-02  -4.10246944E+00   4.65197105E+01   4.65197105E+01   4.05423678E-02  -4.10246944E+00   5.06221809E+01  -1.41525946E+01   4.82840614E+01   1.84932022E+01   2.80670509E+01  -4.10246944E+00   2.27412319E+01
              566                3   4.90725517E+01   4.67911797E+01   4.67911797E+01  -2.30926692E-01  -4.10246944E+00   4.67911797E+01   4.67911797E+01  -2.30926692E-01  -4.10246944E+00   5.08936501E+01  -1.41525946E+01   4.87271767E+01   1.84084339E+01   2.81518192E+01  -4.10246944E+00   2.30007877E+01
              566                4   4.88353806E+01   4.66259880E+01   4.66259880E+01  -6.57362789E-02  -4.10246944E+00   4.66259880E+01   4.66259880E+01  -6.57362789E-02  -4.10246944E+00   5.07284584E+01  -1.41525946E+01   4.84578896E+01   1.83533974E+01   2.82068558E+01  -4.10246944E+00   2.28200932E+01
              567                1   1.98067535E+02   2.05607513E+02   2.05607513E+02  -2.68252635E+00   1.96566639E+01   2.05607513E+02   2.05607513E+02   1.96566639E+01  -2.68252635E+00   2.08290039E+02  -7.41938858E+01   1.95203125E+02  -2.62465882E+00   2.05549652E+02   1.96566639E+01   3.47113204E+00
              567                2   1.95972549E+02   2.04343292E+02   2.04343292E+02  -7.59824753E-01   1.89981709E+01   2.04343292E+02   2.04343292E+02   1.89981709E+01  -7.59824753E-01   2.05103119E+02  -7.41938782E+01   1.93712723E+02  -4.98650402E-01   2.04082123E+02   1.89981709E+01   7.31423712E+00
              567                3   1.96714935E+02   2.04838242E+02   2.04838242E+02  -1.02580070E+00   1.87692146E+01   2.04838242E+02   2.04838242E+02   1.87692146E+01  -1.02580070E+00   2.05864044E+02  -7.41938858E+01   1.94455261E+02  -1.02459562E+00   2.04837036E+02   1.87692146E+01  -4.97763038E-01
              567                4   1.94292145E+02   2.03354233E+02   2.03354233E+02   1.16686940E+00   1.80605412E+01   2.03354233E+02   2.03354233E+02   1.80605412E+01   1.16686940E+00   2.02187363E+02  -7.41938858E+01   1.92629349E+02   1.25135005E+00   2.03269760E+02   1.80605412E+01   4.13186550E+00
              568                1   1.62634872E+02   1.85398712E+02   1.85398712E+02   2.00034275E+01   2.56725006E+01   1.85398712E+02   1.85398712E+02   2.56725006E+01   2.00034275E+01   1.65395294E+02  -7.70248795E+01   1.62412338E+02   2.09947758E+01   1.84407364E+02   2.56725006E+01   1.27664566E+01
              568                2   1.59702621E+02   1.83471375E+02   1.83471375E+02   2.19307690E+01   2.56725006E+01   1.83471375E+02   1.83471375E+02   2.56725006E+01   2.19307690E+01   1.61540604E+02  -7.70248795E+01   1.59603958E+02   2.27839813E+01   1.82618164E+02   2.56725006E+01   1.17089958E+01
              568                3   1.64009842E+02   1.86298965E+02   1.86298965E+02   1.91031742E+01   2.56725006E+01   1.86298965E+02   1.86298965E+02   2.56725006E+01   1.91031742E+01   1.67195801E+02  -7.70248795E+01   1.63713425E+02   1.98457432E+01   1.85556396E+02   2.56725006E+01   1.11177244E+01
              568                4   1.61174820E+02   1.84440338E+02   1.84440338E+02   2.09618092E+01   2.56725006E+01   1.84440338E+02   1.84440338E+02   2.56725006E+01   2.09618092E+01   1.63478531E+02  -7.70248795E+01   1.61019821E+02   2.15631504E+01   1.83838989E+02   2.56725006E+01   9.89675045E+00
              569                1   6.70447693E+01   6.46663437E+01   6.46663437E+01  -1.22072911E+00  -3.47905207E+00   6.46663437E+01   6.46663437E+01  -1.22072911E+00  -3.47905207E+00   6.81453934E+01  -1.99888535E+01   6.69591141E+01   1.28724022E+01   5.05732117E+01  -3.47905207E+00   2.70173798E+01
              569                2   6.72929535E+01   6.48345871E+01   6.48345871E+01  -1.38897860E+00  -3.47905207E+00   6.48345871E+01   6.48345871E+01  -1.38897860E+00  -3.47905207E+00   6.83136444E+01  -1.99888515E+01   6.72198639E+01   1.24217777E+01   5.10238342E+01  -3.47905207E+00   2.69046555E+01
              569                3   6.76977310E+01   6.51084900E+01   6.51084900E+01  -1.66287673E+00  -3.47905207E+00   6.51084900E+01   6.51084900E+01  -1.66287673E+00  -3.47905207E+00   6.85875397E+01  -1.99888535E+01   6.76428833E+01   1.27755232E+01   5.06700897E+01  -3.47905207E+00   2.74882584E+01
              569                4   6.79225998E+01   6.52603912E+01   6.52603912E+01  -1.81477916E+00  -3.47905207E+00   6.52603912E+01   6.52603912E+01  -1.81477916E+00  -3.47905207E+00   6.87394409E+01  -1.99888515E+01   6.78767014E+01   1.23263950E+01   5.11192169E+01  -3.47905207E+00   2.73596191E+01
              570                1   1.73463409E+02   2.00954010E+02   2.00954010E+02   2.34609184E+01   3.18227253E+01   2.00954010E+02   2.00954010E+02   3.18227253E+01   2.34609184E+01   1.77493088E+02  -8.54125595E+01   1.73009079E+02   2.51134319E+01   1.99301498E+02   3.18227253E+01   1.70463829E+01
              570                2   1.76933319E+02   2.03208725E+02   2.03208725E+02   2.12062035E+01   3.18227253E+01   2.03208725E+02   2.03208725E+02   3.18227253E+01   2.12062035E+01   1.82002533E+02  -8.54125595E+01   1.76214539E+02   2.30685062E+01   2.01346420E+02   3.18227253E+01   1.83160229E+01
              570                3   1.72271988E+02   2.00177017E+02   2.00177017E+02   2.42379074E+01   3.18227253E+01   2.00177017E+02   2.00177017E+02   3.18227253E+01   2.42379074E+01   1.75939117E+02  -8.54125595E+01   1.71895676E+02   2.63275394E+01   1.98087387E+02   3.18227253E+01   1.90599651E+01
              570                4   1.75803864E+02   2.02476120E+02   2.02476120E+02   2.19388065E+01   3.18227253E+01   2.02476120E+02   2.02476120E+02   3.18227253E+01   2.19388065E+01   1.80537323E+02  -8.54125595E+01   1.75177094E+02   2.42508602E+01   2.00164078E+02   3.18227253E+01   2.02993946E+01
              571                1   3.94919167E+01   4.61262398E+01   4.61262398E+01   6.67989302E+00   6.58891439E+00   4.61262398E+01   4.61262398E+01   6.67989302E+00   6.58891439E+00   3.95373268E+01  -1.97983494E+01   3.94916801E+01   6.91656113E+00   4.58895721E+01   6.58891439E+00   3.04625750E+00
              571                2   3.95345078E+01   4.61546631E+01   4.61546631E+01   6.65146971E+00   6.58891439E+00   4.61546631E+01   4.61546631E+01   6.65146971E+00   6.58891439E+00   3.95657501E+01  -1.97983494E+01   3.95343971E+01   6.85241795E+00   4.59537163E+01   6.58891439E+00   2.81027961E+00
              571                3   3.98749962E+01   4.63815117E+01   4.63815117E+01   6.42462301E+00   6.58891439E+00   4.63815117E+01   4.63815117E+01   6.58891439E+00   6.42462301E+00   3.99568863E+01  -1.97983494E+01   3.98742332E+01   6.66816950E+00   4.61379623E+01   6.58891439E+00   3.11000109E+00
              571                4   3.99170609E+01   4.64094925E+01   4.64094925E+01   6.39664125E+00   6.58891439E+00   4.64094925E+01   4.64094925E+01   6.58891439E+00   6.39664125E+00   4.00128517E+01  -1.97983494E+01   3.99160194E+01   6.60434341E+00   4.62017899E+01   6.58891439E+00   2.87534618E+00
              572                1   8.42849960E+01   7.93468246E+01   7.93468246E+01  -4.55354977E+00  -5.31759739E+00   7.93468246E+01   7.93468246E+01  -4.55354977E+00  -5.31759739E+00   8.46644211E+01  -2.31585598E+01   8.42771988E+01  -4.84198958E-01   7.52774734E+01  -5.31759739E+00   1.80238838E+01
              572                2   8.37133331E+01   7.89635162E+01   7.89635162E+01  -4.17024136E+00  -5.31759739E+00   7.89635162E+01   7.89635162E+01  -4.17024136E+00  -5.31759739E+00   8.42811127E+01  -2.31585598E+01   8.36956406E+01  -4.09855992E-01   7.52031326E+01  -5.31759739E+00   1.72764072E+01
              572                3   8.54192810E+01   8.01047440E+01   8.01047440E+01  -5.31147337E+00  -5.31759739E+00   8.01047440E+01   8.01047440E+01  -5.31147337E+00  -5.31759739E+00   8.54223480E+01  -2.31585598E+01   8.54192810E+01  -1.26375663E+00   7.60570297E+01  -5.31759739E+00   1.81481876E+01
              572                4   8.48744049E+01   7.97410965E+01   7.97410965E+01  -4.94782114E+00  -5.31759739E+00   7.97410965E+01   7.97410965E+01  -4.94782114E+00  -5.31759739E+00   8.50586929E+01  -2.31585598E+01   8.48725967E+01  -1.22989333E+00   7.60231705E+01  -5.31759739E+00   1.73506203E+01
              573                1   9.15442352E+01   9.38740158E+01   9.38740158E+01   1.30889189E+00   3.38601995E+00   9.38740158E+01   9.38740158E+01   3.38601995E+00   1.30889189E+00   9.25651245E+01  -3.28563080E+01   9.14911957E+01   1.44483185E+01   8.07345886E+01   3.38601995E+00   3.23049240E+01
              573                2   8.96321182E+01   9.26092148E+01   9.26092148E+01   2.57369304E+00   3.38601995E+00   9.26092148E+01   9.26092148E+01   3.38601995E+00   2.57369304E+00   9.00355225E+01  -3.28563080E+01   8.96238403E+01   1.56965017E+01   7.94864044E+01   3.38601995E+00   3.17696533E+01
              573                3   9.06184616E+01   9.32626877E+01   9.32626877E+01   1.92022073E+00   3.38601995E+00   9.32626877E+01   9.32626877E+01   3.38601995E+00   1.92022073E+00   9.13424683E+01  -3.28563080E+01   9.05917816E+01   1.38754616E+01   8.13074417E+01   3.38601995E+00   3.08073635E+01
              573                4   8.89849472E+01   9.21791916E+01   9.21791916E+01   3.00371170E+00   3.38601995E+00   9.21791916E+01   9.21791916E+01   3.38601995E+00   3.00371170E+00   8.91754837E+01  -3.28563080E+01   8.89831009E+01   1.50199337E+01   8.01629715E+01   3.38601995E+00   3.04493504E+01
              574                1   5.05463295E+01   4.36227379E+01   4.36227379E+01  -3.88537192E+00  -9.49398136E+00   4.36227379E+01   4.36227379E+01  -3.88537192E+00  -9.49398136E+00   5.31167183E+01  -1.00811281E+01   4.98390579E+01   2.50509405E+00   3.72322731E+01  -9.49398136E+00   1.62098999E+01
              574                2   4.99867363E+01   4.32246819E+01   4.32246819E+01  -3.48731065E+00  -9.49398136E+00   4.32246819E+01   4.32246819E+01  -3.48731065E+00  -9.49398136E+00   5.27186623E+01  -1.00811300E+01   4.91649551E+01   2.36682010E+00   3.73705482E+01  -9.49398136E+00   1.54656811E+01
              574                3   5.14368362E+01   4.42516136E+01   4.42516136E+01  -4.51424932E+00  -9.49398136E+00   4.42516136E+01   4.42516136E+01  -4.51424932E+00  -9.49398136E+00   5.37455978E+01  -1.00811281E+01   5.08902779E+01   1.77306736E+00   3.79642982E+01  -9.49398136E+00   1.63424625E+01
              574                4   5.08441772E+01   4.38336868E+01   4.38336868E+01  -4.09632158E+00  -9.49398136E+00   4.38336868E+01   4.38336868E+01  -4.09632158E+00  -9.49398136E+00   5.33276672E+01  -1.00811281E+01   5.01935120E+01   1.64439857E+00   3.80929680E+01  -9.49398136E+00   1.55626755E+01
              575                1   1.21269608E+01   8.22306931E-01   8.22306931E-01   1.88532040E-01  -1.16091137E+01   8.22306931E-01  -1.16091137E+01   1.88532040E-01  -1.16091137E+01   1.24314203E+01   3.53275800E+00  -1.20896158E+01   6.55527532E-01   3.55311424E-01  -1.16091137E+01  -2.79079258E-01
              575                2   1.21228676E+01   7.64907777E-01   7.64907777E-01   2.45931193E-01  -1.16091137E+01   7.64907777E-01  -1.16091137E+01   2.45931193E-01  -1.16091137E+01   1.23740215E+01   3.53275800E+00  -1.20978365E+01   7.32487857E-01   2.78351098E-01  -1.16091137E+01  -1.25595108E-01
              575                3   1.21421375E+01   9.77853894E-01   9.77853894E-01   3.29850987E-02  -1.16091137E+01   9.77853894E-01  -1.16091137E+01   3.29850987E-02  -1.16091137E+01   1.25869675E+01   3.53275800E+00  -1.20590086E+01   8.01768064E-01   2.09070906E-01  -1.16091137E+01  -3.67929041E-01
              575                4   1.21372766E+01   9.34200585E-01   9.34200585E-01   7.66383708E-02  -1.16091137E+01   9.34200585E-01  -1.16091137E+01   7.66383708E-02  -1.16091137E+01   1.25433140E+01   3.53275800E+00  -1.20688324E+01   8.77227724E-01   1.33611277E-01  -1.16091137E+01  -2.13569403E-01
              576                1   8.25426712E+01   7.78183517E+01   7.78183517E+01  -4.30568123E+00  -5.13668251E+00   7.78183517E+01   7.78183517E+01  -4.30568123E+00  -5.13668251E+00   8.29550323E+01  -2.27919979E+01   8.25332565E+01   1.11649954E+00   7.23961716E+01  -5.13668251E+00   2.03934155E+01
              576                2   8.12328033E+01   7.69381866E+01   7.69381866E+01  -3.42551470E+00  -5.13668251E+00   7.69381866E+01   7.69381866E+01  -3.42551470E+00  -5.13668251E+00   8.20748672E+01  -2.27919979E+01   8.11922379E+01   1.60858810E+00   7.19040833E+01  -5.13668251E+00   1.94734955E+01
              576                3   8.39843063E+01   7.87814865E+01   7.87814865E+01  -5.26881075E+00  -5.13668251E+00   7.87814865E+01   7.87814865E+01  -5.13668251E+00  -5.26881075E+00   8.40502930E+01  -2.27919979E+01   8.39840775E+01   1.61243957E-02   7.34965515E+01  -5.13668251E+00   2.04026852E+01
              576                4   8.25743332E+01   7.78395691E+01   7.78395691E+01  -4.32689619E+00  -5.13668251E+00   7.78395691E+01   7.78395691E+01  -4.32689619E+00  -5.13668251E+00   8.29762497E+01  -2.27919979E+01   8.25653992E+01   5.82407355E-01   7.29302673E+01  -5.13668251E+00   1.94750786E+01
              577                1   6.10861626E+01   5.80675316E+01   5.80675316E+01  -1.84666479E+00  -4.12674999E+00   5.80675316E+01   5.80675316E+01  -1.84666479E+00  -4.12674999E+00   6.21942825E+01  -1.73647060E+01   6.09903107E+01   1.44261961E+01   4.17946701E+01  -4.12674999E+00   2.66490040E+01
              577                2   5.97977295E+01   5.71881027E+01   5.71881027E+01  -9.67235029E-01  -4.12674999E+00   5.71881027E+01   5.71881027E+01  -9.67235029E-01  -4.12674999E+00   6.13148537E+01  -1.73647060E+01   5.96094971E+01   1.48624563E+01   4.13584099E+01  -4.12674999E+00   2.58843956E+01
              577                3   6.10499840E+01   5.80429382E+01   5.80429382E+01  -1.82207477E+00  -4.12674999E+00   5.80429382E+01   5.80429382E+01  -1.82207477E+00  -4.12674999E+00   6.21696892E+01  -1.73647041E+01   6.09519958E+01   1.36729813E+01   4.25478821E+01  -4.12674999E+00   2.62205067E+01
              577                4   5.95544739E+01   5.70212135E+01   5.70212135E+01  -8.00348461E-01  -4.12674999E+00   5.70212135E+01   5.70212135E+01  -8.00348461E-01  -4.12674999E+00   6.11479607E+01  -1.73647041E+01   5.93449249E+01   1.44178562E+01   4.18030090E+01  -4.12674999E+00   2.54626503E+01
              578                1   5.64296379E+01   5.32587357E+01   5.32587357E+01  -1.98757803E+00  -4.28410959E+00   5.32587357E+01   5.32587357E+01  -1.98757803E+00  -4.28410959E+00   5.75428429E+01  -1.56623487E+01   5.63243523E+01   1.61927242E+01   3.50784340E+01  -4.28410959E+00   2.59590302E+01
              578                2   5.35593872E+01   5.12833214E+01   5.12833214E+01  -1.21637322E-02  -4.28410959E+00   5.12833214E+01   5.12833214E+01  -1.21637322E-02  -4.28410959E+00   5.55674286E+01  -1.56623487E+01   5.31740608E+01   1.81642666E+01   3.31068916E+01  -4.28410959E+00   2.45354061E+01
              578                3   5.57924080E+01   5.28238411E+01   5.28238411E+01  -1.55268574E+00  -4.28410959E+00   5.28238411E+01   5.28238411E+01  -1.55268574E+00  -4.28410959E+00   5.71079521E+01  -1.56623487E+01   5.56416779E+01   1.47613602E+01   3.65097961E+01  -4.28410959E+00   2.49189301E+01
              578                4   5.31401749E+01   5.09909859E+01   5.09909859E+01   2.80168533E-01  -4.28410959E+00   5.09909859E+01   5.09909859E+01   2.80168533E-01  -4.28410959E+00   5.52750969E+01  -1.56623487E+01   5.26964645E+01   1.63724575E+01   3.48987007E+01  -4.28410959E+00   2.36027832E+01
              579                1   3.42639427E+01   2.84987984E+01   2.84987984E+01  -1.22289264E+00  -8.97804832E+00   2.84987984E+01   2.84987984E+01  -1.22289264E+00  -8.97804832E+00   3.74768448E+01  -6.09928560E+00   3.21992493E+01   1.05576649E+01   1.67182407E+01  -8.97804832E+00   1.45381069E+01
              579                2   3.41459694E+01   2.84080105E+01   2.84080105E+01  -1.13210404E+00  -8.97804832E+00   2.84080105E+01   2.84080105E+01  -1.13210404E+00  -8.97804832E+00   3.73860588E+01  -6.09928560E+00   3.20222321E+01   1.05726204E+01   1.67032852E+01  -8.97804832E+00   1.44484711E+01
              579                3   3.42686577E+01   2.85024242E+01   2.85024242E+01  -1.22651827E+00  -8.97804832E+00   2.85024242E+01   2.85024242E+01  -1.22651827E+00  -8.97804832E+00   3.74804726E+01  -6.09928560E+00   3.22062988E+01   1.04680815E+01   1.68078232E+01  -8.97804832E+00   1.45225487E+01
              579                4   3.41525345E+01   2.84130688E+01   2.84130688E+01  -1.13716364E+00  -8.97804832E+00   2.84130688E+01   2.84130688E+01  -1.13716364E+00  -8.97804832E+00   3.73911171E+01  -6.09928560E+00   3.20321198E+01   1.04804544E+01   1.67954502E+01  -8.97804832E+00   1.44337893E+01
              580                1   1.92612473E+02   1.97189209E+02   1.97189209E+02  -2.77823639E+00   1.28886719E+01   1.97189209E+02   1.97189209E+02   1.28886719E+01  -2.77823639E+00   1.99967453E+02  -6.90998840E+01   1.91171051E+02  -2.70280170E+00   1.97113785E+02   1.28886719E+01   3.88306737E+00
              580                2   1.91158997E+02   1.96294846E+02   1.96294846E+02  -1.32909513E+00   1.23339128E+01   1.96294846E+02   1.96294846E+02   1.23339128E+01  -1.32909513E+00   1.97623932E+02  -6.90998840E+01   1.90055771E+02  -1.29920769E+00   1.96264954E+02   1.23339128E+01   2.43006325E+00
              580                3   1.94000275E+02   1.98026855E+02   1.98026855E+02  -4.23747540E+00   1.35102730E+01   1.98026855E+02   1.98026855E+02   1.35102730E+01  -4.23747540E+00   2.02264328E+02  -6.90998840E+01   1.92161118E+02  -4.22024584E+00   1.98009628E+02   1.35102730E+01   1.86674094E+00
              580                4   1.92257263E+02   1.96966751E+02   1.96966751E+02  -2.48217583E+00   1.28150787E+01   1.96966751E+02   1.96966751E+02   1.28150787E+01  -2.48217583E+00   1.99448929E+02  -6.90998840E+01   1.90880859E+02  -2.48158002E+00   1.96966156E+02   1.28150787E+01   3.43959242E-01
              581                1   2.05572372E+02   2.00254944E+02   2.00254944E+02  -9.03155613E+00  -1.39022207E+00   2.00254944E+02   2.00254944E+02  -1.39022207E+00  -9.03155613E+00   2.09286499E+02  -6.32777214E+01   2.05252487E+02  -8.86680508E+00   2.00090195E+02  -1.39022207E+00   5.86964798E+00
              581                2   2.04624908E+02   1.99648422E+02   1.99648422E+02  -7.97207642E+00  -1.84318340E+00   1.99648422E+02   1.99648422E+02  -1.84318340E+00  -7.97207642E+00   2.07620499E+02  -6.32777214E+01   2.04418243E+02  -7.74918699E+00   1.99425537E+02  -1.84318340E+00   6.79896212E+00
              581                3   2.05230225E+02   2.00042419E+02   2.00042419E+02  -8.47763729E+00  -1.73161685E+00   2.00042419E+02   2.00042419E+02  -1.73161685E+00  -8.47763729E+00   2.08520065E+02  -6.32777252E+01   2.04980530E+02  -8.39658070E+00   1.99961365E+02  -1.73161685E+00   4.11052036E+00
              581                4   2.04264664E+02   1.99421082E+02   1.99421082E+02  -7.39362764E+00  -2.19429111E+00   1.99421082E+02   1.99421082E+02  -2.19429111E+00  -7.39362764E+00   2.06814713E+02  -6.32777214E+01   2.04115707E+02  -7.27119017E+00   1.99298645E+02  -2.19429111E+00   5.03050661E+00
              582                1   6.31423187E+01   5.72873039E+01   5.72873039E+01  -3.79899740E+00  -7.72757483E+00   5.72873039E+01   5.72873039E+01  -3.79899740E+00  -7.72757483E+00   6.50148773E+01  -1.52535782E+01   6.28664665E+01   3.96178746E+00   4.95265198E+01  -7.72757483E+00   2.03432522E+01
              582                2   6.41609268E+01   5.79868813E+01   5.79868813E+01  -4.49857855E+00  -7.72757483E+00   5.79868813E+01   5.79868813E+01  -4.49857855E+00  -7.72757483E+00   6.57144547E+01  -1.52535772E+01   6.39777298E+01   2.99663901E+00   5.04916649E+01  -7.72757483E+00   2.03018188E+01
              582                3   6.40859146E+01   5.79355202E+01   5.79355202E+01  -4.44721317E+00  -7.72757483E+00   5.79355202E+01   5.79355202E+01  -4.44721317E+00  -7.72757483E+00   6.56630936E+01  -1.52535782E+01   6.38966064E+01   3.92758465E+00   4.95607224E+01  -7.72757483E+00   2.12674770E+01
              582                4   6.50874939E+01   5.86193352E+01   5.86193352E+01  -5.13102579E+00  -7.72757483E+00   5.86193352E+01   5.86193352E+01  -5.13102579E+00  -7.72757483E+00   6.63469086E+01  -1.52535782E+01   6.49708023E+01   2.87356448E+00   5.06147423E+01  -7.72757483E+00   2.11239700E+01
              583                1   1.93289185E+02   2.16681274E+02   2.16681274E+02   1.10169611E+01   3.87668533E+01   2.16681274E+02   2.16681274E+02   3.87668533E+01   1.10169611E+01   2.05664322E+02  -8.88216934E+01   1.88729477E+02   2.67551346E+01   2.00943100E+02   3.87668533E+01   5.46725883E+01
              583                2   1.93912491E+02   2.16789642E+02   2.16789642E+02   8.95779610E+00   4.07176514E+01   2.16789642E+02   2.16789642E+02   4.07176514E+01   8.95779610E+00   2.07831848E+02  -8.88216934E+01   1.87926926E+02   2.60401764E+01   1.99707260E+02   4.07176514E+01   5.70828781E+01
              583                3   1.92764465E+02   2.16494965E+02   2.16494965E+02   1.23083391E+01   3.76617737E+01   2.16494965E+02   2.16494965E+02   3.76617737E+01   1.23083391E+01   2.04186615E+02  -8.88216934E+01   1.88958710E+02   3.08313961E+01   1.97971909E+02   3.76617737E+01   5.86434631E+01
              583                4   1.93389282E+02   2.16612030E+02   2.16612030E+02   1.01381731E+01   3.97148819E+01   2.16612030E+02   2.16612030E+02   3.97148819E+01   1.01381731E+01   2.06473846E+02  -8.88216934E+01   1.88199768E+02   3.00567074E+01   1.96693497E+02   3.97148819E+01   6.09582443E+01
              584                1   1.15839447E+02   1.27505219E+02   1.27505219E+02   6.80985928E+00   1.72250805E+01   1.27505219E+02   1.27505219E+02   1.72250805E+01   6.80985928E+00   1.20695358E+02  -5.05133858E+01   1.14778938E+02   3.35813446E+01   1.00733734E+02   1.72250805E+01   5.01446075E+01
              584                2   1.14761871E+02   1.26814995E+02   1.26814995E+02   7.50008106E+00   1.72250805E+01   1.26814995E+02   1.26814995E+02   1.72250805E+01   7.50008106E+00   1.19314919E+02  -5.05133858E+01   1.13829277E+02   3.53986435E+01   9.89164352E+01   1.72250805E+01   5.05013351E+01
              584                3   1.13403061E+02   1.25942467E+02   1.25942467E+02   8.37261200E+00   1.72250805E+01   1.25942467E+02   1.25942467E+02   1.72250805E+01   8.37261200E+00   1.17569855E+02  -5.05133858E+01   1.12621750E+02   3.36581268E+01   1.00656952E+02   1.72250805E+01   4.83058701E+01
              584                4   1.12234535E+02   1.25190109E+02   1.25190109E+02   9.12495232E+00   1.72250805E+01   1.25190109E+02   1.25190109E+02   1.72250805E+01   9.12495232E+00   1.16065163E+02  -5.05133820E+01   1.11574059E+02   3.55351944E+01   9.87798767E+01   1.72250805E+01   4.86601257E+01
              585                1   4.65826530E+01   4.00885162E+01   4.00885162E+01  -2.65913033E+00  -9.55936813E+00   4.00885162E+01   4.00885162E+01  -2.65913033E+00  -9.55936813E+00   4.96478844E+01  -9.29000568E+00   4.54114799E+01   5.19018698E+00   3.22392006E+01  -9.55936813E+00   1.65507717E+01
              585                2   4.73864670E+01   4.06696053E+01   4.06696053E+01  -3.24022269E+00  -9.55936813E+00   4.06696053E+01   4.06696053E+01  -3.24022269E+00  -9.55936813E+00   5.02289734E+01  -9.29000473E+00   4.64243355E+01   4.43324089E+00   3.29961433E+01  -9.55936813E+00   1.66750832E+01
              585                3   4.74672356E+01   4.07276878E+01   4.07276878E+01  -3.29830289E+00  -9.55936813E+00   4.07276878E+01   4.07276878E+01  -3.29830289E+00  -9.55936813E+00   5.02870560E+01  -9.29000568E+00   4.65246239E+01   5.30769730E+00   3.21216888E+01  -9.55936813E+00   1.74592228E+01
              585                4   4.81613007E+01   4.12246017E+01   4.12246017E+01  -3.79521728E+00  -9.55936813E+00   4.12246017E+01   4.12246017E+01  -3.79521728E+00  -9.55936813E+00   5.07839699E+01  -9.29000568E+00   4.73759308E+01   4.56399155E+00   3.28653946E+01  -9.55936813E+00   1.75058193E+01
              586                1   1.99109085E+02   2.22199295E+02   2.22199295E+02   4.10198545E+00   5.01458855E+01   2.22199295E+02   2.22199295E+02   5.01458855E+01   4.10198545E+00   2.18097321E+02  -9.21490555E+01   1.86558029E+02   1.65950260E+01   2.09706253E+02   5.01458855E+01   5.06815910E+01
              586                2   2.00094055E+02   2.22323273E+02   2.22323273E+02   1.82546258E+00   5.22984200E+01   2.22323273E+02   2.22323273E+02   5.22984200E+01   1.82546258E+00   2.20497818E+02  -9.21490555E+01   1.84940353E+02   1.59629803E+01   2.08185760E+02   5.22984200E+01   5.40131721E+01
              586                3   1.98295380E+02   2.21969711E+02   2.21969711E+02   5.62931871E+00   4.88481407E+01   2.21969711E+02   2.21969711E+02   4.88481407E+01   5.62931871E+00   2.16340393E+02  -9.21490555E+01   1.87253494E+02   2.11920090E+01   2.06407013E+02   4.88481407E+01   5.58985023E+01
              586                4   1.99304794E+02   2.22102478E+02   2.22102478E+02   3.19566417E+00   5.11490211E+01   2.22102478E+02   2.22102478E+02   5.11490211E+01   3.19566417E+00   2.18906815E+02  -9.21490555E+01   1.85647614E+02   2.05276451E+01   2.04770493E+02   5.11490211E+01   5.91074600E+01
              587                1   1.76051086E+02   1.92795502E+02   1.92795502E+02   4.74832392E+00   3.18937969E+01   1.92795502E+02   1.92795502E+02   3.18937969E+01   4.74832392E+00   1.88047180E+02  -7.64792099E+01   1.71247559E+02   3.83587570E+01   1.59185059E+02   3.18937969E+01   7.20464172E+01
              587                2   1.81338120E+02   1.96087265E+02   1.96087265E+02   1.45656168E+00   3.18937969E+01   1.96087265E+02   1.96087265E+02   3.18937969E+01   1.45656168E+00   1.94630707E+02  -7.64792099E+01   1.75452576E+02   3.67752762E+01   1.60768539E+02   3.18937969E+01   7.50112991E+01
              587                3   1.74654510E+02   1.91923248E+02   1.91923248E+02   5.62056017E+00   3.18937969E+01   1.91923248E+02   1.91923248E+02   3.18937969E+01   5.62056017E+00   1.86302689E+02  -7.64792023E+01   1.70123230E+02   4.15066986E+01   1.56037109E+02   3.18937969E+01   7.34701920E+01
              587                4   1.79973251E+02   1.95238983E+02   1.95238983E+02   2.30483413E+00   3.18937969E+01   1.95238983E+02   1.95238983E+02   3.18937969E+01   2.30483413E+00   1.92934158E+02  -7.64792099E+01   1.74374619E+02   3.99746056E+01   1.57569214E+02   3.18937969E+01   7.64772797E+01
              588                1   1.33700161E+01   3.76317310E+00   3.76317310E+00  -6.07418716E-01  -1.12451792E+01   3.76317310E+00  -1.12451792E+01  -6.07418716E-01  -1.12451792E+01   1.50083523E+01   2.69647503E+00  -1.15912695E+01   2.55807924E+00   5.97675025E-01  -1.12451792E+01   1.95313132E+00
              588                2   1.32229509E+01   3.44117761E+00   3.44117761E+00  -2.85423219E-01  -1.12451792E+01   3.44117761E+00  -1.12451792E+01  -2.85423219E-01  -1.12451792E+01   1.46863565E+01   2.69647503E+00  -1.19531107E+01   2.97209811E+00   1.83656245E-01  -1.12451792E+01   1.23613763E+00
              588                3   1.31381521E+01   3.22916651E+00   3.22916651E+00  -7.34120980E-02  -1.12451792E+01   3.22916651E+00  -1.12451792E+01  -7.34120980E-02  -1.12451792E+01   1.44743452E+01   2.69647503E+00  -1.21504593E+01   1.83517301E+00   1.32058132E+00  -1.12451792E+01   1.63112080E+00
              588                4   1.29675636E+01   2.69246531E+00   2.69246531E+00   4.63288903E-01  -1.12451792E+01   2.69246531E+00  -1.12451792E+01   4.63288903E-01  -1.12451792E+01   1.39376450E+01   2.69647503E+00  -1.25255661E+01   2.29902244E+00   8.56731832E-01  -1.12451792E+01   8.49856734E-01
              589                1   5.22982025E+01   4.55971527E+01   4.55971527E+01  -3.91409278E+00  -9.10140991E+00   4.55971527E+01   4.55971527E+01  -3.91409278E+00  -9.10140991E+00   5.46985626E+01  -1.08605499E+01   5.17146721E+01   9.67522562E-01   4.07155380E+01  -9.10140991E+00   1.47602386E+01
              589                2   5.31056747E+01   4.61636734E+01   4.61636734E+01  -4.48061562E+00  -9.10140991E+00   4.61636734E+01   4.61636734E+01  -4.48061562E+00  -9.10140991E+00   5.52650833E+01  -1.08605499E+01   5.26505394E+01   2.72570103E-01   4.14104881E+01  -9.10140991E+00   1.47691908E+01
              589                3   5.27655640E+01   4.59255562E+01   4.59255562E+01  -4.24249792E+00  -9.10140991E+00   4.59255562E+01   4.59255562E+01  -4.24249792E+00  -9.10140991E+00   5.50269661E+01  -1.08605499E+01   5.22586861E+01   1.05390704E+00   4.06291542E+01  -9.10140991E+00   1.54161720E+01
              589                4   5.35764198E+01   4.64920883E+01   4.64920883E+01  -4.80902719E+00  -9.10140991E+00   4.64920883E+01   4.64920883E+01  -4.80902719E+00  -9.10140991E+00   5.55934982E+01  -1.08605499E+01   5.31875038E+01   3.65315974E-01   4.13177452E+01  -9.10140991E+00   1.54491320E+01
              590                1   2.01371292E+02   2.24671829E+02   2.24671829E+02   7.56705809E+00   4.40116234E+01   2.24671829E+02   2.24671829E+02   4.40116234E+01   7.56705809E+00   2.17104782E+02  -9.20835037E+01   1.93742004E+02   8.45934010E+00   2.23779556E+02   4.40116234E+01   1.38896179E+01
              590                2   2.00624725E+02   2.24356247E+02   2.24356247E+02   8.78029823E+00   4.31139793E+01   2.24356247E+02   2.24356247E+02   4.31139793E+01   8.78029823E+00   2.15575958E+02  -9.20835037E+01   1.93849182E+02   1.05496197E+01   2.22586929E+02   4.31139793E+01   1.94497566E+01
              590                3   2.00012939E+02   2.24124573E+02   2.24124573E+02   9.97179794E+00   4.21541519E+01   2.24124573E+02   2.24124573E+02   4.21541519E+01   9.97179794E+00   2.14152771E+02  -9.20835037E+01   1.94059372E+02   1.05249739E+01   2.23571396E+02   4.21541519E+01   1.08701038E+01
              590                4   1.99214706E+02   2.23773041E+02   2.23773041E+02   1.13312626E+01   4.11462059E+01   2.23773041E+02   2.23773041E+02   4.11462059E+01   1.13312626E+01   2.12441788E+02  -9.20835037E+01   1.94099838E+02   1.26295204E+01   2.22474792E+02   4.11462059E+01   1.65565071E+01
              591                1   5.01790428E+01   5.08478050E+01   5.08478050E+01   7.94682980E-01   5.43780625E-01   5.08478050E+01   5.08478050E+01   7.94682980E-01   5.43780625E-01   5.03040237E+01  -1.73954220E+01   5.01776314E+01   3.03257198E+01   2.13167667E+01   5.43780625E-01   2.46178474E+01
              591                2   5.20622482E+01   5.20987854E+01   5.20987854E+01  -4.56298560E-01   5.43780625E-01   5.20987854E+01   5.20987854E+01   5.43780625E-01  -4.56298560E-01   5.25550842E+01  -1.73954220E+01   5.20406303E+01   3.18693962E+01   1.97730923E+01   5.43780625E-01   2.55720367E+01
              591                3   4.81493530E+01   4.94814072E+01   4.94814072E+01   2.16108012E+00   5.43780625E-01   4.94814072E+01   4.94814072E+01   2.16108012E+00   5.43780625E-01   4.89376259E+01  -1.73954220E+01   4.80881844E+01   3.13342991E+01   2.03081894E+01   5.43780625E-01   2.30089016E+01
              591                4   5.00147285E+01   5.07379227E+01   5.07379227E+01   9.04562831E-01   5.43780625E-01   5.07379227E+01   5.07379227E+01   9.04562831E-01   5.43780625E-01   5.01941414E+01  -1.73954220E+01   5.00118027E+01   3.31059647E+01   1.85365238E+01   5.43780625E-01   2.38280048E+01
              592                1   9.39230652E+01   1.01235626E+02   1.01235626E+02   5.67076302E+00   9.04530811E+00   1.01235626E+02   1.01235626E+02   9.04530811E+00   5.67076302E+00   9.55648651E+01  -3.86505661E+01   9.37865219E+01   2.51748657E+01   8.17315216E+01   9.04530811E+00   3.85161896E+01
              592                2   9.62468948E+01   1.02752968E+02   1.02752968E+02   4.15341806E+00   9.04530811E+00   1.02752968E+02   1.02752968E+02   9.04530811E+00   4.15341806E+00   9.85995483E+01  -3.86505661E+01   9.59665833E+01   2.50145073E+01   8.18918839E+01   9.04530811E+00   4.02704468E+01
              592                3   9.24677429E+01   1.00279907E+02   1.00279907E+02   6.62648106E+00   9.04530811E+00   1.00279907E+02   1.00279907E+02   9.04530811E+00   6.62648106E+00   9.36534271E+01  -3.86505661E+01   9.23965149E+01   2.69081879E+01   7.99981995E+01   9.04530811E+00   3.85759468E+01
              592                4   9.51224365E+01   1.02020050E+02   1.02020050E+02   4.88633871E+00   9.04530811E+00   1.02020050E+02   1.02020050E+02   9.04530811E+00   4.88633871E+00   9.71337128E+01  -3.86505661E+01   9.49175491E+01   2.67395477E+01   8.01668396E+01   9.04530811E+00   4.05600853E+01
              593                1   4.58082352E+01   4.79494057E+01   4.79494057E+01   2.08835101E+00   2.19417834E+00   4.79494057E+01   4.79494057E+01   2.19417834E+00   2.08835101E+00   4.58610573E+01  -1.74106464E+01   4.58079567E+01   3.07154369E+00   4.69662132E+01   2.19417834E+00   6.64256191E+00
              593                2   4.57031822E+01   4.78794250E+01   4.78794250E+01   2.15833139E+00   2.19417834E+00   4.78794250E+01   4.78794250E+01   2.19417834E+00   2.15833139E+00   4.57210960E+01  -1.74106464E+01   4.57031479E+01   3.19445038E+00   4.68433075E+01   2.19417834E+00   6.80433321E+00
              593                3   4.54408340E+01   4.77044296E+01   4.77044296E+01   2.33332825E+00   2.19417834E+00   4.77044296E+01   4.77044296E+01   2.33332825E+00   2.19417834E+00   4.55102501E+01  -1.74106464E+01   4.54403572E+01   3.27635646E+00   4.67614021E+01   2.19417834E+00   6.47278070E+00
              593                4   4.53246651E+01   4.76268272E+01   4.76268272E+01   2.41092896E+00   2.19417834E+00   4.76268272E+01   4.76268272E+01   2.41092896E+00   2.19417834E+00   4.54326515E+01  -1.74106464E+01   4.53234978E+01   3.40577745E+00   4.66319809E+01   2.19417834E+00   6.63273859E+00
              594                1   2.00790955E+02   2.12406708E+02   2.12406708E+02  -6.06702507E-01   2.66158676E+01   2.12406708E+02   2.12406708E+02   2.66158676E+01  -6.06702507E-01   2.13013412E+02  -7.94719543E+01   1.96574890E+02  -4.89439249E-01   2.12289444E+02   2.66158676E+01   4.99645329E+00
              594                2   1.99749649E+02   2.11860687E+02   2.11860687E+02   8.31987917E-01   2.57231884E+01   2.11860687E+02   2.11860687E+02   2.57231884E+01   8.31987917E-01   2.11028702E+02  -7.94719543E+01   1.96214996E+02   1.23996580E+00   2.11452713E+02   2.57231884E+01   9.26969910E+00
              594                3   1.99609619E+02   2.11815750E+02   2.11815750E+02   1.25133693E+00   2.53487740E+01   2.11815750E+02   2.11815750E+02   2.53487740E+01   1.25133693E+00   2.10564423E+02  -7.94719543E+01   1.96297150E+02   1.27057171E+00   2.11796524E+02   2.53487740E+01   2.01225615E+00
              594                4   1.97772079E+02   2.10736603E+02   2.10736603E+02   3.11002707E+00   2.45692329E+01   2.10736603E+02   2.10736603E+02   2.45692329E+01   3.11002707E+00   2.07626587E+02  -7.94719543E+01   1.95127045E+02   3.30595446E+00   2.10540680E+02   2.45692329E+01   6.37504768E+00
              595                1   7.40944061E+01   6.74091721E+01   6.74091721E+01  -6.09301901E+00  -7.26357937E+00   6.74091721E+01   6.74091721E+01  -6.09301901E+00  -7.26357937E+00   7.46727524E+01  -1.80175228E+01   7.40736008E+01  -1.36122823E+00   6.26773796E+01  -7.26357937E+00   1.80390472E+01
              595                2   7.31852570E+01   6.67968369E+01   6.67968369E+01  -5.48068428E+00  -7.26357937E+00   6.67968369E+01   6.67968369E+01  -5.48068428E+00  -7.26357937E+00   7.40604172E+01  -1.80175247E+01   7.31363754E+01  -5.84512055E-01   6.19006653E+01  -7.26357937E+00   1.81634464E+01
              595                3   7.34908829E+01   6.70029907E+01   6.70029907E+01  -5.68683290E+00  -7.26357937E+00   6.70029907E+01   6.70029907E+01  -5.68683290E+00  -7.26357937E+00   7.42665634E+01  -1.80175247E+01   7.34528122E+01  -1.31298971E+00   6.26291428E+01  -7.26357937E+00   1.72859325E+01
              595                4   7.25870056E+01   6.63923798E+01   6.63923798E+01  -5.07622719E+00  -7.26357937E+00   6.63923798E+01   6.63923798E+01  -5.07622719E+00  -7.26357937E+00   7.36559601E+01  -1.80175247E+01   7.25128021E+01  -5.49703360E-01   6.18658562E+01  -7.26357937E+00   1.74073277E+01
              596                1   5.83218956E+01   5.49138412E+01   5.49138412E+01  -1.49528205E+00  -5.14902353E+00   5.49138412E+01   5.49138412E+01  -1.49528205E+00  -5.14902353E+00   6.00628662E+01  -1.60898457E+01   5.80635605E+01   1.34315386E+01   3.99870224E+01  -5.14902353E+00   2.48837070E+01
              596                2   5.75154533E+01   5.43563194E+01   5.43563194E+01  -9.37754571E-01  -5.14902353E+00   5.43563194E+01   5.43563194E+01  -9.37754571E-01  -5.14902353E+00   5.95053406E+01  -1.60898457E+01   5.71670380E+01   1.28922253E+01   4.05263367E+01  -5.14902353E+00   2.39467659E+01
              596                3   6.04898643E+01   5.63969421E+01   5.63969421E+01  -2.97838354E+00  -5.14902353E+00   5.63969421E+01   5.63969421E+01  -2.97838354E+00  -5.14902353E+00   6.15459671E+01  -1.60898457E+01   6.04021454E+01   1.23761759E+01   4.10423851E+01  -5.14902353E+00   2.59984512E+01
              596                4   5.92934952E+01   5.55812225E+01   5.55812225E+01  -2.16265869E+00  -5.14902353E+00   5.55812225E+01   5.55812225E+01  -2.16265869E+00  -5.14902353E+00   6.07302475E+01  -1.60898457E+01   5.91239357E+01   1.18422661E+01   4.15762978E+01  -5.14902353E+00   2.47499657E+01
              597                1   1.35620300E+02   1.55869446E+02   1.55869446E+02   1.61165352E+01   2.47989559E+01   1.55869446E+02   1.55869446E+02   2.47989559E+01   1.61165352E+01   1.39752899E+02  -6.55949783E+01   1.34992874E+02   2.62085991E+01   1.45777374E+02   2.47989559E+01   3.61738281E+01
              597                2   1.34060150E+02   1.54858597E+02   1.54858597E+02   1.71273861E+01   2.47989559E+01   1.54858597E+02   1.54858597E+02   2.47989559E+01   1.71273861E+01   1.37731201E+02  -6.55949783E+01   1.33564941E+02   2.67472477E+01   1.45238724E+02   2.47989559E+01   3.51057472E+01
              597                3   1.36830002E+02   1.56651184E+02   1.56651184E+02   1.53347950E+01   2.47989559E+01   1.56651184E+02   1.56651184E+02   2.47989559E+01   1.53347950E+01   1.41316391E+02  -6.55949783E+01   1.36090698E+02   2.51517067E+01   1.46834274E+02   2.47989559E+01   3.59293518E+01
              597                4   1.35136597E+02   1.55556366E+02   1.55556366E+02   1.64296131E+01   2.47989559E+01   1.55556366E+02   1.55556366E+02   2.47989559E+01   1.64296131E+01   1.39126755E+02  -6.55949783E+01   1.34551636E+02   2.58008385E+01   1.46185135E+02   2.47989559E+01   3.48707428E+01
              598                1   6.14458237E+01   5.46540527E+01   5.46540527E+01  -5.09177256E+00  -8.36122799E+00   5.46540527E+01   5.46540527E+01  -5.09177256E+00  -8.36122799E+00   6.30152779E+01  -1.37336836E+01   6.12496605E+01  -1.71787083E-01   4.97340660E+01  -8.36122799E+00   1.64238338E+01
              598                2   6.09967995E+01   5.43457184E+01   5.43457184E+01  -4.78343916E+00  -8.36122799E+00   5.43457184E+01   5.43457184E+01  -4.78343916E+00  -8.36122799E+00   6.27069473E+01  -1.37336836E+01   6.07600479E+01  -2.23141655E-01   4.97854195E+01  -8.36122799E+00   1.57749891E+01
              598                3   6.22865944E+01   5.52289276E+01   5.52289276E+01  -5.66664934E+00  -8.36122799E+00   5.52289276E+01   5.52289276E+01  -5.66664934E+00  -8.36122799E+00   6.35901566E+01  -1.37336836E+01   6.21552544E+01  -8.59031558E-01   5.04213104E+01  -8.36122799E+00   1.64210072E+01
              598                4   6.18593674E+01   5.49372025E+01   5.49372025E+01  -5.37492514E+00  -8.36122799E+00   5.49372025E+01   5.49372025E+01  -5.37492514E+00  -8.36122799E+00   6.32984314E+01  -1.37336836E+01   6.16968727E+01  -9.10333216E-01   5.04726105E+01  -8.36122799E+00   1.57903938E+01
              599                1   2.23243580E+01   1.57765551E+01   1.57765551E+01  -5.69790602E-01  -9.65856075E+00   1.57765551E+01   1.57765551E+01  -5.69790602E-01  -9.65856075E+00   2.54351158E+01  -1.84940112E+00   1.73628750E+01   8.93988895E+00   6.26687574E+00  -9.65856075E+00   8.06315708E+00
              599                2   2.20959473E+01   1.55669708E+01   1.55669708E+01  -3.60206306E-01  -9.65856075E+00   1.55669708E+01   1.55669708E+01  -3.60206306E-01  -9.65856075E+00   2.52255306E+01  -1.84940112E+00   1.67613182E+01   9.36485577E+00   5.84190893E+00  -9.65856075E+00   7.76633453E+00
              599                3   2.18757153E+01   1.53616524E+01   1.53616524E+01  -1.54887736E-01  -9.65856075E+00   1.53616524E+01   1.53616524E+01  -1.54887736E-01  -9.65856075E+00   2.50202122E+01  -1.84940112E+00   1.61438351E+01   8.64472008E+00   6.56204414E+00  -9.65856075E+00   7.68806648E+00
              599                4   2.16295376E+01   1.51280584E+01   1.51280584E+01   7.87057206E-02  -9.65856075E+00   1.51280584E+01   1.51280584E+01   7.87057206E-02  -9.65856075E+00   2.47866192E+01  -1.84940112E+00   1.54008045E+01   9.07734299E+00   6.12942123E+00  -9.65856075E+00   7.37890196E+00
              600                1   2.10568680E+02   2.10967499E+02   2.10967499E+02  -3.82693553E+00   4.89564753E+00   2.10967499E+02   2.10967499E+02   4.89564753E+00  -3.82693553E+00   2.14794434E+02  -7.06787338E+01   2.10161636E+02  -3.74308157E+00   2.10883652E+02   4.89564753E+00   4.24299335E+00
              600                2   2.09921219E+02   2.10557587E+02   2.10557587E+02  -3.05565476E+00   4.53428888E+00   2.10557587E+02   2.10557587E+02   4.53428888E+00  -3.05565476E+00   2.13613251E+02  -7.06787415E+01   2.09612152E+02  -2.93547630E+00   2.10437408E+02   4.53428888E+00   5.06542063E+00
              600                3   2.10300766E+02   2.10805328E+02   2.10805328E+02  -3.32698131E+00   4.55787802E+00   2.10805328E+02   2.10805328E+02   4.55787802E+00  -3.32698131E+00   2.14132309E+02  -7.06787415E+01   2.09967804E+02  -3.29082108E+00   2.10769165E+02   4.55787802E+00   2.78255105E+00
              600                4   2.09636368E+02   2.10382843E+02   2.10382843E+02  -2.52121854E+00   4.17460346E+00   2.10382843E+02   2.10382843E+02   4.17460346E+00  -2.52121854E+00   2.12904053E+02  -7.06787415E+01   2.09395554E+02  -2.46361113E+00   2.10325226E+02   4.17460346E+00   3.50174975E+00
              601                1   1.94027664E+02   2.12315857E+02   2.12315857E+02   6.40318108E+00   3.28957443E+01   2.12315857E+02   2.12315857E+02   3.28957443E+01   6.40318108E+00   2.05912674E+02  -8.38715897E+01   1.89894577E+02   7.07011557E+00   2.11648926E+02   3.28957443E+01   1.16997929E+01
              601                2   1.92822937E+02   2.11692490E+02   2.11692490E+02   8.13208675E+00   3.17902069E+01   2.11692490E+02   2.11692490E+02   3.17902069E+01   8.13208675E+00   2.03560394E+02  -8.38715897E+01   1.89516434E+02   9.62764645E+00   2.10196930E+02   3.17902069E+01   1.73838654E+01
              601                3   1.92253845E+02   2.11401276E+02   2.11401276E+02   9.03207588E+00   3.11814365E+01   2.11401276E+02   2.11401276E+02   3.11814365E+01   9.03207588E+00   2.02369202E+02  -8.38715973E+01   1.89351395E+02   9.33926296E+00   2.11094086E+02   3.11814365E+01   7.87851763E+00
              601                4   1.90916107E+02   2.10676987E+02   2.10676987E+02   1.09848566E+01   2.99529343E+01   2.10676987E+02   2.10676987E+02   2.99529343E+01   1.09848566E+01   1.99692139E+02  -8.38715897E+01   1.88778732E+02   1.19202785E+01   2.09741577E+02   2.99529343E+01   1.36352549E+01
              602                1   1.11442051E+01   2.21727937E-01  -2.61914551E-01  -2.61914551E-01  -1.11564245E+01   2.21727937E-01  -1.11564245E+01  -2.61914551E-01  -1.11564245E+01   1.13781528E+01   3.73220372E+00  -1.11205559E+01   1.08884744E-01  -1.49071351E-01  -1.11564245E+01  -2.04553604E-01
              602                2   1.11682158E+01   4.66787785E-01  -5.06974399E-01  -5.06974399E-01  -1.11564245E+01   4.66787785E-01  -1.11564245E+01  -5.06974399E-01  -1.11564245E+01   1.16232119E+01   3.73220372E+00  -1.10721016E+01   6.60204515E-02  -1.06207050E-01  -1.11564245E+01  -4.79205191E-01
              602                3   1.11415958E+01   1.77636445E-01  -2.17823043E-01  -2.17823043E-01  -1.11564245E+01   1.77636445E-01  -1.11564245E+01  -2.17823043E-01  -1.11564245E+01   1.13340607E+01   3.73220372E+00  -1.11257887E+01  -1.55827060E-01   1.15640461E-01  -1.11564245E+01  -1.43782467E-01
              602                4   1.11644268E+01   4.36907560E-01  -4.77094144E-01  -4.77094144E-01  -1.11564245E+01   4.36907560E-01  -1.11564245E+01  -4.77094144E-01  -1.11564245E+01   1.15933323E+01   3.73220372E+00  -1.10797825E+01  -2.00548157E-01   1.60361558E-01  -1.11564245E+01  -4.19864058E-01
              603                1   1.84389191E+02   2.01972946E+02   2.01972946E+02   1.25281553E+01   2.30936852E+01   2.01972946E+02   2.01972946E+02   2.30936852E+01   1.25281553E+01   1.89444794E+02  -7.91982651E+01   1.83706284E+02   1.34116516E+01   2.01089447E+02   2.30936852E+01   1.29070959E+01
              603                2   1.85847595E+02   2.02808807E+02   2.02808807E+02   1.00830727E+01   2.47029057E+01   2.02808807E+02   2.02808807E+02   2.47029057E+01   1.00830727E+01   1.92725723E+02  -7.91982651E+01   1.84547180E+02   1.03050699E+01   2.02586807E+02   2.47029057E+01   6.53720522E+00
              603                3   1.86160080E+02   2.02966797E+02   2.02966797E+02   9.38491249E+00   2.52430706E+01   2.02966797E+02   2.02966797E+02   2.52430706E+01   9.38491249E+00   1.93581894E+02  -7.91982651E+01   1.84631256E+02   1.10028334E+01   2.01348877E+02   2.52430706E+01   1.76233768E+01
              603                4   1.87492401E+02   2.03683731E+02   2.03683731E+02   7.19204044E+00   2.67189999E+01   2.03683731E+02   2.03683731E+02   2.67189999E+01   7.19204044E+00   1.96491699E+02  -7.91982574E+01   1.85183975E+02   7.84901905E+00   2.03026764E+02   2.67189999E+01   1.13427620E+01
              604                1   7.82778854E+01   7.67293549E+01   7.67293549E+01  -1.41960180E+00  -1.67682493E+00   7.67293549E+01   7.67293549E+01  -1.41960180E+00  -1.67682493E+00   7.84061813E+01  -2.45443096E+01   7.82769318E+01   1.10329399E+01   6.42768097E+01  -1.67682493E+00   2.86022282E+01
              604                2   7.80399323E+01   7.65703735E+01   7.65703735E+01  -1.26062357E+00  -1.67682493E+00   7.65703735E+01   7.65703735E+01  -1.26062357E+00  -1.67682493E+00   7.82472000E+01  -2.45443096E+01   7.80374374E+01   1.18105249E+01   6.34992256E+01  -1.67682493E+00   2.90944271E+01
              604                3   7.71251907E+01   7.59576721E+01   7.59576721E+01  -6.47919476E-01  -1.67682493E+00   7.59576721E+01   7.59576721E+01  -6.47919476E-01  -1.67682493E+00   7.76344986E+01  -2.45443096E+01   7.71097488E+01   1.12080069E+01   6.41017456E+01  -1.67682493E+00   2.77068100E+01
              604                4   7.69105453E+01   7.58135300E+01   7.58135300E+01  -5.03780186E-01  -1.67682493E+00   7.58135300E+01   7.58135300E+01  -5.03780186E-01  -1.67682493E+00   7.74903564E+01  -2.45443096E+01   7.68904114E+01   1.20193720E+01   6.32903786E+01  -1.67682493E+00   2.82648907E+01
              605                1   2.29531116E+01   1.42183447E+01   1.42183447E+01  -8.20555866E-01  -1.22013407E+01   1.42183447E+01   1.42183447E+01  -8.20555866E-01  -1.22013407E+01   2.64196854E+01  -3.98816109E-01   1.42051687E+01   1.78976429E+00   1.16080246E+01  -1.22013407E+01   5.69583845E+00
              605                2   2.26498947E+01   1.39053459E+01   1.39053459E+01  -5.07557094E-01  -1.22013407E+01   1.39053459E+01   1.39053459E+01  -5.07557094E-01  -1.22013407E+01   2.61066875E+01  -3.98816109E-01   1.27698812E+01   2.24555850E+00   1.11522303E+01  -1.22013407E+01   5.66575193E+00
              605                3   2.26633911E+01   1.39194765E+01   1.39194765E+01  -5.21687031E-01  -1.22013407E+01   1.39194765E+01   1.39194765E+01  -5.21687031E-01  -1.22013407E+01   2.61208172E+01  -3.98816109E-01   1.28403721E+01   1.68872428E+00   1.17090645E+01  -1.22013407E+01   5.19951868E+00
              605                4   2.23473682E+01   1.35833206E+01   1.35833206E+01  -1.85532615E-01  -1.22013407E+01   1.35833206E+01   1.35833206E+01  -1.85532615E-01  -1.22013407E+01   2.57846622E+01  -3.98815781E-01   1.09433041E+01   2.14314961E+00   1.12546387E+01  -1.22013407E+01   5.16144562E+00
              606                1   1.89301041E+02   1.88173203E+02   1.88173203E+02  -1.20050728E+00  -1.05506849E+00   1.88173203E+02   1.88173203E+02  -1.05506849E+00  -1.20050728E+00   1.89373718E+02  -6.19725456E+01   1.89300903E+02  -1.18769038E+00   1.88160385E+02  -1.05506849E+00   1.55832970E+00
              606                2   1.89823105E+02   1.88520966E+02   1.88520966E+02  -1.54793966E+00  -1.05539250E+00   1.88520966E+02   1.88520966E+02  -1.05539250E+00  -1.54793966E+00   1.90068909E+02  -6.19725456E+01   1.89821671E+02  -1.53802931E+00   1.88511047E+02  -1.05539250E+00   1.37272811E+00
              606                3   1.89613190E+02   1.88381165E+02   1.88381165E+02  -1.40820742E+00  -1.05534136E+00   1.88381165E+02   1.88381165E+02  -1.05534136E+00  -1.40820742E+00   1.89789383E+02  -6.19725380E+01   1.89612457E+02  -1.38829994E+00   1.88361267E+02  -1.05534136E+00   1.94338334E+00
              606                4   1.90127335E+02   1.88723465E+02   1.88723465E+02  -1.75018537E+00  -1.05566025E+00   1.88723465E+02   1.88723465E+02  -1.05566025E+00  -1.75018537E+00   1.90473648E+02  -6.19725380E+01   1.90124496E+02  -1.73399198E+00   1.88707275E+02  -1.05566025E+00   1.75608981E+00
              607                1   4.48955650E+01   5.50252571E+01   5.50252571E+01   5.86660337E+00   1.61917458E+01   5.50252571E+01   5.50252571E+01   1.61917458E+01   5.86660337E+00   4.91586533E+01  -2.56945343E+01   4.20980263E+01   8.92838764E+00   5.19634743E+01   1.61917458E+01   1.18801785E+01
              607                2   5.06595802E+01   5.85125885E+01   5.85125885E+01   2.37927747E+00   1.61917458E+01   5.85125885E+01   5.85125885E+01   1.61917458E+01   2.37927747E+00   5.61333084E+01  -2.56945362E+01   4.61295586E+01   5.99831676E+00   5.48935471E+01   1.61917458E+01   1.37859077E+01
              607                3   4.48896713E+01   5.50216713E+01   5.50216713E+01   5.87019110E+00   1.61917458E+01   5.50216713E+01   5.50216713E+01   1.61917458E+01   5.87019110E+00   4.91514778E+01  -2.56945343E+01   4.20937729E+01   1.08563967E+01   5.00354652E+01   1.61917458E+01   1.48397131E+01
              607                4   5.06833115E+01   5.85268631E+01   5.85268631E+01   2.36500168E+00   1.61917458E+01   5.85268631E+01   5.85268631E+01   1.61917458E+01   2.36500168E+00   5.61618614E+01  -2.56945362E+01   4.61456642E+01   7.90156841E+00   5.29902954E+01   1.61917458E+01   1.67418747E+01
              608                1   2.05543839E+02   1.97747131E+02   1.97747131E+02  -1.12484484E+01  -4.16165972E+00   1.97747131E+02   1.97747131E+02  -4.16165972E+00  -1.12484484E+01   2.08995590E+02  -6.07790070E+01   2.05268692E+02  -1.10913715E+01   1.97590057E+02  -4.16165972E+00   5.72748518E+00
              608                2   2.06463852E+02   1.98321503E+02   1.98321503E+02  -1.25369368E+01  -3.44753623E+00   1.98321503E+02   1.98321503E+02  -3.44753623E+00  -1.25369368E+01   2.10858429E+02  -6.07790070E+01   2.06012970E+02  -1.24541616E+01   1.98238724E+02  -3.44753623E+00   4.17693424E+00
              608                3   2.06108948E+02   1.98093811E+02   1.98093811E+02  -1.22120886E+01  -3.54470491E+00   1.98093811E+02   1.98093811E+02  -3.54470491E+00  -1.22120886E+01   2.10305908E+02  -6.07790070E+01   2.05698303E+02  -1.19060869E+01   1.97787811E+02  -3.54470491E+00   8.01632023E+00
              608                4   2.07001648E+02   1.98644333E+02   1.98644333E+02  -1.34539022E+01  -2.85340524E+00   1.98644333E+02   1.98644333E+02  -2.85340524E+00  -1.34539022E+01   2.12098236E+02  -6.07790070E+01   2.06389648E+02  -1.32594700E+01   1.98449905E+02  -2.85340524E+00   6.41869879E+00
              609                1   1.02025269E+02   1.11064720E+02   1.11064720E+02   3.34003282E+00   1.59022617E+01   1.11064720E+02   1.11064720E+02   1.59022617E+01   3.34003282E+00   1.07724686E+02  -4.34356728E+01   1.00263153E+02   4.97579231E+01   6.46468277E+01   1.59022617E+01   5.33454056E+01
              609                2   1.03729073E+02   1.12138763E+02   1.12138763E+02   2.26598001E+00   1.59022617E+01   1.12138763E+02   1.12138763E+02   1.59022617E+01   2.26598001E+00   1.09872787E+02  -4.34356689E+01   1.01683205E+02   4.81970062E+01   6.62077408E+01   1.59022617E+01   5.41932716E+01
              609                3   1.04215431E+02   1.12444748E+02   1.12444748E+02   1.96000993E+00   1.59022617E+01   1.12444748E+02   1.12444748E+02   1.59022617E+01   1.96000993E+00   1.10484734E+02  -4.34356728E+01   1.02085579E+02   5.06020546E+01   6.38026962E+01   1.59022617E+01   5.48466492E+01
              609                4   1.05910622E+02   1.13509155E+02   1.13509155E+02   8.95596266E-01   1.59022617E+01   1.13509155E+02   1.13509155E+02   1.59022617E+01   8.95596266E-01   1.12613564E+02  -4.34356728E+01   1.03478127E+02   4.90185013E+01   6.53862534E+01   1.59022617E+01   5.57088661E+01
              610                1   1.99934158E+02   2.02744873E+02   2.02744873E+02  -5.90976572E+00   1.28541470E+01   2.02744873E+02   2.02744873E+02   1.28541470E+01  -5.90976572E+00   2.08654648E+02  -6.98964157E+01   1.97938644E+02  -5.90404749E+00   2.02739166E+02   1.28541470E+01   1.09179139E+00
              610                2   1.98828690E+02   2.02095779E+02   2.02095779E+02  -4.57666254E+00   1.21701431E+01   2.02095779E+02   2.02095779E+02   1.21701431E+01  -4.57666254E+00   2.06672440E+02  -6.98964233E+01   1.97232574E+02  -4.54206514E+00   2.02061188E+02   1.21701431E+01   2.67365909E+00
              610                3   2.00064850E+02   2.02854782E+02   2.02854782E+02  -5.72270060E+00   1.25571861E+01   2.02854782E+02   2.02854782E+02   1.25571861E+01  -5.72270060E+00   2.08577484E+02  -6.98964233E+01   1.98172928E+02  -5.70849276E+00   2.02840576E+02   1.25571861E+01  -1.72119474E+00
              610                4   1.98728699E+02   2.02071198E+02   2.02071198E+02  -4.04822302E+00   1.16662979E+01   2.02071198E+02   2.02071198E+02   1.16662979E+01  -4.04822302E+00   2.06119431E+02  -6.98964233E+01   1.97323563E+02  -4.04626799E+00   2.02069244E+02   1.16662979E+01   6.35324240E-01
              611                1   1.75189713E+02   2.04715729E+02   2.04715729E+02   2.32151623E+01   3.66052895E+01   2.04715729E+02   2.04715729E+02   3.66052895E+01   2.32151623E+01   1.81500565E+02  -8.81787338E+01   1.74032822E+02   2.77670860E+01   2.00163803E+02   3.66052895E+01   2.83805809E+01
              611                2   1.70932129E+02   2.01967712E+02   2.01967712E+02   2.59631767E+01   3.66052895E+01   2.01967712E+02   2.01967712E+02   3.66052895E+01   2.59631767E+01   1.76004532E+02  -8.81787338E+01   1.70184357E+02   3.03281822E+01   1.97602707E+02   3.66052895E+01   2.73716640E+01
              611                3   1.75862213E+02   2.05148270E+02   2.05148270E+02   2.27826157E+01   3.66052895E+01   2.05148270E+02   2.05148270E+02   3.66052895E+01   2.27826157E+01   1.82365662E+02  -8.81787338E+01   1.74633743E+02   2.64719353E+01   2.01458954E+02   3.66052895E+01   2.56747875E+01
              611                4   1.71543121E+02   2.02363129E+02   2.02363129E+02   2.55677700E+01   3.66052895E+01   2.02363129E+02   2.02363129E+02   3.66052895E+01   2.55677700E+01   1.76795349E+02  -8.81787338E+01   1.70741440E+02   2.91011925E+01   1.98829697E+02   3.66052895E+01   2.47428455E+01
              612                1   1.09012230E+02   1.16520531E+02   1.16520531E+02   7.33717680E+00   7.68023300E+00   1.16520531E+02   1.16520531E+02   7.68023300E+00   7.33717680E+00   1.09183350E+02  -4.38459778E+01   1.09011017E+02   8.06787872E+00   1.15789825E+02   7.68023300E+00   8.90205479E+00
              612                2   1.09084038E+02   1.16568321E+02   1.16568321E+02   7.28938723E+00   7.68023300E+00   1.16568321E+02   1.16568321E+02   7.68023300E+00   7.28938723E+00   1.09278938E+02  -4.38459816E+01   1.09082458E+02   7.99903584E+00   1.15858673E+02   7.68023300E+00   8.77760410E+00
              612                3   1.09206787E+02   1.16649994E+02   1.16649994E+02   7.20771217E+00   7.68023300E+00   1.16649994E+02   1.16649994E+02   7.68023300E+00   7.20771217E+00   1.09442276E+02  -4.38459778E+01   1.09204491E+02   7.94844103E+00   1.15909264E+02   7.68023300E+00   8.97319889E+00
              612                4   1.09278419E+02   1.16697647E+02   1.16697647E+02   7.16006804E+00   7.68023300E+00   1.16697647E+02   1.16697647E+02   7.68023300E+00   7.16006804E+00   1.09537575E+02  -4.38459816E+01   1.09275635E+02   7.87961340E+00   1.15978096E+02   7.68023300E+00   8.84871483E+00
              613                1   8.82514496E+01   9.20755081E+01   9.20755081E+01   2.72372723E+00   4.96715641E+00   9.20755081E+01   9.20755081E+01   4.96715641E+00   2.72372723E+00   8.93517761E+01  -3.32554626E+01   8.81872635E+01   2.02151203E+01   7.45841141E+01   4.96715641E+00   3.54533234E+01
              613                2   8.79457321E+01   9.18740997E+01   9.18740997E+01   2.92513609E+00   4.96715641E+00   9.18740997E+01   9.18740997E+01   4.96715641E+00   2.92513609E+00   8.89489594E+01  -3.32554626E+01   8.78923645E+01   2.10353069E+01   7.37639236E+01   4.96715641E+00   3.58176308E+01
              613                3   8.68364716E+01   9.11415100E+01   9.11415100E+01   3.65772367E+00   4.96715641E+00   9.11415100E+01   9.11415100E+01   4.96715641E+00   3.65772367E+00   8.74837875E+01  -3.32554626E+01   8.68142548E+01   2.02325878E+01   7.45666428E+01   4.96715641E+00   3.42827339E+01
              613                4   8.65609436E+01   9.09590912E+01   9.09590912E+01   3.84014344E+00   4.96715641E+00   9.09590912E+01   9.09590912E+01   4.96715641E+00   3.84014344E+00   8.71189423E+01  -3.32554626E+01   8.65444336E+01   2.11875744E+01   7.36116562E+01   4.96715641E+00   3.47901802E+01
              614                1   1.15239670E+02   1.28980896E+02   1.28980896E+02   1.18871775E+01   1.56893778E+01   1.28980896E+02   1.28980896E+02   1.56893778E+01   1.18871775E+01   1.17093719E+02  -5.21858177E+01   1.15098404E+02   2.07046833E+01   1.20163383E+02   1.56893778E+01   3.08986454E+01
              614                2   1.16044716E+02   1.29508560E+02   1.29508560E+02   1.13595133E+01   1.56893778E+01   1.29508560E+02   1.29508560E+02   1.56893778E+01   1.13595133E+01   1.18149048E+02  -5.21858177E+01   1.15862755E+02   2.00110741E+01   1.20856995E+02   1.56893778E+01   3.07786369E+01
              614                3   1.15870522E+02   1.29394470E+02   1.29394470E+02   1.14735975E+01   1.56893778E+01   1.29394470E+02   1.29394470E+02   1.56893778E+01   1.14735975E+01   1.17920876E+02  -5.21858177E+01   1.15697777E+02   2.06759987E+01   1.20192070E+02   1.56893778E+01   3.16302299E+01
              614                4   1.16685226E+02   1.29927628E+02   1.29927628E+02   1.09404402E+01   1.56893778E+01   1.29927628E+02   1.29927628E+02   1.56893778E+01   1.09404402E+01   1.18987190E+02  -5.21858177E+01   1.16467499E+02   1.99550934E+01   1.20912979E+02   1.56893778E+01   3.14859390E+01
              615                1   2.01966278E+02   2.30526108E+02   2.30526108E+02   9.36151409E+00   5.58731689E+01   2.30526108E+02   2.30526108E+02   5.58731689E+01   9.36151409E+00   2.21164597E+02  -9.85869370E+01   1.89345337E+02   1.62885895E+01   2.23599030E+02   5.58731689E+01   3.85232315E+01
              615                2   2.00615829E+02   2.30206299E+02   2.30206299E+02   1.22145109E+01   5.33399658E+01   2.30206299E+02   2.30206299E+02   5.33399658E+01   1.22145109E+01   2.17991791E+02  -9.85869217E+01   1.90782867E+02   1.82614670E+01   2.24159348E+02   5.33399658E+01   3.57997131E+01
              615                3   2.02711258E+02   2.30777893E+02   2.30777893E+02   8.17178345E+00   5.68111076E+01   2.30777893E+02   2.30777893E+02   5.68111076E+01   8.17178345E+00   2.22606110E+02  -9.85869217E+01   1.88900864E+02   1.29092093E+01   2.26040466E+02   5.68111076E+01   3.21268883E+01
              615                4   2.01393509E+02   2.30478714E+02   2.30478714E+02   1.08878775E+01   5.43941994E+01   2.30478714E+02   2.30478714E+02   5.43941994E+01   1.08878775E+01   2.19590836E+02  -9.85869370E+01   1.90384842E+02   1.48422518E+01   2.26524338E+02   5.43941994E+01   2.92011623E+01
              616                1   3.58861465E+01   3.06515808E+01   3.06515808E+01  -1.49355984E+00  -8.06680202E+00   3.06515808E+01   3.06515808E+01  -1.49355984E+00  -8.06680202E+00   3.87183838E+01  -7.03040695E+00   3.44924889E+01   2.71711051E-01   2.88863106E+01  -8.06680202E+00   7.32316256E+00
              616                2   3.53661842E+01   3.02626972E+01   3.02626972E+01  -1.10467625E+00  -8.06680202E+00   3.02626972E+01   3.02626972E+01  -1.10467625E+00  -8.06680202E+00   3.83294983E+01  -7.03040695E+00   3.37723656E+01   6.74825490E-01   2.84831963E+01  -8.06680202E+00   7.25614738E+00
              616                3   3.57442665E+01   3.05458488E+01   3.05458488E+01  -1.38782620E+00  -8.06680202E+00   3.05458488E+01   3.05458488E+01  -1.38782620E+00  -8.06680202E+00   3.86126518E+01  -7.03040695E+00   3.42979507E+01   1.86368272E-01   2.89716530E+01  -8.06680202E+00   6.91315746E+00
              616                4   3.52215042E+01   3.01537933E+01   3.01537933E+01  -9.95771289E-01  -8.06680202E+00   3.01537933E+01   3.01537933E+01  -9.95771289E-01  -8.06680202E+00   3.82205963E+01  -7.03040695E+00   3.35683670E+01   5.89566708E-01   2.85684547E+01  -8.06680202E+00   6.84611607E+00
              617                1   1.54221811E+01   5.67163610E+00   5.67163610E+00   7.68297493E-01  -1.16060791E+01   5.67163610E+00  -1.16060791E+01   7.68297493E-01  -1.16060791E+01   1.72777157E+01   1.72204840E+00  -1.34936514E+01   3.10028076E+00   3.33965278E+00  -1.16060791E+01   2.44874620E+00
              617                2   1.54568653E+01   5.74339390E+00   5.74339390E+00   6.96539938E-01  -1.16060791E+01   5.74339390E+00  -1.16060791E+01   6.96539938E-01  -1.16060791E+01   1.73494720E+01   1.72204840E+00  -1.34058733E+01   3.39274883E+00   3.04718471E+00  -1.16060791E+01   2.51750469E+00
              617                3   1.52697659E+01   5.32979441E+00   5.32979441E+00   1.11013901E+00  -1.16060791E+01   5.32979441E+00  -1.16060791E+01   1.11013901E+00  -1.16060791E+01   1.69358730E+01   1.72204864E+00  -1.38642855E+01   3.10658813E+00   3.33334517E+00  -1.16060791E+01   2.10677910E+00
              617                4   1.52996817E+01   5.40084028E+00   5.40084028E+00   1.03909278E+00  -1.16060791E+01   5.40084028E+00  -1.16060791E+01   1.03909278E+00  -1.16060791E+01   1.70069199E+01   1.72204864E+00  -1.37933865E+01   3.41214228E+00   3.02779102E+00  -1.16060791E+01   2.17239022E+00
              618                1   1.58905167E+02   1.81384109E+02   1.81384109E+02   1.52643652E+01   3.08407097E+01   1.81384109E+02   1.81384109E+02   3.08407097E+01   1.52643652E+01   1.66119736E+02  -7.58297272E+01   1.57173828E+02   2.91555405E+01   1.67492920E+02   3.08407097E+01   4.59851570E+01
              618                2   1.55917877E+02   1.79475037E+02   1.79475037E+02   1.71734314E+01   3.08407097E+01   1.79475037E+02   1.79475037E+02   3.08407097E+01   1.71734314E+01   1.62301605E+02  -7.58297272E+01   1.54561554E+02   3.05827408E+01   1.66065720E+02   3.08407097E+01   4.46827011E+01
              618                3   1.60174698E+02   1.82192993E+02   1.82192993E+02   1.44554749E+01   3.08407097E+01   1.82192993E+02   1.82192993E+02   3.08407097E+01   1.44554749E+01   1.67737518E+02  -7.58297272E+01   1.58272705E+02   2.74568863E+01   1.69191574E+02   3.08407097E+01   4.48529701E+01
              618                4   1.57213272E+02   1.80303879E+02   1.80303879E+02   1.63445911E+01   3.08407097E+01   1.80303879E+02   1.80303879E+02   3.08407097E+01   1.63445911E+01   1.63959290E+02  -7.58297272E+01   1.55699005E+02   2.88315392E+01   1.67816925E+02   3.08407097E+01   4.34905472E+01
              619                1   1.01953506E+02   1.04831322E+02   1.04831322E+02   2.68322301E+00   3.07352304E+00   1.04831322E+02   1.04831322E+02   3.07352304E+00   2.68322301E+00   1.02148094E+02  -3.68626900E+01   1.01951828E+02   5.70333481E+00   1.01811211E+02   3.07352304E+00   1.73025208E+01
              619                2   1.02744057E+02   1.05356689E+02   1.05356689E+02   2.15786052E+00   3.07352304E+00   1.05356689E+02   1.05356689E+02   3.07352304E+00   2.15786052E+00   1.03198830E+02  -3.68626900E+01   1.02734871E+02   5.14019537E+00   1.02374352E+02   3.07352304E+00   1.72881279E+01
              619                3   1.02243134E+02   1.05023949E+02   1.05023949E+02   2.49060225E+00   3.07352304E+00   1.05023949E+02   1.05023949E+02   3.07352304E+00   2.49060225E+00   1.02533348E+02  -3.68626900E+01   1.02239388E+02   5.71060896E+00   1.01803940E+02   3.07352304E+00   1.78826637E+01
              619                4   1.03027130E+02   1.05544487E+02   1.05544487E+02   1.97006094E+00   3.07352304E+00   1.05544487E+02   1.05544487E+02   3.07352304E+00   1.97006094E+00   1.03574425E+02  -3.68626900E+01   1.03013832E+02   5.15042830E+00   1.02364120E+02   3.07352304E+00   1.78686886E+01
              620                1   8.23800278E+01   8.50492401E+01   8.50492401E+01   2.25955844E+00   3.08507586E+00   8.50492401E+01   8.50492401E+01   3.08507586E+00   2.25955844E+00   8.27896805E+01  -3.01312923E+01   8.23707199E+01   1.91598663E+01   6.81489334E+01   3.08507586E+00   3.33699074E+01
              620                2   8.33414383E+01   8.56858368E+01   8.56858368E+01   1.62296736E+00   3.08507586E+00   8.56858368E+01   8.56858368E+01   3.08507586E+00   1.62296736E+00   8.40628738E+01  -3.01312943E+01   8.33125687E+01   1.91081581E+01   6.82006454E+01   3.08507586E+00   3.41192551E+01
              620                3   8.19701614E+01   8.47771378E+01   8.47771378E+01   2.53167057E+00   3.08507586E+00   8.47771378E+01   8.47771378E+01   3.08507586E+00   2.53167057E+00   8.22454681E+01  -3.01312943E+01   8.19659576E+01   1.98712730E+01   6.74375305E+01   3.08507586E+00   3.35476074E+01
              620                4   8.29388580E+01   8.54195557E+01   8.54195557E+01   1.88924539E+00   3.08507586E+00   8.54195557E+01   8.54195557E+01   3.08507586E+00   1.88924539E+00   8.35303116E+01  -3.01312923E+01   8.29194565E+01   1.98163986E+01   6.74924011E+01   3.08507586E+00   3.42939911E+01
              621                1   9.94441757E+01   9.85622482E+01   9.85622482E+01  -9.23281491E-01  -8.40519249E-01   9.85622482E+01   9.85622482E+01  -8.40519249E-01  -9.23281491E-01   9.94855347E+01  -3.22661476E+01   9.94440994E+01   3.97617996E-01   9.72413483E+01  -8.40519249E-01   1.13870945E+01
              621                2   9.93150558E+01   9.84761887E+01   9.84761887E+01  -8.37226331E-01  -8.40519249E-01   9.84761887E+01   9.84761887E+01  -8.37226331E-01  -8.40519249E-01   9.93167038E+01  -3.22661476E+01   9.93150635E+01   4.12059247E-01   9.72269058E+01  -8.40519249E-01   1.10684137E+01
              621                3   9.98900452E+01   9.88591537E+01   9.88591537E+01  -1.22018385E+00  -8.40519249E-01   9.88591537E+01   9.88591537E+01  -8.40519249E-01  -1.22018385E+00   1.00079338E+02  -3.22661476E+01   9.98884277E+01   8.89877751E-02   9.75499802E+01  -8.40519249E-01   1.13713341E+01
              621                4   9.97608795E+01   9.87731857E+01   9.87731857E+01  -1.13422489E+00  -8.40519249E-01   9.87731857E+01   9.87731857E+01  -8.40519249E-01  -1.13422489E+00   9.99074097E+01  -3.22661476E+01   9.97599182E+01   1.03814982E-01   9.75351486E+01  -8.40519249E-01   1.10524406E+01
              622                1   3.87528648E+01   3.95679321E+01   3.95679321E+01   9.23130214E-01   7.07903147E-01   3.95679321E+01   3.95679321E+01   9.23130214E-01   7.07903147E-01   3.88600273E+01  -1.37329893E+01   3.87515182E+01   2.55821228E+00   3.79328499E+01   7.07903147E-01   7.77906990E+00
              622                2   3.88918839E+01   3.96608124E+01   3.96608124E+01   8.30248177E-01   7.07903147E-01   3.96608124E+01   3.96608124E+01   8.30248177E-01   7.07903147E-01   3.89529114E+01  -1.37329893E+01   3.88914490E+01   2.51525235E+00   3.79758110E+01   7.07903147E-01   7.91140842E+00
              622                3   3.86052361E+01   3.94691734E+01   3.94691734E+01   1.02188742E+00   7.07903147E-01   3.94691734E+01   3.94691734E+01   1.02188742E+00   7.07903147E-01   3.87612724E+01  -1.37329893E+01   3.86023636E+01   2.68344212E+00   3.78076210E+01   7.07903147E-01   7.81802225E+00
              622                4   3.87471237E+01   3.95640945E+01   3.95640945E+01   9.26967502E-01   7.07903147E-01   3.95640945E+01   3.95640945E+01   9.26967502E-01   7.07903147E-01   3.88561897E+01  -1.37329893E+01   3.87457275E+01   2.63882136E+00   3.78522415E+01   7.07903147E-01   7.95051241E+00
              623                1   1.66688583E+02   1.96471710E+02   1.96471710E+02   2.58933926E+01   3.39661942E+01   1.96471710E+02   1.96471710E+02   3.39661942E+01   2.58933926E+01   1.70578308E+02  -8.54437637E+01   1.66247894E+02   2.77882729E+01   1.94576828E+02   3.39661942E+01   1.78783150E+01
              623                2   1.70458817E+02   1.98920502E+02   1.98920502E+02   2.34446106E+01   3.39661942E+01   1.98920502E+02   1.98920502E+02   3.39661942E+01   2.34446106E+01   1.75475891E+02  -8.54437637E+01   1.69725922E+02   2.55218620E+01   1.96843246E+02   3.39661942E+01   1.89787540E+01
              623                3   1.65579514E+02   1.95748520E+02   1.95748520E+02   2.66165810E+01   3.39661942E+01   1.95748520E+02   1.95748520E+02   3.39661942E+01   2.66165810E+01   1.69131927E+02  -8.54437637E+01   1.65211914E+02   2.90395260E+01   1.93325577E+02   3.39661942E+01   2.00979042E+01
              623                4   1.69373978E+02   1.98217361E+02   1.98217361E+02   2.41477432E+01   3.39661942E+01   1.98217361E+02   1.98217361E+02   3.39661942E+01   2.41477432E+01   1.74069626E+02  -8.54437637E+01   1.68731903E+02   2.67673283E+01   1.95597778E+02   3.39661942E+01   2.11926594E+01
              624                1   2.07643219E+02   2.34618561E+02   2.34618561E+02   6.43870926E+00   5.67620659E+01   2.34618561E+02   2.34618561E+02   5.67620659E+01   6.43870926E+00   2.28179840E+02  -9.92731094E+01   1.93195068E+02   7.46767092E+00   2.33589600E+02   5.67620659E+01   1.52881842E+01
              624                2   2.07181305E+02   2.34438843E+02   2.34438843E+02   7.07929516E+00   5.63012009E+01   2.34438843E+02   2.34438843E+02   5.63012009E+01   7.07929516E+00   2.27359558E+02  -9.92731094E+01   1.93358063E+02   9.16831589E+00   2.32349823E+02   5.63012009E+01   2.16932163E+01
              624                3   2.06199890E+02   2.34209152E+02   2.34209152E+02   9.06750870E+00   5.45426903E+01   2.34209152E+02   2.34209152E+02   5.45426903E+01   9.06750870E+00   2.25141632E+02  -9.92731094E+01   1.94431274E+02   9.87063217E+00   2.33406021E+02   5.45426903E+01   1.34228277E+01
              624                4   2.05702118E+02   2.34010590E+02   2.34010590E+02   9.79529762E+00   5.40134430E+01   2.34010590E+02   2.34010590E+02   5.40134430E+01   9.79529762E+00   2.24215302E+02  -9.92731094E+01   1.94573181E+02   1.15966139E+01   2.32209274E+02   5.40134430E+01   2.00159702E+01
              625                1   1.96687485E+02   2.18796524E+02   2.18796524E+02   8.94529247E+00   3.86525040E+01   2.18796524E+02   2.18796524E+02   3.86525040E+01   8.94529247E+00   2.09851242E+02  -8.87981033E+01   1.91542435E+02   9.99668121E+00   2.17745132E+02   3.86525040E+01   1.48165903E+01
              625                2   1.95755692E+02   2.18369919E+02   2.18369919E+02   1.05292940E+01   3.74951019E+01   2.18369919E+02   2.18369919E+02   3.74951019E+01   1.05292940E+01   2.07840622E+02  -8.87981033E+01   1.91510223E+02   1.25874815E+01   2.16311737E+02   3.74951019E+01   2.05800457E+01
              625                3   1.95192276E+02   2.18116287E+02   2.18116287E+02   1.15845404E+01   3.66934967E+01   2.18116287E+02   2.18116287E+02   3.66934967E+01   1.15845404E+01   2.06531738E+02  -8.87981033E+01   1.91508347E+02   1.21874523E+01   2.17513367E+02   3.66934967E+01   1.11425886E+01
              625                4   1.94067764E+02   2.17551163E+02   2.17551163E+02   1.34177628E+01   3.54253769E+01   2.17551163E+02   2.17551163E+02   3.54253769E+01   1.34177628E+01   2.04133408E+02  -8.87981033E+01   1.91230103E+02   1.48557863E+01   2.16113144E+02   3.54253769E+01   1.70728226E+01
              626                1   3.81673470E+01   3.25050049E+01   3.25050049E+01  -2.07507372E+00  -8.44745731E+00   3.25050049E+01   3.25050049E+01  -2.07507372E+00  -8.44745731E+00   4.09524612E+01  -7.32749033E+00   3.69419899E+01   2.46240973E-01   3.01836891E+01  -8.44745731E+00   8.65348053E+00
              626                2   3.75976219E+01   3.20837822E+01   3.20837822E+01  -1.65385342E+00  -8.44745731E+00   3.20837822E+01   3.20837822E+01  -1.65385342E+00  -8.44745731E+00   4.05312424E+01  -7.32749033E+00   3.61778603E+01   6.90668285E-01   2.97392616E+01  -8.44745731E+00   8.57915115E+00
              626                3   3.79693871E+01   3.23591003E+01   3.23591003E+01  -1.92917168E+00  -8.44745731E+00   3.23591003E+01   3.23591003E+01  -1.92917168E+00  -8.44745731E+00   4.08065605E+01  -7.32749033E+00   3.66787872E+01   1.59475133E-01   3.02704544E+01  -8.44745731E+00   8.20083237E+00
              626                4   3.73976479E+01   3.19349518E+01   3.19349518E+01  -1.50502121E+00  -8.44745731E+00   3.19349518E+01   3.19349518E+01  -1.50502121E+00  -8.44745731E+00   4.03824081E+01  -7.32749033E+00   3.59046707E+01   6.04443491E-01   2.98254871E+01  -8.44745731E+00   8.12961102E+00
              627                1   1.51813873E+02   1.66884842E+02   1.66884842E+02   4.96225977E+00   2.77577801E+01   1.66884842E+02   1.66884842E+02   2.77577801E+01   4.96225977E+00   1.61922592E+02  -6.65349655E+01   1.47889847E+02   4.80253716E+01   1.23821739E+02   2.77577801E+01   7.15434036E+01
              627                2   1.53615829E+02   1.68010025E+02   1.68010025E+02   3.83708096E+00   2.77577801E+01   1.68010025E+02   1.68010025E+02   2.77577801E+01   3.83708096E+00   1.64172943E+02  -6.65349655E+01   1.49339294E+02   4.49756851E+01   1.26871429E+02   2.77577801E+01   7.11439438E+01
              627                3   1.56172745E+02   1.69602844E+02   1.69602844E+02   2.24426889E+00   2.77577801E+01   1.69602844E+02   1.69602844E+02   2.77577801E+01   2.24426889E+00   1.67358566E+02  -6.65349655E+01   1.51377213E+02   4.76920357E+01   1.24155075E+02   2.77577801E+01   7.44350281E+01
              627                4   1.58071548E+02   1.70782959E+02   1.70782959E+02   1.06414759E+00   2.77577801E+01   1.70782959E+02   1.70782959E+02   2.77577801E+01   1.06414759E+00   1.69718811E+02  -6.65349655E+01   1.52876877E+02   4.44327087E+01   1.27414398E+02   2.77577801E+01   7.40245132E+01
              628                1   1.17802612E+02   1.38175140E+02   1.38175140E+02   1.97654915E+01   2.09890766E+01   1.38175140E+02   1.38175140E+02   2.09890766E+01   1.97654915E+01   1.18409645E+02  -5.96432343E+01   1.17788315E+02   2.04007969E+01   1.37539825E+02   2.09890766E+01   8.65001965E+00
              628                2   1.17940948E+02   1.38266861E+02   1.38266861E+02   1.96737595E+01   2.09890766E+01   1.38266861E+02   1.38266861E+02   2.09890766E+01   1.96737595E+01   1.18593109E+02  -5.96432343E+01   1.17924454E+02   2.03392220E+01   1.37601410E+02   2.09890766E+01   8.85866547E+00
              628                3   1.17502815E+02   1.37976212E+02   1.37976212E+02   1.99644165E+01   2.09890766E+01   1.37976212E+02   1.37976212E+02   2.09890766E+01   1.99644165E+01   1.18011795E+02  -5.96432343E+01   1.17492767E+02   2.06094227E+01   1.37331207E+02   2.09890766E+01   8.70068932E+00
              628                4   1.17641350E+02   1.38068146E+02   1.38068146E+02   1.98724689E+01   2.09890766E+01   1.38068146E+02   1.38068146E+02   2.09890766E+01   1.98724689E+01   1.18195671E+02  -5.96432304E+01   1.17629433E+02   2.05478897E+01   1.37392731E+02   2.09890766E+01   8.90927219E+00
              629                1   2.13971832E+02   2.18102966E+02   2.18102966E+02  -1.58079147E+00   1.03415890E+01   2.18102966E+02   2.18102966E+02   1.03415890E+01  -1.58079147E+00   2.19683746E+02  -7.56212540E+01   2.13222580E+02  -1.55813873E+00   2.18080307E+02   1.03415890E+01   2.23081183E+00
              629                2   2.14258209E+02   2.18247406E+02   2.18247406E+02  -2.43941665E+00   1.10557709E+01   2.18247406E+02   2.18247406E+02   1.10557709E+01  -2.43941665E+00   2.20686813E+02  -7.56212540E+01   2.13298859E+02  -2.42998075E+00   2.18237961E+02   1.10557709E+01   1.44326460E+00
              629                3   2.14085571E+02   2.18152832E+02   2.18152832E+02  -2.05592585E+00   1.07668495E+01   2.18152832E+02   2.18152832E+02   1.07668495E+01  -2.05592585E+00   2.20208755E+02  -7.56212540E+01   2.13219009E+02  -1.98434496E+00   2.18081253E+02   1.07668495E+01   3.96959901E+00
              629                4   2.14368881E+02   2.18292694E+02   2.18292694E+02  -2.90131664E+00   1.14723911E+01   2.18292694E+02   2.18292694E+02   1.14723911E+01  -2.90131664E+00   2.21194000E+02  -7.56212540E+01   2.13280624E+02  -2.85536647E+00   2.18246735E+02   1.14723911E+01   3.18791151E+00
              630                1   3.51203194E+01   2.96658688E+01   2.96658688E+01  -1.12139189E+00  -8.58700752E+00   2.96658688E+01   2.96658688E+01  -1.12139189E+00  -8.58700752E+00   3.82528763E+01  -6.65249014E+00   3.32639847E+01   6.74521089E-01   2.78699570E+01  -8.58700752E+00   7.21567202E+00
              630                2   3.56652832E+01   3.00780106E+01   3.00780106E+01  -1.53353381E+00  -8.58700752E+00   3.00780106E+01   3.00780106E+01  -1.53353381E+00  -8.58700752E+00   3.86650200E+01  -6.65249014E+00   3.40425606E+01   2.46915519E-01   2.82975616E+01  -8.58700752E+00   7.28785038E+00
              630                3   3.52904510E+01   2.97950268E+01   2.97950268E+01  -1.25054920E+00  -8.58700752E+00   2.97950268E+01   2.97950268E+01  -1.25054920E+00  -8.58700752E+00   3.83820343E+01  -6.65249014E+00   3.35096474E+01   7.65961289E-01   2.77785168E+01  -8.58700752E+00   7.65097380E+00
              630                4   3.58325081E+01   3.02035866E+01   3.02035866E+01  -1.65910828E+00  -8.58700752E+00   3.02035866E+01   3.02035866E+01  -1.65910828E+00  -8.58700752E+00   3.87905922E+01  -6.65249014E+00   3.42767792E+01   3.38427901E-01   2.82060490E+01  -8.58700752E+00   7.72377825E+00
              631                1   3.35558319E+01   2.79437618E+01   2.79437618E+01  -1.24532402E+00  -8.71866798E+00   2.79437618E+01   2.79437618E+01  -1.24532402E+00  -8.71866798E+00   3.66624298E+01  -5.99325705E+00   3.16009693E+01   3.95368040E-01   2.63030701E+01  -8.71866798E+00   6.72297907E+00
              631                2   3.30412521E+01   2.75470200E+01   2.75470200E+01  -8.48582387E-01  -8.71866798E+00   2.75470200E+01   2.75470200E+01  -8.48582387E-01  -8.71866798E+00   3.62656860E+01  -5.99325609E+00   3.08247623E+01   8.02435338E-01   2.58960018E+01  -8.71866798E+00   6.64498091E+00
              631                3   3.34269867E+01   2.78448734E+01   2.78448734E+01  -1.14643395E+00  -8.71866798E+00   2.78448734E+01   2.78448734E+01  -1.14643395E+00  -8.71866798E+00   3.65635414E+01  -5.99325705E+00   3.14090939E+01   2.98406750E-01   2.64000320E+01  -8.71866798E+00   6.30874395E+00
              631                4   3.29095306E+01   2.74446735E+01   2.74446735E+01  -7.46234298E-01  -8.71866798E+00   2.74446735E+01   2.74446735E+01  -7.46234298E-01  -8.71866798E+00   3.61633415E+01  -5.99325705E+00   3.06216640E+01   7.05592513E-01   2.59928455E+01  -8.71866798E+00   6.23061228E+00
              632                1   1.07657059E+02   1.14495110E+02   1.14495110E+02   6.33813190E+00   7.34503555E+00   1.14495110E+02   1.14495110E+02   7.34503555E+00   6.33813190E+00   1.08156982E+02  -4.27260933E+01   1.07646461E+02   9.06679630E+00   1.11766449E+02   7.34503555E+00   1.69610844E+01
              632                2   1.07501595E+02   1.14391922E+02   1.14391922E+02   6.44132090E+00   7.34503555E+00   1.14391922E+02   1.14391922E+02   7.34503555E+00   6.44132090E+00   1.07950600E+02  -4.27260933E+01   1.07493042E+02   9.04120445E+00   1.11792038E+02   7.34503555E+00   1.65499191E+01
              632                3   1.08246994E+02   1.14886246E+02   1.14886246E+02   5.94700098E+00   7.34503555E+00   1.14886246E+02   1.14886246E+02   7.34503555E+00   5.94700098E+00   1.08939240E+02  -4.27260933E+01   1.08226677E+02   8.65638542E+00   1.12176857E+02   7.34503555E+00   1.69651909E+01
              632                4   1.08087006E+02   1.14780235E+02   1.14780235E+02   6.05301571E+00   7.34503555E+00   1.14780235E+02   1.14780235E+02   7.34503555E+00   6.05301571E+00   1.08727219E+02  -4.27260933E+01   1.08069626E+02   8.63458633E+00   1.12198662E+02   7.34503555E+00   1.65536366E+01
              633                1   2.70059662E+01   2.30220509E+01   2.30220509E+01  -1.78767800E-01  -6.62312984E+00   2.30220509E+01   2.30220509E+01  -1.78767800E-01  -6.62312984E+00   2.96451797E+01  -5.40671778E+00   2.51873150E+01   1.69077530E+01   5.93552923E+00  -6.62312984E+00   1.02211580E+01
              633                2   2.60877705E+01   2.22991104E+01   2.22991104E+01   5.44172347E-01  -6.62312984E+00   2.22991104E+01   2.22991104E+01   5.44172347E-01  -6.62312984E+00   2.89222393E+01  -5.40671778E+00   2.37164421E+01   1.67245464E+01   6.11873579E+00  -6.62312984E+00   9.49729061E+00
              633                3   2.67629547E+01   2.28327751E+01   2.28327751E+01   1.05059212E-02  -6.62312984E+00   2.28327751E+01   2.28327751E+01   1.05059212E-02  -6.62312984E+00   2.94559040E+01  -5.40671682E+00   2.48100338E+01   1.61430817E+01   6.70020008E+00  -6.62312984E+00   1.03885508E+01
              633                4   2.58273335E+01   2.20899353E+01   2.20899353E+01   7.53348231E-01  -6.62312984E+00   2.20899353E+01   2.20899353E+01   7.53348231E-01  -6.62312984E+00   2.87130642E+01  -5.40671778E+00   2.32744999E+01   1.59363947E+01   6.90688753E+00  -6.62312984E+00   9.66589260E+00
              634                1   1.09002441E+02   1.19764984E+02   1.19764984E+02   5.73760605E+00   1.66009979E+01   1.19764984E+02   1.19764984E+02   1.66009979E+01   5.73760605E+00   1.14027382E+02  -4.73678627E+01   1.07774452E+02   4.00095215E+01   8.54930725E+01   1.66009979E+01   5.22816658E+01
              634                2   1.11496628E+02   1.21350639E+02   1.21350639E+02   4.15195608E+00   1.66009979E+01   1.21350639E+02   1.21350639E+02   1.66009979E+01   4.15195608E+00   1.17198685E+02  -4.73678627E+01   1.09916718E+02   4.02251282E+01   8.52774658E+01   1.66009979E+01   5.40967140E+01
              634                3   1.07642052E+02   1.18896828E+02   1.18896828E+02   6.60576916E+00   1.66009979E+01   1.18896828E+02   1.18896828E+02   1.66009979E+01   6.60576916E+00   1.12291054E+02  -4.73678627E+01   1.06590492E+02   4.19549332E+01   8.35476608E+01   1.66009979E+01   5.21520042E+01
              634                4   1.10143982E+02   1.20491653E+02   1.20491653E+02   5.01094055E+00   1.66009979E+01   1.20491653E+02   1.20491653E+02   1.66009979E+01   5.01094055E+00   1.15480713E+02  -4.73678627E+01   1.08759384E+02   4.21975288E+01   8.33050690E+01   1.66009979E+01   5.39582367E+01
              635                1   2.07479996E+02   2.04579407E+02   2.04579407E+02  -6.80155897E+00   1.23384368E+00   2.04579407E+02   2.04579407E+02   1.23384368E+00  -6.80155897E+00   2.11380966E+02  -6.63372269E+01   2.07129471E+02  -6.64386606E+00   2.04421707E+02   1.23384368E+00   5.77145386E+00
              635                2   2.06583847E+02   2.04009323E+02   2.04009323E+02  -5.72733116E+00   7.29695261E-01   2.04009323E+02   2.04009323E+02   7.29695261E-01  -5.72733116E+00   2.09736664E+02  -6.63372269E+01   2.06356613E+02  -5.50984812E+00   2.03791840E+02   7.29695261E-01   6.75041723E+00
              635                3   2.07469360E+02   2.04578934E+02   2.04578934E+02  -6.62673664E+00   1.05950582E+00   2.04578934E+02   2.04578934E+02   1.05950582E+00  -6.62673664E+00   2.11205673E+02  -6.63372345E+01   2.07148636E+02  -6.57275677E+00   2.04524948E+02   1.05950582E+00   3.37617421E+00
              635                4   2.06400406E+02   2.03896698E+02   2.03896698E+02  -5.34408903E+00   4.59068626E-01   2.03896698E+02   2.03896698E+02   4.59068626E-01  -5.34408903E+00   2.09240784E+02  -6.63372269E+01   2.06216721E+02  -5.24812222E+00   2.03800735E+02   4.59068626E-01   4.48003721E+00
              636                1   9.91995926E+01   1.01276794E+02   1.01276794E+02   1.76453876E+00   2.39285183E+00   1.01276794E+02   1.01276794E+02   2.39285183E+00   1.76453876E+00   9.95122604E+01  -3.51447296E+01   9.91951141E+01   6.62577581E+00   9.64155579E+01   2.39285183E+00   2.14504375E+01
              636                2   9.87682648E+01   1.00989944E+02   1.00989944E+02   2.05139375E+00   2.39285183E+00   1.00989944E+02   1.00989944E+02   2.39285183E+00   2.05139375E+00   9.89385452E+01  -3.51447296E+01   9.87669296E+01   6.59193134E+00   9.64494019E+01   2.39285183E+00   2.07030907E+01
              636                3   1.00182053E+02   1.01928673E+02   1.01928673E+02   1.11265397E+00   2.39285183E+00   1.01928673E+02   1.01928673E+02   2.39285183E+00   1.11265397E+00   1.00816017E+02  -3.51447258E+01   1.00163651E+02   5.92012215E+00   9.71212082E+01   2.39285183E+00   2.14838982E+01
              636                4   9.97536011E+01   1.01644638E+02   1.01644638E+02   1.39669561E+00   2.39285183E+00   1.01644638E+02   1.01644638E+02   2.39285183E+00   1.39669561E+00   1.00247948E+02  -3.51447296E+01   9.97424011E+01   5.88918209E+00   9.71521530E+01   2.39285183E+00   2.07407856E+01
              637                1   4.31318512E+01   3.62642593E+01   3.62642593E+01  -2.69663048E+00  -1.00842609E+01   3.62642593E+01   3.62642593E+01  -2.69663048E+00  -1.00842609E+01   4.63485184E+01  -7.82778883E+00   4.16726303E+01   2.62437892E+00   3.09432468E+01  -1.00842609E+01   1.33790178E+01
              637                2   4.39599762E+01   3.68718376E+01   3.68718376E+01  -3.30421329E+00  -1.00842609E+01   3.68718376E+01   3.68718376E+01  -3.30421329E+00  -1.00842609E+01   4.69560966E+01  -7.82778740E+00   4.27598801E+01   1.90961432E+00   3.16580105E+01  -1.00842609E+01   1.35013695E+01
              637                3   4.36991158E+01   3.66812096E+01   3.66812096E+01  -3.11358356E+00  -1.00842609E+01   3.66812096E+01   3.66812096E+01  -3.11358356E+00  -1.00842609E+01   4.67654724E+01  -7.82778883E+00   4.24211769E+01   2.83507013E+00   3.07325554E+01  -1.00842609E+01   1.41893969E+01
              637                4   4.45746841E+01   3.73184090E+01   3.73184090E+01  -3.75078392E+00  -1.00842609E+01   3.73184090E+01   3.73184090E+01  -3.75078392E+00  -1.00842609E+01   4.74026718E+01  -7.82778883E+00   4.35451012E+01   2.12543678E+00   3.14421883E+01  -1.00842609E+01   1.43806019E+01
              638                1   1.77889603E+02   2.07043625E+02   2.07043625E+02   2.19751225E+01   3.73281326E+01   2.07043625E+02   2.07043625E+02   3.73281326E+01   2.19751225E+01   1.85068512E+02  -8.87822952E+01   1.76389755E+02   2.89116535E+01   2.00107101E+02   3.73281326E+01   3.51513557E+01
              638                2   1.81988083E+02   2.09663147E+02   2.09663147E+02   1.93556118E+01   3.73281326E+01   2.09663147E+02   2.09663147E+02   3.73281326E+01   1.93556118E+01   1.90307526E+02  -8.87822952E+01   1.79975220E+02   2.64922390E+01   2.02526520E+02   3.73281326E+01   3.61555176E+01
              638                3   1.77292053E+02   2.06660583E+02   2.06660583E+02   2.23581905E+01   3.73281326E+01   2.06660583E+02   2.06660583E+02   3.73281326E+01   2.23581905E+01   1.84302383E+02  -8.87822952E+01   1.75861710E+02   3.03933182E+01   1.98625443E+02   3.73281326E+01   3.76341782E+01
              638                4   1.81434097E+02   2.09309845E+02   2.09309845E+02   1.97089062E+01   3.73281326E+01   2.09309845E+02   2.09309845E+02   3.73281326E+01   1.97089062E+01   1.89600937E+02  -8.87822952E+01   1.79494217E+02   2.79623604E+01   2.01056396E+02   3.73281326E+01   3.86877556E+01
              639                1   4.51297951E+01   4.43405876E+01   4.43405876E+01  -3.43329459E-01  -1.22224998E+00   4.43405876E+01   4.43405876E+01  -3.43329459E-01  -1.22224998E+00   4.55628357E+01  -1.42583361E+01   4.51105309E+01   1.40126896E+00   4.25959892E+01  -1.22224998E+00   8.65516186E+00
              639                2   4.53852768E+01   4.45124321E+01   4.45124321E+01  -5.15175819E-01  -1.22224998E+00   4.45124321E+01   4.45124321E+01  -5.15175819E-01  -1.22224998E+00   4.57346840E+01  -1.42583361E+01   4.53728790E+01   1.30836904E+00   4.26888885E+01  -1.22224998E+00   8.87606525E+00
              639                3   4.49249573E+01   4.42025528E+01   4.42025528E+01  -2.05295637E-01  -1.22224998E+00   4.42025528E+01   4.42025528E+01  -2.05295637E-01  -1.22224998E+00   4.54248047E+01  -1.42583361E+01   4.48990479E+01   1.57352173E+00   4.24237366E+01  -1.22224998E+00   8.70799732E+00
              639                4   4.51670914E+01   4.43656960E+01   4.43656960E+01  -3.68437767E-01  -1.22224998E+00   4.43656960E+01   4.43656960E+01  -3.68437767E-01  -1.22224998E+00   4.55879440E+01  -1.42583361E+01   4.51489258E+01   1.48810232E+00   4.25091553E+01  -1.22224998E+00   8.92210484E+00
              640                1   2.04753555E+02   2.00891830E+02   2.00891830E+02  -6.97136974E+00  -6.03538930E-01   2.00891830E+02   2.00891830E+02  -6.03538930E-01  -6.97136974E+00   2.07863190E+02  -6.44389725E+01   2.04530594E+02  -6.82856178E+00   2.00749023E+02  -6.03538930E-01   5.44636917E+00
              640                2   2.03965332E+02   2.00386383E+02   2.00386383E+02  -5.98618126E+00  -1.08329666E+00   2.00386383E+02   2.00386383E+02  -1.08329666E+00  -5.98618126E+00   2.06372574E+02  -6.44389725E+01   2.03832687E+02  -5.79279947E+00   2.00193008E+02  -1.08329666E+00   6.31434584E+00
              640                3   2.04578461E+02   2.00785965E+02   2.00785965E+02  -6.54632330E+00  -9.22718227E-01   2.00785965E+02   2.00785965E+02  -9.22718227E-01  -6.54632330E+00   2.07332291E+02  -6.44389725E+01   2.04404434E+02  -6.49045086E+00   2.00730087E+02  -9.22718227E-01   3.40317917E+00
              640                4   2.03716232E+02   2.00229980E+02   2.00229980E+02  -5.46523190E+00  -1.44783807E+00   2.00229980E+02   2.00229980E+02  -1.44783807E+00  -5.46523190E+00   2.05695221E+02  -6.44389725E+01   2.03627090E+02  -5.37419224E+00   2.00138947E+02  -1.44783807E+00   4.32647085E+00
              641                1   1.08607292E+02   1.15871048E+02   1.15871048E+02   6.93882418E+00   7.59163237E+00   1.15871048E+02   1.15871048E+02   7.59163237E+00   6.93882418E+00   1.08932228E+02  -4.34671669E+01   1.08602882E+02   8.43502045E+00   1.14374855E+02   7.59163237E+00   1.26785412E+01
              641                2   1.08606697E+02   1.15870651E+02   1.15870651E+02   6.93922329E+00   7.59163237E+00   1.15870651E+02   1.15870651E+02   7.59163237E+00   6.93922329E+00   1.08931427E+02  -4.34671669E+01   1.08602287E+02   8.38374901E+00   1.14426125E+02   7.59163237E+00   1.24606504E+01
              641                3   1.08934319E+02   1.16088310E+02   1.16088310E+02   6.72156715E+00   7.59163237E+00   1.16088310E+02   1.16088310E+02   7.59163237E+00   6.72156715E+00   1.09366737E+02  -4.34671669E+01   1.08926498E+02   8.22574520E+00   1.14584129E+02   7.59163237E+00   1.27375269E+01
              641                4   1.08933365E+02   1.16087677E+02   1.16087677E+02   6.72219563E+00   7.59163237E+00   1.16087677E+02   1.16087677E+02   7.59163237E+00   6.72219563E+00   1.09365486E+02  -4.34671669E+01   1.08925568E+02   8.17475319E+00   1.14635124E+02   7.59163237E+00   1.25199661E+01
              642                1   6.64535217E+01   6.00642700E+01   6.00642700E+01  -4.87821198E+00  -7.80367231E+00   6.00642700E+01   6.00642700E+01  -4.87821198E+00  -7.80367231E+00   6.78679428E+01  -1.57941284E+01   6.63084106E+01   2.14692855E+00   5.30391312E+01  -7.80367231E+00   2.01712017E+01
              642                2   6.59689560E+01   5.97332230E+01   5.97332230E+01  -4.54716253E+00  -7.80367231E+00   5.97332230E+01   5.97332230E+01  -4.54716253E+00  -7.80367231E+00   6.75368958E+01  -1.57941294E+01   6.57877426E+01   2.00746393E+00   5.31785965E+01  -7.80367231E+00   1.94517574E+01
              642                3   6.76641388E+01   6.08872185E+01   6.08872185E+01  -5.70115948E+00  -7.80367231E+00   6.08872185E+01   6.08872185E+01  -5.70115948E+00  -7.80367231E+00   6.86908875E+01  -1.57941284E+01   6.75905838E+01   1.38277113E+00   5.38032875E+01  -7.80367231E+00   2.05310822E+01
              642                4   6.69139023E+01   6.03779030E+01   6.03779030E+01  -5.19184542E+00  -7.80367231E+00   6.03779030E+01   6.03779030E+01  -5.19184542E+00  -7.80367231E+00   6.81815720E+01  -1.57941284E+01   6.67990723E+01   1.29838228E+00   5.38876762E+01  -7.80367231E+00   1.95816116E+01
              643                1   2.10922337E+01   1.21200418E+01   1.21200418E+01   2.18743198E-02  -1.22349987E+01   1.21200418E+01  -1.22349987E+01   2.18743198E-02  -1.22349987E+01   2.43550415E+01   3.10274754E-02  -4.73122025E+00   2.51867223E+00   9.62324429E+00  -1.22349987E+01   4.89619017E+00
              643                2   2.13291149E+01   1.23908501E+01   1.23908501E+01  -2.48933703E-01  -1.22349987E+01   1.23908501E+01   1.23908501E+01  -2.48933703E-01  -1.22349987E+01   2.46258488E+01   3.10274754E-02   7.64007187E+00   2.11608076E+00   1.00258360E+01  -1.22349987E+01   4.92950058E+00
              643                3   2.13509903E+01   1.24154243E+01   1.24154243E+01  -2.73507446E-01  -1.22349987E+01   1.24154243E+01   1.24154243E+01  -2.73507446E-01  -1.22349987E+01   2.46504230E+01   3.10271587E-02   7.92231846E+00   2.60185695E+00   9.54006004E+00  -1.22349987E+01   5.31202269E+00
              643                4   2.15860157E+01   1.26751986E+01   1.26751986E+01  -5.33282518E-01  -1.22349987E+01   1.26751986E+01   1.26751986E+01  -5.33282518E-01  -1.22349987E+01   2.49101982E+01   3.10274754E-02   1.01685400E+01   2.19754601E+00   9.94437027E+00  -1.22349987E+01   5.34908152E+00
              644                1   5.06754456E+01   4.93396988E+01   4.93396988E+01  -1.13053119E+00  -1.53849971E+00   4.93396988E+01   4.93396988E+01  -1.13053119E+00  -1.53849971E+00   5.08781967E+01  -1.55568895E+01   5.06717491E+01   3.54375243E-01   4.78547935E+01  -1.53849971E+00   8.52869034E+00
              644                2   5.04496994E+01   4.91884727E+01   4.91884727E+01  -9.79308724E-01  -1.53849971E+00   4.91884727E+01   4.91884727E+01  -9.79308724E-01  -1.53849971E+00   5.07269707E+01  -1.55568886E+01   5.04427261E+01   5.64927876E-01   4.76442375E+01  -1.53849971E+00   8.66522789E+00
              644                3   5.03459358E+01   4.91188850E+01   4.91188850E+01  -9.09715712E-01  -1.53849971E+00   4.91188850E+01   4.91188850E+01  -9.09715712E-01  -1.53849971E+00   5.06573830E+01  -1.55568895E+01   5.03370972E+01   5.04795134E-01   4.77043724E+01  -1.53849971E+00   8.29247570E+00
              644                4   5.01066437E+01   4.89582062E+01   4.89582062E+01  -7.49039888E-01  -1.53849971E+00   4.89582062E+01   4.89582062E+01  -7.49039888E-01  -1.53849971E+00   5.04967079E+01  -1.55568895E+01   5.00926437E+01   7.23604560E-01   4.74855614E+01  -1.53849971E+00   8.42807770E+00
              645                1   3.87717361E+01   3.86518440E+01   3.86518440E+01   2.69071996E-01  -4.97484684E-01   3.86518440E+01   3.86518440E+01   2.69071996E-01  -4.97484684E-01   3.91493301E+01  -1.28078108E+01   3.87546806E+01   1.75274563E+00   3.71681709E+01  -4.97484684E-01   7.39907122E+00
              645                2   3.85692520E+01   3.85153580E+01   3.85153580E+01   4.05557901E-01  -4.97484684E-01   3.85153580E+01   3.85153580E+01   4.05557901E-01  -4.97484684E-01   3.90128441E+01  -1.28078108E+01   3.85454559E+01   1.90553606E+00   3.70153809E+01  -4.97484684E-01   7.41039515E+00
              645                3   3.86635017E+01   3.85789223E+01   3.85789223E+01   3.41995329E-01  -4.97484684E-01   3.85789223E+01   3.85789223E+01   3.41995329E-01  -4.97484684E-01   3.90764084E+01  -1.28078108E+01   3.86429901E+01   1.76546144E+00   3.71554565E+01  -4.97484684E-01   7.23897076E+00
              645                4   3.84580193E+01   3.84402695E+01   3.84402695E+01   4.80647326E-01  -4.97484684E-01   3.84402695E+01   3.84402695E+01   4.80647326E-01  -4.97484684E-01   3.89377556E+01  -1.28078108E+01   3.84300194E+01   1.91946638E+00   3.70014496E+01  -4.97484684E-01   7.24892282E+00
              646                1   4.36811829E+01   3.67302551E+01   3.67302551E+01  -2.93330288E+00  -1.00857334E+01   3.67302551E+01   3.67302551E+01  -2.93330288E+00  -1.00857334E+01   4.68159866E+01  -7.90373945E+00   4.23335838E+01   3.69180846E+00   3.01051426E+01  -1.00857334E+01   1.47947083E+01
              646                2   4.31822128E+01   3.63625946E+01   3.63625946E+01  -2.56564522E+00  -1.00857334E+01   3.63625946E+01   3.63625946E+01  -2.56564522E+00  -1.00857334E+01   4.64483299E+01  -7.90373945E+00   4.16706505E+01   3.38468933E+00   3.04122620E+01  -1.00857334E+01   1.40081968E+01
              646                3   4.47223587E+01   3.74892654E+01   3.74892654E+01  -3.69231486E+00  -1.00857334E+01   3.74892654E+01   3.74892654E+01  -3.69231486E+00  -1.00857334E+01   4.75750008E+01  -7.90373945E+00   4.36764412E+01   2.98038316E+00   3.08165684E+01  -1.00857334E+01   1.51745625E+01
              646                4   4.41634903E+01   3.70831757E+01   3.70831757E+01  -3.28622389E+00  -1.00857334E+01   3.70831757E+01   3.70831757E+01  -3.28622389E+00  -1.00857334E+01   4.71689072E+01  -7.90373945E+00   4.29621429E+01   2.67244029E+00   3.11245117E+01  -1.00857334E+01   1.43192873E+01
              647                1   1.97591751E+02   2.27704269E+02   2.27704269E+02   1.51781034E+01   4.95595360E+01   2.27704269E+02   2.27704269E+02   4.95595360E+01   1.51781034E+01   2.12526169E+02  -9.74806290E+01   1.90687042E+02   2.15332279E+01   2.21349136E+02   4.95595360E+01   3.61972885E+01
              647                2   1.96315018E+02   2.27317047E+02   2.27317047E+02   1.83003311E+01   4.68245277E+01   2.27317047E+02   2.27317047E+02   4.68245277E+01   1.83003311E+01   2.09016724E+02  -9.74806442E+01   1.91569519E+02   2.38843784E+01   2.21733002E+02   4.68245277E+01   3.37042847E+01
              647                3   1.98262405E+02   2.27956863E+02   2.27956863E+02   1.39497929E+01   5.05352478E+01   2.27956863E+02   2.27956863E+02   5.05352478E+01   1.39497929E+01   2.14007080E+02  -9.74806290E+01   1.90444473E+02   1.80689812E+01   2.23837677E+02   5.05352478E+01   2.94035473E+01
              647                4   1.97013290E+02   2.27593109E+02   2.27593109E+02   1.68958416E+01   4.79529533E+01   2.27593109E+02   2.27593109E+02   4.79529533E+01   1.68958416E+01   2.10697266E+02  -9.74806290E+01   1.91389435E+02   2.03141098E+01   2.24174835E+02   4.79529533E+01   2.66183567E+01
              648                1   1.85521118E+02   1.97356094E+02   1.97356094E+02   4.03196907E+00   2.07726650E+01   1.97356094E+02   1.97356094E+02   2.07726650E+01   4.03196907E+00   1.93324127E+02  -7.40535736E+01   1.83810287E+02   4.69447041E+00   1.96693588E+02   2.07726650E+01   1.12977486E+01
              648                2   1.83580643E+02   1.96219193E+02   1.96219193E+02   6.59718084E+00   1.93443546E+01   1.96219193E+02   1.96219193E+02   1.93443546E+01   6.59718084E+00   1.89622009E+02  -7.40535812E+01   1.82580963E+02   6.94553375E+00   1.95870850E+02   1.93443546E+01   8.11988640E+00
              648                3   1.86840302E+02   1.98109207E+02   1.98109207E+02   2.32610822E+00   2.17254105E+01   1.98109207E+02   1.98109207E+02   2.17254105E+01   2.32610822E+00   1.95783096E+02  -7.40535812E+01   1.84554123E+02   2.58830595E+00   1.97847015E+02   2.17254105E+01   7.15992117E+00
              648                4   1.84889587E+02   1.96990784E+02   1.96990784E+02   4.86803484E+00   2.03018894E+01   1.96990784E+02   1.96990784E+02   2.03018894E+01   4.86803484E+00   1.92122757E+02  -7.40535736E+01   1.83431885E+02   4.94417477E+00   1.96914658E+02   2.03018894E+01   3.82376027E+00
              649                1   4.19250183E+01   4.74571838E+01   4.74571838E+01   5.57719851E+00   5.48727894E+00   4.74571838E+01   4.74571838E+01   5.57719851E+00   5.48727894E+00   4.19699059E+01  -1.95072193E+01   4.19248009E+01   5.70992279E+00   4.73244591E+01   5.48727894E+00   2.35390806E+00
              649                2   4.22982941E+01   4.77059326E+01   4.77059326E+01   5.32844925E+00   5.48727894E+00   4.77059326E+01   4.77059326E+01   5.48727894E+00   5.32844925E+00   4.23774834E+01  -1.95072193E+01   4.22976227E+01   5.46613979E+00   4.75682411E+01   5.48727894E+00   2.41164923E+00
              649                3   4.18847809E+01   4.74303284E+01   4.74303284E+01   5.60405540E+00   5.48727894E+00   4.74303284E+01   4.74303284E+01   5.60405540E+00   5.48727894E+00   4.19430466E+01  -1.95072193E+01   4.18844147E+01   5.76516199E+00   4.72692184E+01   5.48727894E+00   2.59086823E+00
              649                4   4.22569809E+01   4.76784363E+01   4.76784363E+01   5.35594463E+00   5.48727894E+00   4.76784363E+01   4.76784363E+01   5.48727894E+00   5.35594463E+00   4.23224945E+01  -1.95072193E+01   4.22565193E+01   5.52228785E+00   4.75120926E+01   5.48727894E+00   2.64810324E+00
              650                1   1.94852051E+02   1.91600708E+02   1.91600708E+02  -4.01132059E+00  -2.48236275E+00   1.91600708E+02   1.91600708E+02  -2.48236275E+00  -4.01132059E+00   1.95612030E+02  -6.17023430E+01   1.94838547E+02  -3.97150517E+00   1.91560898E+02  -2.48236275E+00   2.79024529E+00
              650                2   1.95220825E+02   1.91845535E+02   1.91845535E+02  -4.25578165E+00  -2.48271799E+00   1.91845535E+02   1.91845535E+02  -2.48271799E+00  -4.25578165E+00   1.96101318E+02  -6.17023468E+01   1.95202698E+02  -4.19430351E+00   1.91784058E+02  -2.48271799E+00   3.47156668E+00
              650                3   1.93935516E+02   1.90991592E+02   1.90991592E+02  -3.40276098E+00  -2.48179317E+00   1.90991592E+02   1.90991592E+02  -2.48179317E+00  -3.40276098E+00   1.94394363E+02  -6.17023468E+01   1.93930603E+02  -3.35679579E+00   1.90945633E+02  -2.48179317E+00   2.98884153E+00
              650                4   1.94317551E+02   1.91245605E+02   1.91245605E+02  -3.65640664E+00  -2.48215580E+00   1.91245605E+02   1.91245605E+02  -2.48215580E+00  -3.65640664E+00   1.94902023E+02  -6.17023468E+01   1.94309570E+02  -3.58728623E+00   1.91176483E+02  -2.48215580E+00   3.66989207E+00
              651                1   4.02471008E+01   3.35697021E+01   3.35697021E+01  -2.52858710E+00  -9.82730198E+00   3.35697021E+01   3.35697021E+01  -2.52858710E+00  -9.82730198E+00   4.33970070E+01  -7.07127142E+00   3.87159233E+01   1.50230396E+00   2.95388126E+01  -9.82730198E+00   1.13692656E+01
              651                2   3.99235229E+01   3.33285484E+01   3.33285484E+01  -2.28743219E+00  -9.82730198E+00   3.33285484E+01   3.33285484E+01  -2.28743219E+00  -9.82730198E+00   4.31558495E+01  -7.07127142E+00   3.82721710E+01   1.34630096E+00   2.96948166E+01  -9.82730198E+00   1.07803030E+01
              651                3   4.10231018E+01   3.41429558E+01   3.41429558E+01  -3.10183764E+00  -9.82730198E+00   3.41429558E+01   3.41429558E+01  -3.10183764E+00  -9.82730198E+00   4.39702568E+01  -7.07127142E+00   3.97543144E+01   9.34298396E-01   3.01068192E+01  -9.82730198E+00   1.15773325E+01
              651                4   4.07035294E+01   3.39077225E+01   3.39077225E+01  -2.86660314E+00  -9.82730198E+00   3.39077225E+01   3.39077225E+01  -2.86660314E+00  -9.82730198E+00   4.37350235E+01  -7.07127237E+00   3.93309212E+01   7.64554441E-01   3.02765636E+01  -9.82730198E+00   1.09703274E+01
              652                1   4.17899055E+01   4.13891602E+01   4.13891602E+01   5.90757430E-02  -8.45870018E-01   4.13891602E+01   4.13891602E+01   5.90757430E-02  -8.45870018E-01   4.22350273E+01  -1.35341215E+01   4.17678528E+01   1.75922441E+00   3.96890106E+01  -8.45870018E-01   8.20833492E+00
              652                2   4.19799728E+01   4.15171738E+01   4.15171738E+01  -6.89400882E-02  -8.45870018E-01   4.15171738E+01   4.15171738E+01  -6.89400882E-02  -8.45870018E-01   4.23630447E+01  -1.35341215E+01   4.19637909E+01   1.70588315E+00   3.97423515E+01  -8.45870018E-01   8.40583134E+00
              652                3   4.15617867E+01   4.12352333E+01   4.12352333E+01   2.13001534E-01  -8.45870018E-01   4.12352333E+01   4.12352333E+01   2.13001534E-01  -8.45870018E-01   4.20811043E+01  -1.35341215E+01   4.15314217E+01   1.94615495E+00   3.95020790E+01  -8.45870018E-01   8.25191021E+00
              652                4   4.17547951E+01   4.13654861E+01   4.13654861E+01   8.27445239E-02  -8.45870018E-01   4.13654861E+01   4.13654861E+01   8.27445239E-02  -8.45870018E-01   4.22113571E+01  -1.35341196E+01   4.17315521E+01   1.89179409E+00   3.95564384E+01  -8.45870018E-01   8.45043182E+00
              653                1   1.08619415E+02   1.15613701E+02   1.15613701E+02   6.46524763E+00   7.53117704E+00   1.15613701E+02   1.15613701E+02   7.53117704E+00   6.46524763E+00   1.09148453E+02  -4.32033730E+01   1.08607643E+02   8.42842579E+00   1.13650520E+02   7.53117704E+00   1.45060015E+01
              653                2   1.08664558E+02   1.15643646E+02   1.15643646E+02   6.43529177E+00   7.53117704E+00   1.15643646E+02   1.15643646E+02   7.53117704E+00   6.43529177E+00   1.09208359E+02  -4.32033730E+01   1.08652122E+02   8.47060680E+00   1.13608337E+02   7.53117704E+00   1.47692461E+01
              653                3   1.08228607E+02   1.15354279E+02   1.15354279E+02   6.72467041E+00   7.53117704E+00   1.15354279E+02   1.15354279E+02   7.53117704E+00   6.72467041E+00   1.08629608E+02  -4.32033730E+01   1.08221848E+02   8.68316555E+00   1.13395782E+02   7.53117704E+00   1.44538898E+01
              653                4   1.08272682E+02   1.15383553E+02   1.15383553E+02   6.69539070E+00   7.53117704E+00   1.15383553E+02   1.15383553E+02   7.53117704E+00   6.69539070E+00   1.08688164E+02  -4.32033730E+01   1.08265427E+02   8.72625065E+00   1.13352692E+02   7.53117704E+00   1.47175388E+01
              654                1   1.61325043E+02   1.89183380E+02   1.89183380E+02   2.21841030E+01   3.42050514E+01   1.89183380E+02   1.89183380E+02   3.42050514E+01   2.21841030E+01   1.66999268E+02  -8.18575058E+01   1.60312775E+02   2.79676113E+01   1.83399872E+02   3.42050514E+01   3.05350914E+01
              654                2   1.64974060E+02   1.91527084E+02   1.91527084E+02   1.98404121E+01   3.42050514E+01   1.91527084E+02   1.91527084E+02   3.42050514E+01   1.98404121E+01   1.71686676E+02  -8.18575134E+01   1.63558167E+02   2.58602734E+01   1.85507217E+02   3.42050514E+01   3.15799236E+01
              654                3   1.60377335E+02   1.88572601E+02   1.88572601E+02   2.27948990E+01   3.42050514E+01   1.88572601E+02   1.88572601E+02   3.42050514E+01   2.27948990E+01   1.65777695E+02  -8.18575134E+01   1.59460281E+02   2.95608196E+01   1.81806671E+02   3.42050514E+01   3.28003273E+01
              654                4   1.64063034E+02   1.90943100E+02   1.90943100E+02   2.04243870E+01   3.42050514E+01   1.90943100E+02   1.90943100E+02   3.42050514E+01   2.04243870E+01   1.70518723E+02  -8.18575134E+01   1.62753265E+02   2.74582024E+01   1.83909286E+02   3.42050514E+01   3.39105186E+01
              655                1   4.84607010E+01   4.64341049E+01   4.64341049E+01  -1.44159544E+00  -2.59114385E+00   4.64341049E+01   4.64341049E+01  -1.44159544E+00  -2.59114385E+00   4.90252457E+01  -1.41337881E+01   4.84300079E+01   3.34852338E-01   4.46576538E+01  -2.59114385E+00   9.04947472E+00
              655                2   4.86639862E+01   4.65711784E+01   4.65711784E+01  -1.57867110E+00  -2.59114385E+00   4.65711784E+01   4.65711784E+01  -1.57867110E+00  -2.59114385E+00   4.91623230E+01  -1.41337881E+01   4.86402817E+01   2.69705862E-01   4.47228012E+01  -2.59114385E+00   9.25108719E+00
              655                3   4.81981239E+01   4.62567368E+01   4.62567368E+01  -1.26423228E+00  -2.59114385E+00   4.62567368E+01   4.62567368E+01  -1.26423228E+00  -2.59114385E+00   4.88478813E+01  -1.41337862E+01   4.81570053E+01   5.52806973E-01   4.44396973E+01  -2.59114385E+00   9.11294842E+00
              655                4   4.84144478E+01   4.64028854E+01   4.64028854E+01  -1.41038227E+00  -2.59114385E+00   4.64028854E+01   4.64028854E+01  -1.41038227E+00  -2.59114385E+00   4.89940300E+01  -1.41337862E+01   4.83820381E+01   4.99116063E-01   4.44933891E+01  -2.59114385E+00   9.36232471E+00
              656                1   8.32699890E+01   8.15996017E+01   8.15996017E+01  -1.90037692E+00  -1.43847716E+00   8.15996017E+01   8.15996017E+01  -1.43847716E+00  -1.90037692E+00   8.34999771E+01  -2.60869160E+01   8.32671051E+01   8.86914730E+00   7.08300781E+01  -1.43847716E+00   2.79870052E+01
              656                2   8.23245087E+01   8.09698410E+01   8.09698410E+01  -1.27061176E+00  -1.43847716E+00   8.09698410E+01   8.09698410E+01  -1.27061176E+00  -1.43847716E+00   8.24083176E+01  -2.60869160E+01   8.23241272E+01   9.86792755E+00   6.98312988E+01  -1.43847716E+00   2.81419868E+01
              656                3   8.20740433E+01   8.08026047E+01   8.08026047E+01  -1.10337746E+00  -1.43847716E+00   8.08026047E+01   8.08026047E+01  -1.10337746E+00  -1.43847716E+00   8.22410812E+01  -2.60869160E+01   8.20725021E+01   8.81053925E+00   7.08886871E+01  -1.43847716E+00   2.67156010E+01
              656                4   8.05912933E+01   7.98089676E+01   7.98089676E+01  -1.09740041E-01  -1.43847716E+00   7.98089676E+01   7.98089676E+01  -1.09740041E-01  -1.43847716E+00   8.12474442E+01  -2.60869160E+01   8.05666351E+01   1.00516424E+01   6.96475830E+01  -1.43847716E+00   2.66238785E+01
              657                1   2.03083130E+02   2.30021179E+02   2.30021179E+02   9.25665760E+00   5.11551361E+01   2.30021179E+02   2.30021179E+02   5.11551361E+01   9.25665760E+00   2.20764511E+02  -9.68109970E+01   1.92996033E+02   1.05662346E+01   2.28711594E+02   5.11551361E+01   1.69526978E+01
              657                2   2.02459122E+02   2.29779984E+02   2.29779984E+02   1.02599592E+01   5.03930130E+01   2.29779984E+02   2.29779984E+02   5.03930130E+01   1.02599592E+01   2.19520035E+02  -9.68109818E+01   1.93203156E+02   1.26716499E+01   2.27368301E+02   5.03930130E+01   2.28822479E+01
              657                3   2.01819992E+02   2.29613632E+02   2.29613632E+02   1.17094870E+01   4.91098518E+01   2.29613632E+02   2.29613632E+02   4.91098518E+01   1.17094870E+01   2.17904144E+02  -9.68109970E+01   1.93791824E+02   1.26729259E+01   2.28650192E+02   4.91098518E+01   1.44571600E+01
              657                4   2.01157516E+02   2.29349014E+02   2.29349014E+02   1.28396969E+01   4.82442474E+01   2.29349014E+02   2.29349014E+02   4.82442474E+01   1.28396969E+01   2.16509308E+02  -9.68109818E+01   1.93961121E+02   1.48118048E+01   2.27376907E+02   4.82442474E+01   2.05691280E+01
              658                1   1.37111755E+02   1.56554413E+02   1.56554413E+02   1.46421566E+01   2.48091564E+01   1.56554413E+02   1.56554413E+02   2.48091564E+01   1.46421566E+01   1.41912247E+02  -6.53352432E+01   1.36259796E+02   2.75982971E+01   1.43598267E+02   2.48091564E+01   4.08750954E+01
              658                2   1.39596176E+02   1.58151184E+02   1.58151184E+02   1.30453634E+01   2.48091564E+01   1.58151184E+02   1.58151184E+02   2.48091564E+01   1.30453634E+01   1.45105820E+02  -6.53352356E+01   1.38474411E+02   2.67890377E+01   1.44407516E+02   2.48091564E+01   4.24899788E+01
              658                3   1.35236847E+02   1.55344696E+02   1.55344696E+02   1.58518658E+01   2.48091564E+01   1.55344696E+02   1.55344696E+02   2.48091564E+01   1.58518658E+01   1.39492828E+02  -6.53352432E+01   1.34567017E+02   2.95245075E+01   1.41672058E+02   2.48091564E+01   4.14764290E+01
              658                4   1.37957352E+02   1.57098663E+02   1.57098663E+02   1.40979013E+01   2.48091564E+01   1.57098663E+02   1.57098663E+02   2.48091564E+01   1.40979013E+01   1.43000763E+02  -6.53352432E+01   1.37017120E+02   2.85192509E+01   1.42677307E+02   2.48091564E+01   4.30614548E+01
              659                1   3.10294304E+01   2.50056438E+01   2.50056438E+01  -9.68378544E-01  -9.35513878E+00   2.50056438E+01   2.50056438E+01  -9.68378544E-01  -9.35513878E+00   3.43607826E+01  -4.89404249E+00   2.83062572E+01   4.88207251E-01   2.35490589E+01  -9.35513878E+00   5.97593021E+00
              659                2   3.05303593E+01   2.46051960E+01   2.46051960E+01  -5.67929864E-01  -9.35513878E+00   2.46051960E+01   2.46051960E+01  -5.67929864E-01  -9.35513878E+00   3.39603348E+01  -4.89404249E+00   2.74617615E+01   8.93743217E-01   2.31435223E+01  -9.35513878E+00   5.88713837E+00
              659                3   3.09187756E+01   2.49173737E+01   2.49173737E+01  -8.80108476E-01  -9.35513878E+00   2.49173737E+01   2.49173737E+01  -8.80108476E-01  -9.35513878E+00   3.42725143E+01  -4.89404249E+00   2.81222057E+01   3.81378323E-01   2.36558876E+01  -9.35513878E+00   5.56343699E+00
              659                4   3.04172115E+01   2.45135479E+01   2.45135479E+01  -4.76281285E-01  -9.35513878E+00   2.45135479E+01   2.45135479E+01  -4.76281285E-01  -9.35513878E+00   3.38686867E+01  -4.89404249E+00   2.72649097E+01   7.86905646E-01   2.32503605E+01  -9.35513878E+00   5.47459364E+00
              660                1   4.33326149E+01   3.66746674E+01   3.66746674E+01  -2.44815540E+00  -9.90098190E+00   3.66746674E+01   3.66746674E+01  -2.44815540E+00  -9.90098190E+00   4.65756493E+01  -8.10851002E+00   4.18540955E+01   5.06673288E+00   2.91597805E+01  -9.90098190E+00   1.54120111E+01
              660                2   4.38561935E+01   3.70598259E+01   3.70598259E+01  -2.83331108E+00  -9.90098190E+00   3.70598259E+01   3.70598259E+01  -2.83331108E+00  -9.90098190E+00   4.69608078E+01  -8.10851002E+00   4.25465508E+01   4.58761168E+00   2.96389008E+01  -9.90098190E+00   1.55233307E+01
              660                3   4.39059219E+01   3.70962563E+01   3.70962563E+01  -2.86974263E+00  -9.90098190E+00   3.70962563E+01   3.70962563E+01  -2.86974263E+00  -9.90098190E+00   4.69972382E+01  -8.10851002E+00   4.26115799E+01   5.03456974E+00   2.91919422E+01  -9.90098190E+00   1.59193468E+01
              660                4   4.42487984E+01   3.73467865E+01   3.73467865E+01  -3.12027383E+00  -9.90098190E+00   3.73467865E+01   3.73467865E+01  -3.12027383E+00  -9.90098190E+00   4.72477684E+01  -8.10851002E+00   4.30566177E+01   4.65419340E+00   2.95723190E+01  -9.90098190E+00   1.59426317E+01
              661                1   7.47193298E+01   6.82429428E+01   6.82429428E+01  -5.80072927E+00  -7.13420725E+00   6.82429428E+01   6.82429428E+01  -5.80072927E+00  -7.13420725E+00   7.53771515E+01  -1.84360008E+01   7.46925507E+01  -2.40719295E+00   6.48494034E+01  -7.13420725E+00   1.54839830E+01
              661                2   7.42839508E+01   6.79497223E+01   6.79497223E+01  -5.50751781E+00  -7.13420725E+00   6.79497223E+01   6.79497223E+01  -5.50751781E+00  -7.13420725E+00   7.50839310E+01  -1.84359989E+01   7.42438583E+01  -2.34875607E+00   6.47909622E+01  -7.13420725E+00   1.49015512E+01
              661                3   7.54529419E+01   6.87356186E+01   6.87356186E+01  -6.29340935E+00  -7.13420725E+00   6.87356186E+01   6.87356186E+01  -6.29340935E+00  -7.13420725E+00   7.58698273E+01  -1.84359989E+01   7.54423981E+01  -2.99510312E+00   6.54373093E+01  -7.13420725E+00   1.53814812E+01
              661                4   7.50211868E+01   6.84458618E+01   6.84458618E+01  -6.00365686E+00  -7.13420725E+00   6.84458618E+01   6.84458618E+01  -6.00365686E+00  -7.13420725E+00   7.55800705E+01  -1.84359989E+01   7.50020142E+01  -2.93522525E+00   6.53774338E+01  -7.13420725E+00   1.47995920E+01
              662                1   1.09626556E+02   1.20521049E+02   1.20521049E+02   8.64467812E+00   1.32921238E+01   1.20521049E+02   1.20521049E+02   1.32921238E+01   8.64467812E+00   1.11876373E+02  -4.74859505E+01   1.09404564E+02   2.31137333E+01   1.06051987E+02   1.32921238E+01   3.75418701E+01
              662                2   1.07409187E+02   1.19068314E+02   1.19068314E+02   1.00974092E+01   1.32921238E+01   1.19068314E+02   1.19068314E+02   1.32921238E+01   1.00974092E+01   1.08970909E+02  -4.74859505E+01   1.07302200E+02   2.34279194E+01   1.05737801E+02   1.32921238E+01   3.57062378E+01
              662                3   1.11557289E+02   1.21779266E+02   1.21779266E+02   7.38644075E+00   1.32921238E+01   1.21779266E+02   1.21779266E+02   1.32921238E+01   7.38644075E+00   1.14392830E+02  -4.74859467E+01   1.11204773E+02   2.17788773E+01   1.07386841E+02   1.32921238E+01   3.79374352E+01
              662                4   1.09891533E+02   1.20694092E+02   1.20694092E+02   8.47163677E+00   1.32921238E+01   1.20694092E+02   1.20694092E+02   1.32921238E+01   8.47163677E+00   1.12222450E+02  -4.74859505E+01   1.09653259E+02   2.17839832E+01   1.07381737E+02   1.32921238E+01   3.62867165E+01
              663                1   1.39116526E+01   3.85051799E+00   3.85051799E+00   4.35606152E-01  -1.14506083E+01   3.85051799E+00  -1.14506083E+01   4.35606152E-01  -1.14506083E+01   1.53011265E+01   2.38816142E+00  -1.29171572E+01   2.78652740E+00   1.49959660E+00  -1.14506083E+01   1.58156824E+00
              663                2   1.38147297E+01   3.56419849E+00   3.56419849E+00   7.21925855E-01  -1.14506083E+01   3.56419849E+00  -1.14506083E+01   7.21925855E-01  -1.14506083E+01   1.50148067E+01   2.38816142E+00  -1.31324873E+01   2.67328167E+00   1.61284244E+00  -1.14506083E+01   1.31852019E+00
              663                3   1.39388084E+01   3.92281055E+00   3.92281055E+00   3.63313735E-01  -1.14506083E+01   3.92281055E+00  -1.14506083E+01   3.63313735E-01  -1.14506083E+01   1.53734188E+01   2.38816142E+00  -1.28552446E+01   2.54056430E+00   1.74555969E+00  -1.14506083E+01   1.73478997E+00
              663                4   1.38424664E+01   3.65148306E+00   3.65148306E+00   6.34641111E-01  -1.14506083E+01   3.65148306E+00  -1.14506083E+01   6.34641111E-01  -1.14506083E+01   1.51020918E+01   2.38816142E+00  -1.30717421E+01   2.43641853E+00   1.84970558E+00  -1.14506083E+01   1.47962022E+00
              664                1   1.09139481E+02   1.16439865E+02   1.16439865E+02   6.96182251E+00   7.64212275E+00   1.16439865E+02   1.16439865E+02   7.64212275E+00   6.96182251E+00   1.09478043E+02  -4.36812706E+01   1.09134712E+02   8.00686169E+00   1.15394829E+02   7.64212275E+00   1.06450195E+01
              664                2   1.09095230E+02   1.16410454E+02   1.16410454E+02   6.99123430E+00   7.64212275E+00   1.16410454E+02   1.16410454E+02   7.64212275E+00   6.99123430E+00   1.09419220E+02  -4.36812706E+01   1.09090866E+02   8.06848431E+00   1.15333206E+02   7.64212275E+00   1.08032913E+01
              664                3   1.08896851E+02   1.16278557E+02   1.16278557E+02   7.12313318E+00   7.64212275E+00   1.16278557E+02   1.16278557E+02   7.64212275E+00   7.12313318E+00   1.09155418E+02  -4.36812706E+01   1.08894073E+02   8.15809822E+00   1.15243591E+02   7.64212275E+00   1.05783129E+01
              664                4   1.08852608E+02   1.16249123E+02   1.16249123E+02   7.15256262E+00   7.64212275E+00   1.16249123E+02   1.16249123E+02   7.64212275E+00   7.15256262E+00   1.09096565E+02  -4.36812706E+01   1.08850136E+02   8.21954918E+00   1.15182137E+02   7.64212275E+00   1.07362137E+01
              665                1   4.27352371E+01   4.70553131E+01   4.70553131E+01   4.37510014E+00   4.26525974E+00   4.70553131E+01   4.70553131E+01   4.37510014E+00   4.26525974E+00   4.27900543E+01  -1.85652237E+01   4.27349205E+01   5.00466251E+00   4.64257507E+01   4.26525974E+00   5.14523792E+00
              665                2   4.28283424E+01   4.71174393E+01   4.71174393E+01   4.31297255E+00   4.26525974E+00   4.71174393E+01   4.71174393E+01   4.31297255E+00   4.26525974E+00   4.28521805E+01  -1.85652237E+01   4.28282852E+01   4.88955593E+00   4.65408554E+01   4.26525974E+00   4.93436193E+00
              665                3   4.31180420E+01   4.73104630E+01   4.73104630E+01   4.11994934E+00   4.26525974E+00   4.73104630E+01   4.73104630E+01   4.26525974E+00   4.11994934E+00   4.31905136E+01  -1.85652237E+01   4.31174927E+01   4.77231550E+00   4.66580963E+01   4.26525974E+00   5.26787090E+00
              665                4   4.32092896E+01   4.73711700E+01   4.73711700E+01   4.05924129E+00   4.26525974E+00   4.73711700E+01   4.73711700E+01   4.26525974E+00   4.05924129E+00   4.33119316E+01  -1.85652237E+01   4.32081871E+01   4.65825415E+00   4.67721596E+01   4.26525974E+00   5.05821466E+00
              666                1   2.02456924E+02   1.96106110E+02   1.96106110E+02  -8.84734917E+00  -3.75833869E+00   1.96106110E+02   1.96106110E+02  -3.75833869E+00  -8.84734917E+00   2.04953461E+02  -6.11668091E+01   2.02312927E+02  -8.77600384E+00   1.96034760E+02  -3.75833869E+00   3.82333422E+00
              666                2   2.02734894E+02   1.96279388E+02   1.96279388E+02  -9.37637424E+00  -3.40259862E+00   1.96279388E+02   1.96279388E+02  -3.40259862E+00  -9.37637424E+00   2.05655762E+02  -6.11668053E+01   2.02536743E+02  -9.22915173E+00   1.96132172E+02  -3.40259862E+00   5.50041771E+00
              666                3   2.01624908E+02   1.95567429E+02   1.95567429E+02  -7.82850504E+00  -4.23849487E+00   1.95567429E+02   1.95567429E+02  -4.23849487E+00  -7.82850504E+00   2.03395935E+02  -6.11668091E+01   2.01552963E+02  -7.72261572E+00   1.95461533E+02  -4.23849487E+00   4.63975525E+00
              666                4   2.01925690E+02   1.95758591E+02   1.95758591E+02  -8.39149094E+00  -3.86666322E+00   1.95758591E+02   1.95758591E+02  -3.86666322E+00  -8.39149094E+00   2.04150070E+02  -6.11668091E+01   2.01811584E+02  -8.19513607E+00   1.95562225E+02  -3.86666322E+00   6.32839775E+00
              667                1   2.12268417E+02   2.36299438E+02   2.36299438E+02   3.42072868E+00   5.36519890E+01   2.36299438E+02   2.36299438E+02   5.36519890E+01   3.42072868E+00   2.32878708E+02  -9.77907181E+01   1.98223373E+02   3.95695615E+00   2.35763214E+02   5.36519890E+01   1.11619062E+01
              667                2   2.12202179E+02   2.36273514E+02   2.36273514E+02   3.51318097E+00   5.35854607E+01   2.36273514E+02   2.36273514E+02   5.35854607E+01   3.51318097E+00   2.32760330E+02  -9.77907181E+01   1.98245758E+02   3.62110925E+00   2.36165588E+02   5.35854607E+01   5.01095963E+00
              667                3   2.13699585E+02   2.36720901E+02   2.36720901E+02   1.00698781E+00   5.56442642E+01   2.36720901E+02   2.36720901E+02   5.56442642E+01   1.00698781E+00   2.35713913E+02  -9.77907181E+01   1.97044617E+02   1.56758499E+00   2.36160309E+02   5.56442642E+01   1.14815235E+01
              667                4   2.13622787E+02   2.36688080E+02   2.36688080E+02   1.09858239E+00   5.55854874E+01   2.36688080E+02   2.36688080E+02   5.55854874E+01   1.09858239E+00   2.35589508E+02  -9.77907181E+01   1.97058441E+02   1.22290146E+00   2.36563766E+02   5.55854874E+01   5.41041327E+00
              668                1   3.82966881E+01   4.01557007E+01   4.01557007E+01   1.75169051E+00   1.96724212E+00   4.01557007E+01   4.01557007E+01   1.96724212E+00   1.75169051E+00   3.84040108E+01  -1.46248779E+01   3.82953224E+01   3.63233185E+00   3.82750587E+01   1.96724212E+00   8.28778362E+00
              668                2   3.83782158E+01   4.02098808E+01   4.02098808E+01   1.69750869E+00   1.96724212E+00   4.02098808E+01   4.02098808E+01   1.96724212E+00   1.69750869E+00   3.85123749E+01  -1.46248779E+01   3.83760834E+01   3.53326416E+00   3.83741264E+01   1.96724212E+00   8.20544338E+00
              668                3   3.84863739E+01   4.02817039E+01   4.02817039E+01   1.62569189E+00   1.96724212E+00   4.02817039E+01   4.02817039E+01   1.96724212E+00   1.62569189E+00   3.86560097E+01  -1.46248789E+01   3.84829597E+01   3.54433680E+00   3.83630562E+01   1.96724212E+00   8.39559460E+00
              668                4   3.85692825E+01   4.03367157E+01   4.03367157E+01   1.57067943E+00   1.96724212E+00   4.03367157E+01   4.03367157E+01   1.96724212E+00   1.57067943E+00   3.87660370E+01  -1.46248789E+01   3.85646935E+01   3.44446063E+00   3.84629326E+01   1.96724212E+00   8.31432819E+00
              669                1   3.18560791E+01   2.48710423E+01   2.48710423E+01  -1.39805138E+00  -1.05628510E+01   2.48710423E+01   2.48710423E+01  -1.39805138E+00  -1.05628510E+01   3.54338913E+01  -4.30337954E+00   2.86572475E+01   6.41749954E+00   1.70554905E+01  -1.05628510E+01   1.20093546E+01
              669                2   3.16474724E+01   2.47018547E+01   2.47018547E+01  -1.22886515E+00  -1.05628510E+01   2.47018547E+01   2.47018547E+01  -1.22886515E+00  -1.05628510E+01   3.52647057E+01  -4.30337954E+00   2.82929287E+01   6.71880960E+00   1.67541809E+01  -1.05628510E+01   1.19550571E+01
              669                3   3.15482426E+01   2.46209927E+01   2.46209927E+01  -1.14799976E+00  -1.05628510E+01   2.46209927E+01   2.46209927E+01  -1.14799976E+00  -1.05628510E+01   3.51838417E+01  -4.30338049E+00   2.81171474E+01   6.34545851E+00   1.71275330E+01  -1.05628510E+01   1.17024336E+01
              669                4   3.13421669E+01   2.44522400E+01   2.44522400E+01  -9.79250431E-01  -1.05628510E+01   2.44522400E+01   2.44522400E+01  -9.79250431E-01  -1.05628510E+01   3.50150909E+01  -4.30337954E+00   2.77467289E+01   6.64030504E+00   1.68326855E+01  -1.05628510E+01   1.16498508E+01
              670                1   2.04279423E+01   1.10290470E+01   1.10290470E+01  -6.15168512E-01  -1.25584764E+01   1.10290470E+01  -1.25584764E+01  -6.15168512E-01  -1.25584764E+01   2.35875225E+01   7.14865983E-01  -5.72055721E+00   1.12418151E+00   9.28969669E+00  -1.25584764E+01   4.15066624E+00
              670                2   2.01402836E+01   1.06848040E+01   1.06848040E+01  -2.70925850E-01  -1.25584764E+01   1.06848040E+01  -1.25584764E+01  -2.70925850E-01  -1.25584764E+01   2.32432804E+01   7.14865983E-01  -9.31847572E+00   1.58557010E+00   8.82830811E+00  -1.25584764E+01   4.11007214E+00
              670                3   2.02058773E+01   1.07647409E+01   1.07647409E+01  -3.50862265E-01  -1.25584764E+01   1.07647409E+01  -1.25584764E+01  -3.50862265E-01  -1.25584764E+01   2.33232174E+01   7.14865983E-01  -8.74212360E+00   1.02994895E+00   9.38392925E+00  -1.25584764E+01   3.66632128E+00
              670                4   1.99048996E+01   1.03900852E+01   1.03900852E+01   2.37923432E-02  -1.25584764E+01   1.03900852E+01  -1.25584764E+01   2.37923432E-02  -1.25584764E+01   2.29485607E+01   7.14866340E-01  -1.09460993E+01   1.48841429E+00   8.92546368E+00  -1.25584764E+01   3.61075902E+00
              671                1   3.79931679E+01   3.96134224E+01   3.96134224E+01   1.48232853E+00   1.75970602E+00   3.96134224E+01   3.96134224E+01   1.75970602E+00   1.48232853E+00   3.81310959E+01  -1.42851524E+01   3.79908867E+01   3.23076105E+00   3.78649902E+01   1.75970602E+00   7.97575569E+00
              671                2   3.81491547E+01   3.97169724E+01   3.97169724E+01   1.37877810E+00   1.75970602E+00   3.97169724E+01   3.97169724E+01   1.75970602E+00   1.37877810E+00   3.83381920E+01  -1.42851515E+01   3.81448784E+01   3.16346145E+00   3.79322891E+01   1.75970602E+00   8.07690430E+00
              671                3   3.79056931E+01   3.95552979E+01   3.95552979E+01   1.54045415E+00   1.75970602E+00   3.95552979E+01   3.95552979E+01   1.75970602E+00   1.54045415E+00   3.80148430E+01  -1.42851524E+01   3.79042702E+01   3.32300615E+00   3.77727470E+01   1.75970602E+00   8.03653717E+00
              671                4   3.80612144E+01   3.96586113E+01   3.96586113E+01   1.43713617E+00   1.75970602E+00   3.96586113E+01   3.96586113E+01   1.75970602E+00   1.43713617E+00   3.82214775E+01  -1.42851515E+01   3.80581436E+01   3.25605202E+00   3.78396988E+01   1.75970602E+00   8.13714504E+00
              672                1   1.07581587E+01   1.46638677E-01  -2.61777401E-01  -2.61777401E-01  -1.08099117E+01   1.46638677E-01  -1.08099117E+01  -2.61777401E-01  -1.08099117E+01   1.09565506E+01   3.64168358E+00  -1.07406950E+01  -4.53492515E-02  -6.97894618E-02  -1.08099117E+01  -2.03842074E-01
              672                2   1.07542515E+01   5.94074950E-02  -1.74546212E-01  -1.74546212E-01  -1.08099117E+01   5.94074950E-02  -1.08099117E+01  -1.74546212E-01  -1.08099117E+01   1.08693190E+01   3.64168358E+00  -1.07485228E+01   1.00766579E-02  -1.25215366E-01  -1.08099117E+01  -9.54337493E-02
              672                3   1.07639303E+01   2.30715692E-01  -3.45854402E-01  -3.45854402E-01  -1.08099117E+01   2.30715692E-01  -1.08099117E+01  -3.45854402E-01  -1.08099117E+01   1.10406275E+01   3.64168358E+00  -1.07291040E+01   6.22344017E-02  -1.77373111E-01  -1.08099117E+01  -2.62212366E-01
              672                4   1.07597990E+01   1.73663482E-01  -2.88802177E-01  -2.88802177E-01  -1.08099117E+01   1.73663482E-01  -1.08099117E+01  -2.88802177E-01  -1.08099117E+01   1.09835749E+01   3.64168358E+00  -1.07374029E+01   1.15536623E-01  -2.30675325E-01  -1.08099117E+01  -1.53306708E-01
              673                1   1.33434464E+02   1.54133759E+02   1.54133759E+02   1.71736393E+01   2.45292339E+01   1.54133759E+02   1.54133759E+02   2.45292339E+01   1.71736393E+01   1.36960129E+02  -6.52788773E+01   1.32977173E+02   2.48699970E+01   1.46437408E+02   2.45292339E+01   3.15414009E+01
              673                2   1.31526810E+02   1.52892319E+02   1.52892319E+02   1.84150639E+01   2.45292339E+01   1.52892319E+02   1.52892319E+02   2.45292339E+01   1.84150639E+01   1.34477264E+02  -6.52788773E+01   1.31206497E+02   2.55947628E+01   1.45712631E+02   2.45292339E+01   3.02317371E+01
              673                3   1.35197647E+02   1.55276978E+02   1.55276978E+02   1.60304222E+01   2.45292339E+01   1.55276978E+02   1.55276978E+02   2.45292339E+01   1.60304222E+01   1.39246552E+02  -6.52788773E+01   1.34594666E+02   2.35102997E+01   1.47797104E+02   2.45292339E+01   3.13942432E+01
              673                4   1.33010986E+02   1.53858597E+02   1.53858597E+02   1.74488125E+01   2.45292339E+01   1.53858597E+02   1.53858597E+02   2.45292339E+01   1.74488125E+01   1.36409775E+02  -6.52788773E+01   1.32585983E+02   2.44079151E+01   1.46899490E+02   2.45292339E+01   3.00143356E+01
              674                1   1.99531982E+02   1.97040787E+02   1.97040787E+02  -3.52940607E+00  -1.43650007E+00   1.97040787E+02   1.97040787E+02  -1.43650007E+00  -3.52940607E+00   2.00570190E+02  -6.40249634E+01   1.99507263E+02  -3.46381116E+00   1.96975189E+02  -1.43650007E+00   3.62671733E+00
              674                2   2.00765289E+02   1.97857941E+02   1.97857941E+02  -4.34586287E+00  -1.43720067E+00   1.97857941E+02   1.97857941E+02  -1.43720067E+00  -4.34586287E+00   2.02203812E+02  -6.40249634E+01   2.00717865E+02  -4.28894424E+00   1.97801025E+02  -1.43720067E+00   3.39214516E+00
              674                3   1.99935867E+02   1.97308563E+02   1.97308563E+02  -3.79689145E+00  -1.43680501E+00   1.97308563E+02   1.97308563E+02  -1.43680501E+00  -3.79689145E+00   2.01105453E+02  -6.40249557E+01   1.99904510E+02  -3.69444203E+00   1.97206116E+02  -1.43680501E+00   4.53789616E+00
              674                4   2.01166946E+02   1.98123734E+02   1.98123734E+02  -4.61136198E+00  -1.43750739E+00   1.98123734E+02   1.98123734E+02  -1.43750739E+00  -4.61136198E+00   2.02735092E+02  -6.40249557E+01   2.01110596E+02  -4.51909971E+00   1.98031479E+02  -1.43750739E+00   4.32382488E+00
              675                1   6.53427200E+01   5.97703743E+01   5.97703743E+01  -4.31526899E+00  -6.76076794E+00   5.97703743E+01   5.97703743E+01  -4.31526899E+00  -6.76076794E+00   6.65311432E+01  -1.62314453E+01   6.52396393E+01   5.79276609E+00   4.96623383E+01  -6.76076794E+00   2.33582439E+01
              675                2   6.46047668E+01   5.92676392E+01   5.92676392E+01  -3.81253457E+00  -6.76076794E+00   5.92676392E+01   5.92676392E+01  -3.81253457E+00  -6.76076794E+00   6.60284042E+01  -1.62314453E+01   6.44531479E+01   6.74478197E+00   4.87103233E+01  -6.76076794E+00   2.35478325E+01
              675                3   6.42788773E+01   5.90449066E+01   5.90449066E+01  -3.58980346E+00  -6.76076794E+00   5.90449066E+01   5.90449066E+01  -3.58980346E+00  -6.76076794E+00   6.58056793E+01  -1.62314453E+01   6.41025543E+01   5.81660986E+00   4.96384964E+01  -6.76076794E+00   2.23760433E+01
              675                4   6.35172882E+01   5.85225830E+01   5.85225830E+01  -3.06747842E+00  -6.76076794E+00   5.85225830E+01   5.85225830E+01  -3.06747842E+00  -6.76076794E+00   6.52833481E+01  -1.62314453E+01   6.32750282E+01   6.75466633E+00   4.87004395E+01  -6.76076794E+00   2.25493221E+01
              676                1   1.63507061E+01   5.90332937E+00   5.90332937E+00   6.16251528E-01  -1.24367285E+01   5.90332937E+00  -1.24367285E+01   6.16251528E-01  -1.24367285E+01   1.83400574E+01   1.97238255E+00  -1.42277250E+01   2.14344668E+00   4.37613392E+00  -1.24367285E+01   2.39626265E+00
              676                2   1.64068718E+01   6.01688528E+00   6.01688528E+00   5.02695560E-01  -1.24367285E+01   6.01688528E+00  -1.24367285E+01   5.02695560E-01  -1.24367285E+01   1.84536133E+01   1.97238255E+00  -1.40836077E+01   1.86814010E+00   4.65144062E+00  -1.24367285E+01   2.38010120E+00
              676                3   1.64813328E+01   6.16114807E+00   6.16114807E+00   3.58432829E-01  -1.24367285E+01   6.16114807E+00  -1.24367285E+01   3.58432829E-01  -1.24367285E+01   1.85978756E+01   1.97238255E+00  -1.38870802E+01   2.15993381E+00   4.35964680E+00  -1.24367285E+01   2.68480754E+00
              676                4   1.65355721E+01   6.26225805E+00   6.26225805E+00   2.57322609E-01  -1.24367285E+01   6.26225805E+00  -1.24367285E+01   2.57322609E-01  -1.24367285E+01   1.86989861E+01   1.97238255E+00  -1.37397652E+01   1.88310742E+00   4.63647318E+00  -1.24367285E+01   2.66824985E+00
              677                1   2.51601772E+01   1.81383152E+01   1.81383152E+01  -2.10565612E-01  -1.05431356E+01   1.81383152E+01   1.81383152E+01  -2.10565612E-01  -1.05431356E+01   2.86814518E+01  -2.46153808E+00   1.94467831E+01   7.15103865E+00   1.07767115E+01  -1.05431356E+01   8.99355221E+00
              677                2   2.57575092E+01   1.86751366E+01   1.86751366E+01  -7.47387707E-01  -1.05431356E+01   1.86751366E+01   1.86751366E+01  -7.47387707E-01  -1.05431356E+01   2.92182732E+01  -2.46153808E+00   2.09037457E+01   6.81939936E+00   1.11083508E+01  -1.05431356E+01   9.47152805E+00
              677                3   2.51277256E+01   1.81086197E+01   1.81086197E+01  -1.80871010E-01  -1.05431356E+01   1.81086197E+01   1.81086197E+01  -1.80871010E-01  -1.05431356E+01   2.86517563E+01  -2.46153808E+00   1.93622379E+01   7.68396044E+00   1.02437897E+01  -1.05431356E+01   9.05473328E+00
              677                4   2.56692047E+01   1.85968838E+01   1.85968838E+01  -6.69133723E-01  -1.05431356E+01   1.85968838E+01   1.85968838E+01  -6.69133723E-01  -1.05431356E+01   2.91400185E+01  -2.46153808E+00   2.06990166E+01   7.51672268E+00   1.04110279E+01  -1.05431356E+01   9.52368641E+00
              678                1   4.32812462E+01   3.64555054E+01   3.64555054E+01  -2.80406046E+00  -9.95638180E+00   3.64555054E+01   3.64555054E+01  -2.80406046E+00  -9.95638180E+00   4.64118843E+01  -7.89835358E+00   4.19206467E+01   1.99767077E+00   3.16537743E+01  -9.95638180E+00   1.28630180E+01
              678                2   4.40759087E+01   3.70363159E+01   3.70363159E+01  -3.38487411E+00  -9.95638180E+00   3.70363159E+01   3.70363159E+01  -3.38487411E+00  -9.95638180E+00   4.69926987E+01  -7.89835358E+00   4.29529762E+01   1.36768341E+00   3.22837601E+01  -9.95638180E+00   1.30198784E+01
              678                3   4.36920738E+01   3.67565727E+01   3.67565727E+01  -3.10512519E+00  -9.95638180E+00   3.67565727E+01   3.67565727E+01  -3.10512519E+00  -9.95638180E+00   4.67129555E+01  -7.89835501E+00   4.24582672E+01   2.13378167E+00   3.15176640E+01  -9.95638180E+00   1.34679470E+01
              678                4   4.44441566E+01   3.73033714E+01   3.73033714E+01  -3.65192223E+00  -9.95638180E+00   3.73033714E+01   3.73033714E+01  -3.65192223E+00  -9.95638180E+00   4.72597504E+01  -7.89835501E+00   4.34210510E+01   1.48574340E+00   3.21657028E+01  -9.95638180E+00   1.35653601E+01
              679                1   2.13337616E+02   2.15811615E+02   2.15811615E+02  -3.04954028E+00   8.46377850E+00   2.15811615E+02   2.15811615E+02   8.46377850E+00  -3.04954028E+00   2.18861145E+02  -7.37419510E+01   2.12636948E+02  -3.03011703E+00   2.15792191E+02   8.46377850E+00   2.06149793E+00
              679                2   2.13452988E+02   2.15861542E+02   2.15861542E+02  -3.55572081E+00   8.92004299E+00   2.15861542E+02   2.15861542E+02   8.92004299E+00  -3.55572081E+00   2.19417252E+02  -7.37419510E+01   2.12630371E+02  -3.48710775E+00   2.15792923E+02   8.92004299E+00   3.87949800E+00
              679                3   2.12963913E+02   2.15601974E+02   2.15601974E+02  -2.15544415E+00   7.77932501E+00   2.15601974E+02   2.15601974E+02   7.77932501E+00  -2.15544415E+00   2.17757416E+02  -7.37419510E+01   2.12441589E+02  -2.11624837E+00   2.15562775E+02   7.77932501E+00   2.92149186E+00
              679                4   2.13084961E+02   2.15658508E+02   2.15658508E+02  -2.67861724E+00   8.24597740E+00   2.15658508E+02   2.15658508E+02   8.24597740E+00  -2.67861724E+00   2.18337128E+02  -7.37419510E+01   2.12453506E+02  -2.57654333E+00   2.15556427E+02   8.24597740E+00   4.71987915E+00
              680                1   1.93603287E+02   2.23786377E+02   2.23786377E+02   2.05070457E+01   4.15839081E+01   2.23786377E+02   2.23786377E+02   4.15839081E+01   2.05070457E+01   2.03279343E+02  -9.52924423E+01   1.90996567E+02   2.62585335E+01   2.18034897E+02   4.15839081E+01   3.37057610E+01
              680                2   1.92474701E+02   2.23282257E+02   2.23282257E+02   2.33734093E+01   3.92216606E+01   2.23282257E+02   2.23282257E+02   3.92216606E+01   2.33734093E+01   1.99908859E+02  -9.52924423E+01   1.90998489E+02   2.85759811E+01   2.18079697E+02   3.92216606E+01   3.18272209E+01
              680                3   1.94104599E+02   2.24017349E+02   2.24017349E+02   1.94717636E+01   4.23882294E+01   2.24017349E+02   2.24017349E+02   4.23882294E+01   1.94717636E+01   2.04545578E+02  -9.52924423E+01   1.91025558E+02   2.34692440E+01   2.20019867E+02   4.23882294E+01   2.83140621E+01
              680                4   1.93043991E+02   2.23572906E+02   2.23572906E+02   2.22031345E+01   4.01012917E+01   2.23572906E+02   2.23572906E+02   4.01012917E+01   2.22031345E+01   2.01369781E+02  -9.52924500E+01   1.91163895E+02   2.56884804E+01   2.20087570E+02   4.01012917E+01   2.62620449E+01
              681                1   2.08205597E+02   2.07240051E+02   2.07240051E+02  -4.46927357E+00   2.72466636E+00   2.07240051E+02   2.07240051E+02   2.72466636E+00  -4.46927357E+00   2.11709335E+02  -6.84984818E+01   2.07925674E+02  -4.40646076E+00   2.07177246E+02   2.72466636E+00   3.64602017E+00
              681                2   2.08413757E+02   2.07365128E+02   2.07365128E+02  -4.91052580E+00   3.04084373E+00   2.07365128E+02   2.07365128E+02   3.04084373E+00  -4.91052580E+00   2.12275650E+02  -6.84984818E+01   2.08072067E+02  -4.78960085E+00   2.07244202E+02   3.04084373E+00   5.06514406E+00
              681                3   2.07625961E+02   2.06870667E+02   2.06870667E+02  -3.74809909E+00   2.37287235E+00   2.06870667E+02   2.06870667E+02   2.37287235E+00  -3.74809909E+00   2.10618774E+02  -6.84984818E+01   2.07422806E+02  -3.67033267E+00   2.06792908E+02   2.37287235E+00   4.04632854E+00
              681                4   2.07754501E+02   2.06947739E+02   2.06947739E+02  -4.06728935E+00   2.61499810E+00   2.06947739E+02   2.06947739E+02   2.61499810E+00  -4.06728935E+00   2.11015030E+02  -6.84984818E+01   2.07512497E+02  -3.93421483E+00   2.06814667E+02   2.61499810E+00   5.29736757E+00
              682                1   1.35336105E+02   1.62759964E+02   1.62759964E+02   2.50612679E+01   2.99171314E+01   1.62759964E+02   1.62759964E+02   2.99171314E+01   2.50612679E+01   1.37698700E+02  -7.25794525E+01   1.35139908E+02   2.68226051E+01   1.60998627E+02   2.99171314E+01   1.54735613E+01
              682                2   1.34149185E+02   1.61981262E+02   1.61981262E+02   2.58399715E+01   2.99171314E+01   1.61981262E+02   1.61981262E+02   2.99171314E+01   2.58399715E+01   1.36141281E+02  -7.25794525E+01   1.34009674E+02   2.75449924E+01   1.60276230E+02   2.99171314E+01   1.51399307E+01
              682                3   1.35884720E+02   1.63119217E+02   1.63119217E+02   2.47020130E+01   2.99171314E+01   1.63119217E+02   1.63119217E+02   2.99171314E+01   2.47020130E+01   1.38417206E+02  -7.25794525E+01   1.35659271E+02   2.62019749E+01   1.61619247E+02   2.99171314E+01   1.43307848E+01
              682                4   1.34326752E+02   1.62097885E+02   1.62097885E+02   2.57233448E+01   2.99171314E+01   1.62097885E+02   1.62097885E+02   2.99171314E+01   2.57233448E+01   1.36374542E+02  -7.25794525E+01   1.34179337E+02   2.71889000E+01   1.60632324E+02   2.99171314E+01   1.40611868E+01
              683                1   1.89497803E+02   1.85956177E+02   1.85956177E+02  -3.73958087E+00  -3.34302497E+00   1.85956177E+02   1.85956177E+02  -3.34302497E+00  -3.73958087E+00   1.89695755E+02  -5.96245270E+01   1.89496857E+02  -3.73090100E+00   1.85947495E+02  -3.34302497E+00   1.28351820E+00
              683                2   1.89163025E+02   1.85733170E+02   1.85733170E+02  -3.51681328E+00  -3.34279943E+00   1.85733170E+02   1.85733170E+02  -3.34279943E+00  -3.51681328E+00   1.89249985E+02  -5.96245155E+01   1.89162857E+02  -3.50434184E+00   1.85720703E+02  -3.34279943E+00   1.53581870E+00
              683                3   1.89108109E+02   1.85696564E+02   1.85696564E+02  -3.48032093E+00  -3.34267616E+00   1.85696564E+02   1.85696564E+02  -3.34267616E+00  -3.48032093E+00   1.89176895E+02  -5.96245232E+01   1.89108002E+02  -3.47451997E+00   1.85690765E+02  -3.34267616E+00   1.04775846E+00
              683                4   1.88771271E+02   1.85472015E+02   1.85472015E+02  -3.25601673E+00  -3.34244967E+00   1.85472015E+02   1.85472015E+02  -3.25601673E+00  -3.34244967E+00   1.88814468E+02  -5.96245155E+01   1.88771225E+02  -3.24705029E+00   1.85463058E+02  -3.34244967E+00   1.30048025E+00
              684                1   4.25299721E+01   3.89481773E+01   3.89481773E+01  -6.94608152E-01  -5.97571993E+00   3.89481773E+01   3.89481773E+01  -6.94608152E-01  -5.97571993E+00   4.49238968E+01  -1.07592840E+01   4.17827339E+01   1.62308598E+01   2.20227089E+01  -5.97571993E+00   1.96087036E+01
              684                2   4.21518288E+01   3.86770706E+01   3.86770706E+01  -4.23498780E-01  -5.97571993E+00   3.86770706E+01   3.86770706E+01  -4.23498780E-01  -5.97571993E+00   4.46527901E+01  -1.07592840E+01   4.13171272E+01   1.60222950E+01   2.22312756E+01  -5.97571993E+00   1.93022213E+01
              684                3   4.29157677E+01   3.92234497E+01   3.92234497E+01  -9.69877362E-01  -5.97571993E+00   3.92234497E+01   3.92234497E+01  -9.69877362E-01  -5.97571993E+00   4.51991692E+01  -1.07592840E+01   4.22514496E+01   1.59297619E+01   2.23238068E+01  -5.97571993E+00   1.98407383E+01
              684                4   4.25453644E+01   3.89591866E+01   3.89591866E+01  -7.05615461E-01  -5.97571993E+00   3.89591866E+01   3.89591866E+01  -7.05615461E-01  -5.97571993E+00   4.49349060E+01  -1.07592840E+01   4.18015556E+01   1.57606802E+01   2.24928894E+01  -5.97571993E+00   1.95446529E+01
              685                1   4.98484001E+01   4.57102089E+01   4.57102089E+01  -2.84268188E+00  -5.33983660E+00   4.57102089E+01   4.57102089E+01  -2.84268188E+00  -5.33983660E+00   5.10500450E+01  -1.25092306E+01   4.97073784E+01  -4.64295357E-01   4.33318214E+01  -5.33983660E+00   1.04795446E+01
              685                2   4.95776443E+01   4.55246811E+01   4.55246811E+01  -2.65715790E+00  -5.33983660E+00   4.55246811E+01   4.55246811E+01  -2.65715790E+00  -5.33983660E+00   5.08645172E+01  -1.25092287E+01   4.94139481E+01  -4.33135539E-01   4.33006592E+01  -5.33983660E+00   1.01099548E+01
              685                3   5.03054123E+01   4.60224380E+01   4.60224380E+01  -3.15491343E+00  -5.33983660E+00   4.60224380E+01   4.60224380E+01  -3.15491343E+00  -5.33983660E+00   5.13622742E+01  -1.25092287E+01   5.01984863E+01  -8.28209221E-01   4.36957321E+01  -5.33983660E+00   1.04406710E+01
              685                4   5.00394478E+01   4.58408699E+01   4.58408699E+01  -2.97334790E+00  -5.33983660E+00   4.58408699E+01   4.58408699E+01  -2.97334790E+00  -5.33983660E+00   5.11807060E+01  -1.25092287E+01   4.99133148E+01  -7.96610475E-01   4.36641350E+01  -5.33983660E+00   1.00755892E+01
              686                1   2.59584999E+01   2.06355438E+01   2.06355438E+01  -1.80660877E-02  -8.50389004E+00   2.06355438E+01   2.06355438E+01  -1.80660877E-02  -8.50389004E+00   2.91394329E+01  -4.03786230E+00   2.25048714E+01   1.20349340E+01   8.58254242E+00  -8.50389004E+00   1.01815100E+01
              686                2   2.61536827E+01   2.07984180E+01   2.07984180E+01  -1.80942401E-01  -8.50389004E+00   2.07984180E+01   2.07984180E+01  -1.80942401E-01  -8.50389004E+00   2.93023071E+01  -4.03786182E+00   2.28765182E+01   1.16173191E+01   9.00015640E+00  -8.50389004E+00   1.04077377E+01
              686                3   2.64517479E+01   2.10446587E+01   2.10446587E+01  -4.27182525E-01  -8.50389004E+00   2.10446587E+01   2.10446587E+01  -4.27182525E-01  -8.50389004E+00   2.95485477E+01  -4.03786182E+00   2.34268246E+01   1.22596884E+01   8.35778713E+00  -8.50389004E+00   1.05571671E+01
              686                4   2.66396122E+01   2.11983967E+01   2.11983967E+01  -5.80920339E-01  -8.50389004E+00   2.11983967E+01   2.11983967E+01  -5.80920339E-01  -8.50389004E+00   2.97022858E+01  -4.03786182E+00   2.37638474E+01   1.18477335E+01   8.76974201E+00  -8.50389004E+00   1.07803593E+01
              687                1   3.63938370E+01   3.81001892E+01   3.81001892E+01   1.26079738E+00   2.16890240E+00   3.81001892E+01   3.81001892E+01   2.16890240E+00   1.26079738E+00   3.68393898E+01  -1.38432961E+01   3.63683319E+01   2.68369699E+00   3.66772881E+01   2.16890240E+00   7.09888029E+00
              687                2   3.64486580E+01   3.81362839E+01   3.81362839E+01   1.22469997E+00   2.16890240E+00   3.81362839E+01   3.81362839E+01   2.16890240E+00   1.22469997E+00   3.69115868E+01  -1.38432961E+01   3.64211235E+01   2.66754222E+00   3.66934433E+01   2.16890240E+00   7.15372467E+00
              687                3   3.63325081E+01   3.80597878E+01   3.80597878E+01   1.30119717E+00   2.16890240E+00   3.80597878E+01   3.80597878E+01   2.16890240E+00   1.30119717E+00   3.67585907E+01  -1.38432961E+01   3.63091850E+01   2.73313689E+00   3.66278496E+01   2.16890240E+00   7.11235380E+00
              687                4   3.63895226E+01   3.80973473E+01   3.80973473E+01   1.26364028E+00   2.16890240E+00   3.80973473E+01   3.80973473E+01   2.16890240E+00   1.26364028E+00   3.68337097E+01  -1.38432970E+01   3.63641739E+01   2.71596456E+00   3.66450233E+01   2.16890240E+00   7.16835165E+00
              688                1   4.02001266E+01   3.33414612E+01   3.33414612E+01  -2.56025362E+00  -1.00917540E+01   3.33414612E+01   3.33414612E+01  -2.56025362E+00  -1.00917540E+01   4.34332123E+01  -6.89648438E+00   3.85646019E+01   1.91344261E+00   2.88677635E+01  -1.00917540E+01   1.18574619E+01
              688                2   3.98703766E+01   3.30946198E+01   3.30946198E+01  -2.31341267E+00  -1.00917540E+01   3.30946198E+01   3.30946198E+01  -2.31341267E+00  -1.00917540E+01   4.31863708E+01  -6.89648438E+00   3.81067924E+01   1.70889866E+00   2.90723076E+01  -1.00917540E+01   1.12357969E+01
              688                3   4.10872955E+01   3.39989815E+01   3.39989815E+01  -3.21777821E+00  -1.00917540E+01   3.39989815E+01   3.39989815E+01  -3.21777821E+00  -1.00917540E+01   4.40907364E+01  -6.89648294E+00   3.97626419E+01   1.32861578E+00   2.94525890E+01  -1.00917540E+01   1.21873846E+01
              688                4   4.07414246E+01   3.37437401E+01   3.37437401E+01  -2.96253514E+00  -1.00917540E+01   3.37437401E+01   3.37437401E+01  -2.96253514E+00  -1.00917540E+01   4.38354950E+01  -6.89648438E+00   3.93011475E+01   1.10819447E+00   2.96730118E+01  -1.00917540E+01   1.15260782E+01
              689                1   7.50259476E+01   6.83166046E+01   6.83166046E+01  -6.20630360E+00  -7.20245790E+00   6.83166046E+01   6.83166046E+01  -6.20630360E+00  -7.20245790E+00   7.55190659E+01  -1.83026142E+01   7.50110626E+01  -2.25140905E+00   6.43617096E+01  -7.20245790E+00   1.67059574E+01
              689                2   7.42392731E+01   6.77876205E+01   6.77876205E+01  -5.67732954E+00  -7.20245790E+00   6.77876205E+01   6.77876205E+01  -5.67732954E+00  -7.20245790E+00   7.49900818E+01  -1.83026123E+01   7.42040100E+01  -1.59063923E+00   6.37009354E+01  -7.20245790E+00   1.68382740E+01
              689                3   7.45152969E+01   6.79734573E+01   6.79734573E+01  -5.86316156E+00  -7.20245790E+00   6.79734573E+01   6.79734573E+01  -5.86316156E+00  -7.20245790E+00   7.51759186E+01  -1.83026142E+01   7.44882050E+01  -2.20153189E+00   6.43118286E+01  -7.20245790E+00   1.60298138E+01
              689                4   7.37118607E+01   6.74318542E+01   6.74318542E+01  -5.32155657E+00  -7.20245790E+00   6.74318542E+01   6.74318542E+01  -5.32155657E+00  -7.20245790E+00   7.46343079E+01  -1.83026123E+01   7.36578369E+01  -1.53808832E+00   6.36483841E+01  -7.20245790E+00   1.61538105E+01
              690                1   1.17054512E+02   1.31738113E+02   1.31738113E+02   1.31749249E+01   1.62529850E+01   1.31738113E+02   1.31738113E+02   1.62529850E+01   1.31749249E+01   1.18563187E+02  -5.37220116E+01   1.16963402E+02   1.81990547E+01   1.26713989E+02   1.62529850E+01   2.38837719E+01
              690                2   1.17378159E+02   1.31951050E+02   1.31951050E+02   1.29620066E+01   1.62529850E+01   1.31951050E+02   1.31951050E+02   1.62529850E+01   1.29620066E+01   1.18989044E+02  -5.37220154E+01   1.17274277E+02   1.79036045E+01   1.27009445E+02   1.62529850E+01   2.37397728E+01
              690                3   1.17341881E+02   1.31927185E+02   1.31927185E+02   1.29858561E+01   1.62529850E+01   1.31927185E+02   1.31927185E+02   1.62529850E+01   1.29858561E+01   1.18941330E+02  -5.37220116E+01   1.17239479E+02   1.81243858E+01   1.26788658E+02   1.62529850E+01   2.41821976E+01
              690                4   1.17630959E+02   1.32117233E+02   1.32117233E+02   1.27957993E+01   1.62529850E+01   1.32117233E+02   1.32117233E+02   1.62529850E+01   1.27957993E+01   1.19321442E+02  -5.37220116E+01   1.17516571E+02   1.78545589E+01   1.27058487E+02   1.62529850E+01   2.40421963E+01
              691                1   4.58396378E+01   4.09200821E+01   4.09200821E+01  -2.69737625E+00  -6.85805702E+00   4.09200821E+01   4.09200821E+01  -2.69737625E+00  -6.85805702E+00   4.77781410E+01  -1.04548826E+01   4.54118996E+01  -6.05469607E-02   3.82832527E+01  -6.85805702E+00   1.03951397E+01
              691                2   4.55914764E+01   4.07459908E+01   4.07459908E+01  -2.52327943E+00  -6.85805702E+00   4.07459908E+01   4.07459908E+01  -2.52327943E+00  -6.85805702E+00   4.76040459E+01  -1.04548845E+01   4.51243515E+01  -8.82278681E-02   3.83109360E+01  -6.85805702E+00   9.97163391E+00
              691                3   4.63918152E+01   4.13058739E+01   4.13058739E+01  -3.08316875E+00  -6.85805702E+00   4.13058739E+01   4.13058739E+01  -3.08316875E+00  -6.85805702E+00   4.81639328E+01  -1.04548826E+01   4.60443802E+01  -4.88383144E-01   3.87110901E+01  -6.85805702E+00   1.04137936E+01
              691                4   4.61459465E+01   4.11343575E+01   4.11343575E+01  -2.91164994E+00  -6.85805702E+00   4.11343575E+01   4.11343575E+01  -2.91164994E+00  -6.85805702E+00   4.79924126E+01  -1.04548826E+01   4.57639771E+01  -5.16346276E-01   3.87390518E+01  -6.85805702E+00   9.98829746E+00
              692                1   9.51368179E+01   9.15463333E+01   9.15463333E+01  -3.56980348E+00  -3.61114693E+00   9.15463333E+01   9.15463333E+01  -3.56980348E+00  -3.61114693E+00   9.51574860E+01  -2.81217957E+01   9.51367950E+01  -2.94238043E+00   9.09189148E+01  -3.61114693E+00   7.69962120E+00
              692                2   9.49930191E+01   9.14504242E+01   9.14504242E+01  -3.47389436E+00  -3.61114693E+00   9.14504242E+01   9.14504242E+01  -3.47389436E+00  -3.61114693E+00   9.50615768E+01  -2.81217957E+01   9.49927979E+01  -2.87997603E+00   9.08565063E+01  -3.61114693E+00   7.48496580E+00
              692                3   9.54359741E+01   9.17457123E+01   9.17457123E+01  -3.76918125E+00  -3.61114693E+00   9.17457123E+01   9.17457123E+01  -3.61114693E+00  -3.76918125E+00   9.55148926E+01  -2.81217957E+01   9.54356766E+01  -3.15401244E+00   9.11305466E+01  -3.61114693E+00   7.64062548E+00
              692                4   9.52924957E+01   9.16501083E+01   9.16501083E+01  -3.67357993E+00  -3.61114693E+00   9.16501083E+01   9.16501083E+01  -3.61114693E+00  -3.67357993E+00   9.53236923E+01  -2.81217957E+01   9.52924423E+01  -3.09154797E+00   9.10680771E+01  -3.61114693E+00   7.42582941E+00
              693                1   3.59504395E+01   3.81388283E+01   3.81388283E+01   1.37849820E+00   3.05708075E+00   3.81388283E+01   3.81388283E+01   3.05708075E+00   1.37849820E+00   3.67603302E+01  -1.41914682E+01   3.58621140E+01   2.77735662E+00   3.67399712E+01   3.05708075E+00   7.03318167E+00
              693                2   3.59664116E+01   3.81492386E+01   3.81492386E+01   1.36808670E+00   3.05708075E+00   3.81492386E+01   3.81492386E+01   3.05708075E+00   1.36808670E+00   3.67811546E+01  -1.41914682E+01   3.58770218E+01   2.77377439E+00   3.67435532E+01   3.05708075E+00   7.05172443E+00
              693                3   3.59257355E+01   3.81227188E+01   3.81227188E+01   1.39461088E+00   3.05708075E+00   3.81227188E+01   3.81227188E+01   3.05708075E+00   1.39461088E+00   3.67281075E+01  -1.41914701E+01   3.58390350E+01   2.79657197E+00   3.67207565E+01   3.05708075E+00   7.03746700E+00
              693                4   3.59416199E+01   3.81330795E+01   3.81330795E+01   1.38424826E+00   3.05708075E+00   3.81330795E+01   3.81330795E+01   3.05708075E+00   1.38424826E+00   3.67488289E+01  -1.41914682E+01   3.58538780E+01   2.79307342E+00   3.67242546E+01   3.05708075E+00   7.05604935E+00
              694                1   1.67392242E+02   1.93179825E+02   1.93179825E+02   2.16457710E+01   3.02621918E+01   1.93179825E+02   1.93179825E+02   3.02621918E+01   2.16457710E+01   1.71534042E+02  -8.16959305E+01   1.66892197E+02   2.30094128E+01   1.91816177E+02   3.02621918E+01   1.52332420E+01
              694                2   1.65856796E+02   1.92179657E+02   1.92179657E+02   2.26459408E+01   3.02621918E+01   1.92179657E+02   1.92179657E+02   3.02621918E+01   2.26459408E+01   1.69533707E+02  -8.16959305E+01   1.65462646E+02   2.43589458E+01   1.90466644E+02   3.02621918E+01   1.69551754E+01
              694                3   1.64950241E+02   1.91587936E+02   1.91587936E+02   2.32376480E+01   3.02621918E+01   1.91587936E+02   1.91587936E+02   3.02621918E+01   2.32376480E+01   1.68350296E+02  -8.16959305E+01   1.64613205E+02   2.44090900E+01   1.90416504E+02   3.02621918E+01   1.39942837E+01
              694                4   1.62383530E+02   1.89907639E+02   1.89907639E+02   2.49179516E+01   3.02621918E+01   1.89907639E+02   1.89907639E+02   3.02621918E+01   2.49179516E+01   1.64989685E+02  -8.16959305E+01   1.62185501E+02   2.63634262E+01   1.88462173E+02   3.02621918E+01   1.53752365E+01
              695                1   1.09119270E+02   1.16725807E+02   1.16725807E+02   7.49719620E+00   7.71620560E+00   1.16725807E+02   1.16725807E+02   7.71620560E+00   7.49719620E+00   1.09228615E+02  -4.39797363E+01   1.09118782E+02   7.96707487E+00   1.16255936E+02   7.71620560E+00   7.14863825E+00
              695                2   1.09219414E+02   1.16792496E+02   1.16792496E+02   7.43051243E+00   7.71620560E+00   1.16792496E+02   1.16792496E+02   7.71620560E+00   7.43051243E+00   1.09361984E+02  -4.39797363E+01   1.09218582E+02   7.88848877E+00   1.16334518E+02   7.71620560E+00   7.06225634E+00
              695                3   1.09257515E+02   1.16817863E+02   1.16817863E+02   7.40515137E+00   7.71620560E+00   1.16817863E+02   1.16817863E+02   7.71620560E+00   7.40515137E+00   1.09412712E+02  -4.39797401E+01   1.09256516E+02   7.88477945E+00   1.16338234E+02   7.71620560E+00   7.22824526E+00
              695                4   1.09357651E+02   1.16884514E+02   1.16884514E+02   7.33849525E+00   7.71620560E+00   1.16884514E+02   1.16884514E+02   7.71620560E+00   7.33849525E+00   1.09546013E+02  -4.39797363E+01   1.09356186E+02   7.80609131E+00   1.16416916E+02   7.71620560E+00   7.14175224E+00
              696                1   4.96925011E+01   4.29263458E+01   4.29263458E+01  -3.56207418E+00  -9.44628143E+00   4.29263458E+01   4.29263458E+01  -3.56207418E+00  -9.44628143E+00   5.23726273E+01  -9.97266388E+00   4.88995018E+01   1.72877657E+00   3.76354980E+01  -9.44628143E+00   1.47638121E+01
              696                2   5.04853516E+01   4.34890404E+01   4.34890404E+01  -4.12476778E+00  -9.44628143E+00   4.34890404E+01   4.34890404E+01  -4.12476778E+00  -9.44628143E+00   5.29353218E+01  -9.97266388E+00   4.98485069E+01   1.02719104E+00   3.83370819E+01  -9.44628143E+00   1.47905951E+01
              696                3   5.02171783E+01   4.32992249E+01   4.32992249E+01  -3.93495035E+00  -9.44628143E+00   4.32992249E+01   4.32992249E+01  -3.93495035E+00  -9.44628143E+00   5.27455063E+01  -9.97266388E+00   4.95299072E+01   1.83276761E+00   3.75315056E+01  -9.44628143E+00   1.54650192E+01
              696                4   5.10105133E+01   4.38593140E+01   4.38593140E+01  -4.49504185E+00  -9.44628143E+00   4.38593140E+01   4.38593140E+01  -4.49504185E+00  -9.44628143E+00   5.33055954E+01  -9.97266388E+00   5.04656563E+01   1.13285553E+00   3.82314186E+01  -9.44628143E+00   1.55067759E+01
              697                1   2.11967468E+02   2.13646576E+02   2.13646576E+02  -2.75256395E+00   6.40778589E+00   2.13646576E+02   2.13646576E+02   6.40778589E+00  -2.75256395E+00   2.16399139E+02  -7.24339371E+01   2.11521423E+02  -2.70027423E+00   2.13594284E+02   6.40778589E+00   3.36351967E+00
              697                2   2.11489868E+02   2.13352036E+02   2.13352036E+02  -2.01097274E+00   5.96071720E+00   2.13352036E+02   2.13352036E+02   5.96071720E+00  -2.01097274E+00   2.15363007E+02  -7.24339294E+01   2.11151443E+02  -1.93874407E+00   2.13279816E+02   5.96071720E+00   3.94317341E+00
              697                3   2.11804123E+02   2.13551208E+02   2.13551208E+02  -2.37859344E+00   6.12916613E+00   2.13551208E+02   2.13551208E+02   6.12916613E+00  -2.37859344E+00   2.15929810E+02  -7.24339294E+01   2.11419159E+02  -2.35984349E+00   2.13532471E+02   6.12916613E+00   2.01179981E+00
              697                4   2.11328491E+02   2.13256226E+02   2.13256226E+02  -1.63611186E+00   5.68168211E+00   2.13256226E+02   2.13256226E+02   5.68168211E+00  -1.63611186E+00   2.14892334E+02  -7.24339371E+01   2.11043137E+02  -1.60554969E+00   2.13225662E+02   5.68168211E+00   2.56274104E+00
              698                1   5.46692848E+01   4.90671997E+01   4.90671997E+01  -3.02194905E+00  -7.86055851E+00   4.90671997E+01   4.90671997E+01  -3.02194905E+00  -7.86055851E+00   5.69277573E+01  -1.27282305E+01   5.41843948E+01   8.14347649E+00   3.79017754E+01  -7.86055851E+00   2.13759384E+01
              698                2   5.34408035E+01   4.82029648E+01   4.82029648E+01  -2.15771437E+00  -7.86055851E+00   4.82029648E+01   4.82029648E+01  -2.15771437E+00  -7.86055851E+00   5.60635223E+01  -1.27282305E+01   5.27497063E+01   7.82739019E+00   3.82178612E+01  -7.86055851E+00   2.00787029E+01
              698                3   5.64432983E+01   5.02994461E+01   5.02994461E+01  -4.25419521E+00  -7.86055851E+00   5.02994461E+01   5.02994461E+01  -4.25419521E+00  -7.86055851E+00   5.81600037E+01  -1.27282305E+01   5.61832047E+01   7.04122543E+00   3.90040245E+01  -7.86055851E+00   2.21047459E+01
              698                4   5.52041664E+01   4.94406052E+01   4.94406052E+01  -3.39535546E+00  -7.86055851E+00   4.94406052E+01   4.94406052E+01  -3.39535546E+00  -7.86055851E+00   5.73011627E+01  -1.27282305E+01   5.47956696E+01   6.70641041E+00   3.93388405E+01  -7.86055851E+00   2.07771702E+01
              699                1   4.23073883E+01   3.67300987E+01   3.67300987E+01  -2.43883181E+00  -8.13798428E+00   3.67300987E+01   3.67300987E+01  -2.43883181E+00  -8.13798428E+00   4.48680840E+01  -8.71776104E+00   4.14305687E+01   4.19618338E-01   3.38716507E+01  -8.13798428E+00   1.01878185E+01
              699                2   4.20577774E+01   3.65500603E+01   3.65500603E+01  -2.25879335E+00  -8.13798428E+00   3.65500603E+01   3.65500603E+01  -2.25879335E+00  -8.13798428E+00   4.46880455E+01  -8.71776104E+00   4.11180305E+01   3.50629121E-01   3.39406395E+01  -8.13798428E+00   9.71903133E+00
              699                3   4.29187126E+01   3.71685753E+01   3.71685753E+01  -2.87730408E+00  -8.13798428E+00   3.71685753E+01   3.71685753E+01  -2.87730408E+00  -8.13798428E+00   4.53065605E+01  -8.71776199E+00   4.21842079E+01  -5.20181991E-02   3.43432884E+01  -8.13798428E+00   1.02546988E+01
              699                4   4.26717224E+01   3.69918327E+01   3.69918327E+01  -2.70056081E+00  -8.13798428E+00   3.69918327E+01   3.69918327E+01  -2.70056081E+00  -8.13798428E+00   4.51298180E+01  -8.71776199E+00   4.18816833E+01  -1.21349916E-01   3.44126205E+01  -8.13798428E+00   9.78380013E+00
              700                1   3.80698204E+01   4.57864418E+01   4.57864418E+01   7.64708090E+00   7.78654623E+00   4.57864418E+01   4.57864418E+01   7.78654623E+00   7.64708090E+00   3.81393585E+01  -2.04066887E+01   3.80692444E+01   7.70560694E+00   4.57279129E+01   7.78654623E+00   1.49290967E+00
              700                2   3.76868515E+01   4.55311661E+01   4.55311661E+01   7.90234995E+00   7.78654623E+00   4.55311661E+01   4.55311661E+01   7.90234995E+00   7.78654623E+00   3.77446213E+01  -2.04066868E+01   3.76864548E+01   7.95940208E+00   4.54741173E+01   7.78654623E+00   1.46406460E+00
              700                3   3.80843544E+01   4.57961121E+01   4.57961121E+01   7.63740778E+00   7.78654623E+00   4.57961121E+01   4.57961121E+01   7.78654623E+00   7.63740778E+00   3.81587067E+01  -2.04066887E+01   3.80837021E+01   7.67778921E+00   4.57557335E+01   7.78654623E+00   1.24065208E+00
              700                4   3.77024307E+01   4.55415688E+01   4.55415688E+01   7.89195156E+00   7.78654623E+00   4.55415688E+01   4.55415688E+01   7.89195156E+00   7.78654623E+00   3.77550240E+01  -2.04066887E+01   3.77021027E+01   7.93099213E+00   4.55025291E+01   7.78654623E+00   1.21174824E+00
              701                1   2.07251984E+02   1.97220367E+02   1.97220367E+02  -1.47456150E+01  -4.97179556E+00   1.97220367E+02   1.97220367E+02  -4.97179556E+00  -1.47456150E+01   2.11965973E+02  -5.91676483E+01   2.06732513E+02  -1.46651144E+01   1.97139862E+02  -4.97179556E+00   4.12998104E+00
              701                2   2.07676331E+02   1.97458511E+02   1.97458511E+02  -1.57410049E+01  -4.21454811E+00   1.97458511E+02   1.97458511E+02  -4.21454811E+00  -1.57410049E+01   2.13199509E+02  -5.91676483E+01   2.06954803E+02  -1.55414152E+01   1.97258911E+02  -4.21454811E+00   6.52022123E+00
              701                3   2.06593399E+02   1.96827072E+02   1.96827072E+02  -1.34510698E+01  -5.87305450E+00   1.96827072E+02   1.96827072E+02  -5.87305450E+00  -1.34510698E+01   2.10278152E+02  -5.91676521E+01   2.06280334E+02  -1.32759552E+01   1.96651962E+02  -5.87305450E+00   6.06564999E+00
              701                4   2.07006973E+02   1.97066971E+02   1.97066971E+02  -1.44505749E+01  -5.11343718E+00   1.97066971E+02   1.97066971E+02  -5.11343718E+00  -1.44505749E+01   2.11517548E+02  -5.91676521E+01   2.06532379E+02  -1.41183615E+01   1.96734756E+02  -5.11343718E+00   8.37606144E+00
              702                1   1.98697754E+02   2.24738556E+02   2.24738556E+02   1.12883015E+01   4.51434212E+01   2.24738556E+02   2.24738556E+02   4.51434212E+01   1.12883015E+01   2.13450256E+02  -9.37234268E+01   1.92047348E+02   1.28433609E+01   2.23183487E+02   4.51434212E+01   1.81524448E+01
              702                2   1.97920074E+02   2.24426208E+02   2.24426208E+02   1.27183781E+01   4.40256691E+01   2.24426208E+02   2.24426208E+02   4.40256691E+01   1.27183781E+01   2.11707840E+02  -9.37234192E+01   1.92230591E+02   1.54781704E+01   2.21666428E+02   4.40256691E+01   2.40135803E+01
              702                3   1.97429123E+02   2.24268967E+02   2.24268967E+02   1.39197330E+01   4.29815598E+01   2.24268967E+02   2.24268967E+02   4.29815598E+01   1.39197330E+01   2.10349243E+02  -9.37234192E+01   1.92528534E+02   1.49753733E+01   2.23213333E+02   4.29815598E+01   1.48639984E+01
              702                4   1.96573898E+02   2.23900208E+02   2.23900208E+02   1.55607882E+01   4.17092781E+01   2.23900208E+02   2.23900208E+02   4.17092781E+01   1.55607882E+01   2.08339417E+02  -9.37234268E+01   1.92602814E+02   1.76753693E+01   2.21785629E+02   4.17092781E+01   2.08825092E+01
              703                1   3.26535912E+01   2.68077049E+01   2.68077049E+01  -8.47142577E-01  -9.21575546E+00   2.68077049E+01   2.68077049E+01  -8.47142577E-01  -9.21575546E+00   3.60234604E+01  -5.58160210E+00   3.00957241E+01   8.12302351E-01   2.51482601E+01  -9.21575546E+00   6.56794643E+00
              703                2   3.31924171E+01   2.72289371E+01   2.72289371E+01  -1.26837289E+00  -9.21575546E+00   2.72289371E+01   2.72289371E+01  -1.26837289E+00  -9.21575546E+00   3.64446907E+01  -5.58160257E+00   3.09411983E+01   3.80428553E-01   2.55801353E+01  -9.21575546E+00   6.65340900E+00
              703                3   3.28099251E+01   2.69305153E+01   2.69305153E+01  -9.69952881E-01  -9.21575546E+00   2.69305153E+01   2.69305153E+01  -9.69952881E-01  -9.21575546E+00   3.61462708E+01  -5.58160210E+00   3.03444557E+01   9.15688455E-01   2.50448742E+01  -9.21575546E+00   7.00389957E+00
              703                4   3.33466721E+01   2.73484936E+01   2.73484936E+01  -1.38792956E+00  -9.21575546E+00   2.73484936E+01   2.73484936E+01  -1.38792956E+00  -9.21575546E+00   3.65642471E+01  -5.58160257E+00   3.11773586E+01   4.84408826E-01   2.54761543E+01  -9.21575546E+00   7.09215546E+00
              704                1   6.58027191E+01   5.95584221E+01   5.95584221E+01  -5.40505219E+00  -7.05260134E+00   5.95584221E+01   5.95584221E+01  -5.40505219E+00  -7.05260134E+00   6.66110229E+01  -1.57002563E+01   6.57562866E+01  -2.59960628E+00   5.67529755E+01  -7.05260134E+00   1.32053404E+01
              704                2   6.54107437E+01   5.92934380E+01   5.92934380E+01  -5.14006805E+00  -7.05260134E+00   5.92934380E+01   5.92934380E+01  -5.14006805E+00  -7.05260134E+00   6.63460388E+01  -1.57002563E+01   6.53477936E+01  -2.51947260E+00   5.66728439E+01  -7.05260134E+00   1.27273932E+01
              704                3   6.64283676E+01   5.99801788E+01   5.99801788E+01  -5.82680798E+00  -7.05260134E+00   5.99801788E+01   5.99801788E+01  -5.82680798E+00  -7.05260134E+00   6.70327759E+01  -1.57002563E+01   6.64029083E+01  -3.11681962E+00   5.72701912E+01  -7.05260134E+00   1.30763922E+01
              704                4   6.60404205E+01   5.97188339E+01   5.97188339E+01  -5.56545925E+00  -7.05260134E+00   5.97188339E+01   5.97188339E+01  -5.56545925E+00  -7.05260134E+00   6.67714310E+01  -1.57002573E+01   6.60027313E+01  -3.03686285E+00   5.71902351E+01  -7.05260134E+00   1.25969801E+01
              705                1   2.04847977E+02   2.04415558E+02   2.04415558E+02  -2.19292259E+00   1.37470436E+00   2.04415558E+02   2.04415558E+02   1.37470436E+00  -2.19292259E+00   2.06608490E+02  -6.78657837E+01   2.04778046E+02  -2.14188099E+00   2.04364517E+02   1.37470436E+00   3.24715567E+00
              705                2   2.05742920E+02   2.05001572E+02   2.05001572E+02  -3.02162099E+00   1.61738527E+00   2.05001572E+02   2.05001572E+02   1.61738527E+00  -3.02162099E+00   2.08023193E+02  -6.78657761E+01   2.05625198E+02  -2.98275280E+00   2.04962708E+02   1.61738527E+00   2.84305501E+00
              705                3   2.05051590E+02   2.04547363E+02   2.04547363E+02  -2.47342086E+00   1.52339399E+00   2.04547363E+02   2.04547363E+02   1.52339399E+00  -2.47342086E+00   2.07020782E+02  -6.78657761E+01   2.04963928E+02  -2.37984800E+00   2.04453796E+02   1.52339399E+00   4.40021658E+00
              705                4   2.05905579E+02   2.05104950E+02   2.05104950E+02  -3.28885937E+00   1.78124332E+00   2.05104950E+02   2.05104950E+02   1.78124332E+00  -3.28885937E+00   2.08393799E+02  -6.78657761E+01   2.05765060E+02  -3.21216774E+00   2.05028259E+02   1.78124332E+00   3.99687219E+00
              706                1   4.28336487E+01   3.66296806E+01   3.66296806E+01  -2.76423383E+00  -8.96729279E+00   3.66296806E+01   3.66296806E+01  -2.76423383E+00  -8.96729279E+00   4.55969734E+01  -8.29938507E+00   4.18051987E+01   7.44601488E-01   3.31208458E+01  -8.96729279E+00   1.12211790E+01
              706                2   4.25318184E+01   3.64104462E+01   3.64104462E+01  -2.54499698E+00  -8.96729279E+00   3.64104462E+01   3.64104462E+01  -2.54499698E+00  -8.96729279E+00   4.53777390E+01  -8.29938507E+00   4.14198189E+01   6.59370899E-01   3.32060776E+01  -8.96729279E+00   1.07032509E+01
              706                3   4.35059166E+01   3.71148453E+01   3.71148453E+01  -3.24939394E+00  -8.96729279E+00   3.71148453E+01   3.71148453E+01  -3.24939394E+00  -8.96729279E+00   4.60821381E+01  -8.29938602E+00   4.26482697E+01   2.24145949E-01   3.36413040E+01  -8.96729279E+00   1.13199549E+01
              706                4   4.32067299E+01   3.68994522E+01   3.68994522E+01  -3.03400493E+00  -8.96729279E+00   3.68994522E+01   3.68994522E+01  -3.03400493E+00  -8.96729279E+00   4.58667450E+01  -8.29938507E+00   4.22756042E+01   1.38858721E-01   3.37265892E+01  -8.96729279E+00   1.07998314E+01
              707                1   4.02086334E+01   3.40199280E+01   3.40199280E+01  -2.35420799E+00  -9.15566063E+00   3.40199280E+01   3.40199280E+01  -2.35420799E+00  -9.15566063E+00   4.31755867E+01  -7.50335264E+00   3.88827209E+01   9.04551983E-01   3.07611656E+01  -9.15566063E+00   1.03882179E+01
              707                2   3.99355965E+01   3.38182755E+01   3.38182755E+01  -2.15256071E+00  -9.15566063E+00   3.38182755E+01   3.38182755E+01  -2.15256071E+00  -9.15566063E+00   4.29739380E+01  -7.50335169E+00   3.85176239E+01   8.01598251E-01   3.08641186E+01  -9.15566063E+00   9.87605667E+00
              707                3   4.08674355E+01   3.45029907E+01   3.45029907E+01  -2.83727288E+00  -9.15566063E+00   3.45029907E+01   3.45029907E+01  -2.83727288E+00  -9.15566063E+00   4.36586494E+01  -7.50335169E+00   3.97462273E+01   3.98819894E-01   3.12668972E+01  -9.15566063E+00   1.05054379E+01
              707                4   4.05917282E+01   3.43014107E+01   3.43014107E+01  -2.63569617E+00  -9.15566063E+00   3.43014107E+01   3.43014107E+01  -2.63569617E+00  -9.15566063E+00   4.34570732E+01  -7.50335169E+00   3.93877525E+01   2.98601449E-01   3.13671150E+01  -9.15566063E+00   9.98871136E+00
              708                1   4.90259323E+01   4.70843163E+01   4.70843163E+01  -1.31692696E+00  -2.54329348E+00   4.70843163E+01   4.70843163E+01  -1.31692696E+00  -2.54329348E+00   4.96276131E+01  -1.44080324E+01   4.89914055E+01   4.47148114E-01   4.53202438E+01  -2.54329348E+00   9.07036018E+00
              708                2   4.92515335E+01   4.72365303E+01   4.72365303E+01  -1.46913934E+00  -2.54329348E+00   4.72365303E+01   4.72365303E+01  -1.46913934E+00  -2.54329348E+00   4.97798233E+01  -1.44080324E+01   4.92251663E+01   2.55448163E-01   4.55119438E+01  -2.54329348E+00   9.00127506E+00
              708                3   4.93050385E+01   4.72725945E+01   4.72725945E+01  -1.50519848E+00  -2.54329348E+00   4.72725945E+01   4.72725945E+01  -1.50519848E+00  -2.54329348E+00   4.98158875E+01  -1.44080343E+01   4.92804375E+01   3.45358819E-01   4.54220352E+01  -2.54329348E+00   9.31888294E+00
              708                4   4.95385246E+01   4.74298019E+01   4.74298019E+01  -1.66240644E+00  -2.54329348E+00   4.74298019E+01   4.74298019E+01  -1.66240644E+00  -2.54329348E+00   4.99730949E+01  -1.44080343E+01   4.95208969E+01   1.43060938E-01   4.56243324E+01  -2.54329348E+00   9.23984528E+00
              709                1   4.25928993E+01   3.66843033E+01   3.66843033E+01  -2.61371970E+00  -8.57533455E+00   3.66843033E+01   3.66843033E+01  -2.61371970E+00  -8.57533455E+00   4.52596359E+01  -8.49841595E+00   4.16387177E+01   5.54910243E-01   3.35156746E+01  -8.57533455E+00   1.06995621E+01
              709                2   4.23184929E+01   3.64856644E+01   3.64856644E+01  -2.41507554E+00  -8.57533455E+00   3.64856644E+01   3.64856644E+01  -2.41507554E+00  -8.57533455E+00   4.50609970E+01  -8.49841785E+00   4.12916489E+01   4.76599097E-01   3.35939865E+01  -8.57533455E+00   1.02042418E+01
              709                3   4.32353821E+01   3.71466026E+01   3.71466026E+01  -3.07601428E+00  -8.57533455E+00   3.71466026E+01   3.71466026E+01  -3.07601428E+00  -8.57533455E+00   4.57219353E+01  -8.49841785E+00   4.24378281E+01   5.74063808E-02   3.40131798E+01  -8.57533455E+00   1.07803564E+01
              709                4   4.29637222E+01   3.69515953E+01   3.69515953E+01  -2.88100672E+00  -8.57533455E+00   3.69515953E+01   3.69515953E+01  -2.88100672E+00  -8.57533455E+00   4.55269279E+01  -8.49841785E+00   4.21021805E+01  -2.05117520E-02   3.40910988E+01  -8.57533455E+00   1.02838964E+01
              710                1   4.77860298E+01   4.65432167E+01   4.65432167E+01  -7.23297536E-01  -1.74591339E+00   4.65432167E+01   4.65432167E+01  -7.23297536E-01  -1.74591339E+00   4.82891312E+01  -1.46913347E+01   4.77614021E+01   9.87245142E-01   4.48326759E+01  -1.74591339E+00   8.82753468E+00
              710                2   4.80094948E+01   4.66937027E+01   4.66937027E+01  -8.73780489E-01  -1.74591339E+00   4.66937027E+01   4.66937027E+01  -8.73780489E-01  -1.74591339E+00   4.84396172E+01  -1.46913366E+01   4.79916649E+01   7.91723609E-01   4.50281982E+01  -1.74591339E+00   8.74356937E+00
              710                3   4.80558357E+01   4.67248802E+01   4.67248802E+01  -9.04956222E-01  -1.74591339E+00   4.67248802E+01   4.67248802E+01  -9.04956222E-01  -1.74591339E+00   4.84707947E+01  -1.46913366E+01   4.80392723E+01   8.84008586E-01   4.49359131E+01  -1.74591339E+00   9.05581474E+00
              710                4   4.82967033E+01   4.68867531E+01   4.68867531E+01  -1.06682849E+00  -1.74591339E+00   4.68867531E+01   4.68867531E+01  -1.06682849E+00  -1.74591339E+00   4.86326637E+01  -1.46913366E+01   4.82859612E+01   6.71802819E-01   4.51481209E+01  -1.74591339E+00   8.96385765E+00
              711                1   2.11729279E+02   2.13730316E+02   2.13730316E+02  -1.72627914E+00   5.93639374E+00   2.13730316E+02   2.13730316E+02   5.93639374E+00  -1.72627914E+00   2.15456604E+02  -7.26468124E+01   2.11416977E+02  -1.71722364E+00   2.13721268E+02   5.93639374E+00   1.39674127E+00
              711                2   2.11802765E+02   2.13771774E+02   2.13771774E+02  -1.95056248E+00   6.11923313E+00   2.13771774E+02   2.13771774E+02   6.11923313E+00  -1.95056248E+00   2.15722336E+02  -7.26468124E+01   2.11456467E+02  -1.91984308E+00   2.13741058E+02   6.11923313E+00   2.57398129E+00
              711                3   2.11227356E+02   2.13414139E+02   2.13414139E+02  -1.01579428E+00   5.54209757E+00   2.13414139E+02   2.13414139E+02   5.54209757E+00  -1.01579428E+00   2.14429932E+02  -7.26468124E+01   2.10998123E+02  -1.00156152E+00   2.13399902E+02   5.54209757E+00   1.74723089E+00
              711                4   2.11300217E+02   2.13456146E+02   2.13456146E+02  -1.24221015E+00   5.72649622E+00   2.13456146E+02   2.13456146E+02   5.72649622E+00  -1.24221015E+00   2.14698364E+02  -7.26468124E+01   2.11041428E+02  -1.20191634E+00   2.13415863E+02   5.72649622E+00   2.94086909E+00
              712                1   2.14262955E+02   2.19793518E+02   2.19793518E+02  -6.78069770E-01   1.23320971E+01   2.19793518E+02   2.19793518E+02   1.23320971E+01  -6.78069770E-01   2.20471588E+02  -7.71491776E+01   2.13371552E+02  -6.76071465E-01   2.19791519E+02   1.23320971E+01   6.63801014E-01
              712                2   2.14213867E+02   2.19795166E+02   2.19795166E+02  -8.58179405E-02   1.17381830E+01   2.19795166E+02   2.19795166E+02   1.17381830E+01  -8.58179405E-02   2.19880981E+02  -7.71491776E+01   2.13477814E+02  -8.28339234E-02   2.19792191E+02   1.17381830E+01   8.09191287E-01
              712                3   2.14252472E+02   2.19790359E+02   2.19790359E+02  -6.13227904E-01   1.22704172E+01   2.19790359E+02   2.19790359E+02   1.22704172E+01  -6.13227904E-01   2.20403580E+02  -7.71491776E+01   2.13378326E+02  -6.11383259E-01   2.19788513E+02   1.22704172E+01  -6.36602104E-01
              712                4   2.14202805E+02   2.19791580E+02   2.19791580E+02  -1.51005825E-02   1.16710663E+01   2.19791580E+02   2.19791580E+02   1.16710663E+01  -1.51005825E-02   2.19806671E+02  -7.71491776E+01   2.13483826E+02  -1.39091816E-02   2.19790390E+02   1.16710663E+01  -5.10268927E-01
              713                1   2.83246403E+01   4.13294067E+01   4.13294067E+01   1.30678587E+01   1.29420929E+01   4.13294067E+01   4.13294067E+01   1.30678587E+01   1.29420929E+01   2.83873138E+01  -2.24464512E+01   2.83240166E+01   1.30980654E+01   4.12992020E+01   1.29420929E+01   9.23439503E-01
              713                2   2.83238010E+01   4.13288498E+01   4.13288498E+01   1.30684223E+01   1.29420929E+01   4.13288498E+01   4.13288498E+01   1.30684223E+01   1.29420929E+01   2.83867550E+01  -2.24464550E+01   2.83231659E+01   1.30828571E+01   4.13144112E+01   1.29420929E+01   6.38557374E-01
              713                3   2.87604637E+01   4.16198616E+01   4.16198616E+01   1.27774086E+01   1.29420929E+01   4.16198616E+01   4.16198616E+01   1.29420929E+01   1.27774086E+01   2.88424530E+01  -2.24464550E+01   2.87594013E+01   1.28082104E+01   4.15890579E+01   1.29420929E+01   9.42058682E-01
              713                4   2.87601452E+01   4.16196518E+01   4.16196518E+01   1.27776203E+01   1.29420929E+01   4.16196518E+01   4.16196518E+01   1.29420929E+01   1.27776203E+01   2.88420296E+01  -2.24464550E+01   2.87590885E+01   1.27925920E+01   4.16046791E+01   1.29420929E+01   6.56942725E-01
              714                1   4.64282341E+01   4.11190643E+01   4.11190643E+01  -2.94172335E+00  -7.36064529E+00   4.11190643E+01   4.11190643E+01  -2.94172335E+00  -7.36064529E+00   4.84797096E+01  -1.02722321E+01   4.59515457E+01  -5.76233454E-02   3.82349663E+01  -7.36064529E+00   1.08975973E+01
              714                2   4.61602135E+01   4.09305191E+01   4.09305191E+01  -2.75317454E+00  -7.36064529E+00   4.09305191E+01   4.09305191E+01  -2.75317454E+00  -7.36064529E+00   4.82911644E+01  -1.02722330E+01   4.56385727E+01  -9.29119289E-02   3.82702560E+01  -7.36064529E+00   1.04466810E+01
              714                3   4.70159836E+01   4.15307198E+01   4.15307198E+01  -3.35337305E+00  -7.36064529E+00   4.15307198E+01   4.15307198E+01  -3.35337305E+00  -7.36064529E+00   4.88913651E+01  -1.02722330E+01   4.66294441E+01  -5.13638914E-01   3.86909828E+01  -7.36064529E+00   1.09267950E+01
              714                4   4.67516632E+01   4.13458939E+01   4.13458939E+01  -3.16854763E+00  -7.36064529E+00   4.13458939E+01   4.13458939E+01  -3.16854763E+00  -7.36064529E+00   4.87065392E+01  -1.02722330E+01   4.63259811E+01  -5.49401820E-01   3.87267456E+01  -7.36064529E+00   1.04752064E+01
              715                1   1.81868805E+02   2.11179031E+02   2.11179031E+02   2.30459118E+01   3.62996979E+01   2.11179031E+02   2.11179031E+02   3.62996979E+01   2.30459118E+01   1.88133118E+02  -9.01748886E+01   1.80777435E+02   2.69574356E+01   2.07267502E+02   3.62996979E+01   2.68437824E+01
              715                2   1.77126343E+02   2.08112534E+02   2.08112534E+02   2.61124096E+01   3.62996979E+01   2.08112534E+02   2.08112534E+02   3.62996979E+01   2.61124096E+01   1.82000122E+02  -9.01748886E+01   1.76465378E+02   2.98293839E+01   2.04395554E+02   3.62996979E+01   2.57424793E+01
              715                3   1.82682465E+02   2.11703125E+02   2.11703125E+02   2.25218163E+01   3.62996979E+01   2.11703125E+02   2.11703125E+02   3.62996979E+01   2.25218163E+01   1.89181320E+02  -9.01748886E+01   1.81507980E+02   2.56277447E+01   2.08597198E+02   3.62996979E+01   2.40403252E+01
              715                4   1.77945084E+02   2.08643433E+02   2.08643433E+02   2.55815144E+01   3.62996979E+01   2.08643433E+02   2.08643433E+02   3.62996979E+01   2.55815144E+01   1.83061920E+02  -9.01748886E+01   1.77216629E+02   2.84999924E+01   2.05724945E+02   3.62996979E+01   2.29291553E+01
              716                1   1.22829651E+02   1.50050446E+02   1.50050446E+02   2.65448532E+01   2.79080887E+01   1.50050446E+02   1.50050446E+02   2.79080887E+01   2.65448532E+01   1.23505600E+02  -6.81677933E+01   1.22812637E+02   2.68182087E+01   1.49777100E+02   2.79080887E+01   5.80395222E+00
              716                2   1.22812759E+02   1.50039246E+02   1.50039246E+02   2.65560570E+01   2.79080887E+01   1.50039246E+02   1.50039246E+02   2.79080887E+01   2.65560570E+01   1.23483192E+02  -6.81677933E+01   1.22796021E+02   2.68719902E+01   1.49723312E+02   2.79080887E+01   6.23804235E+00
              716                3   1.22174461E+02   1.49615677E+02   1.49615677E+02   2.69796219E+01   2.79080887E+01   1.49615677E+02   1.49615677E+02   2.79080887E+01   2.69796219E+01   1.22636047E+02  -6.81677933E+01   1.22166519E+02   2.72485542E+01   1.49346741E+02   2.79080887E+01   5.73655415E+00
              716                4   1.22157463E+02   1.49604385E+02   1.49604385E+02   2.69909191E+01   2.79080887E+01   1.49604385E+02   1.49604385E+02   2.79080887E+01   2.69909191E+01   1.22613464E+02  -6.81677933E+01   1.22149719E+02   2.73022690E+01   1.49293030E+02   2.79080887E+01   6.17083073E+00
              717                1   5.78084564E+01   5.20062103E+01   5.20062103E+01  -4.35964775E+00  -7.14420509E+00   5.20062103E+01   5.20062103E+01  -4.35964775E+00  -7.14420509E+00   5.91504135E+01  -1.35007858E+01   5.76572723E+01  -1.45573545E+00   4.91022949E+01  -7.14420509E+00   1.24598904E+01
              717                2   5.84032440E+01   5.24120522E+01   5.24120522E+01  -4.76549196E+00  -7.14420509E+00   5.24120522E+01   5.24120522E+01  -4.76549196E+00  -7.14420509E+00   5.95562592E+01  -1.35007858E+01   5.82941017E+01  -1.94766331E+00   4.95942230E+01  -7.14420509E+00   1.23764458E+01
              717                3   5.82036133E+01   5.22760201E+01   5.22760201E+01  -4.62945986E+00  -7.14420509E+00   5.22760201E+01   5.22760201E+01  -4.62945986E+00  -7.14420509E+00   5.94202271E+01  -1.35007858E+01   5.80811882E+01  -1.49793339E+00   4.91444931E+01  -7.14420509E+00   1.29766951E+01
              717                4   5.88040657E+01   5.26846313E+01   5.26846313E+01  -5.03807449E+00  -7.14420509E+00   5.26846313E+01   5.26846313E+01  -5.03807449E+00  -7.14420509E+00   5.98288345E+01  -1.35007830E+01   5.87191162E+01  -1.99180424E+00   4.96383629E+01  -7.14420509E+00   1.29057779E+01
              718                1   1.83326836E+01   9.00997257E+00   9.00997257E+00   6.51484728E-01  -1.20123434E+01   9.00997257E+00  -1.20123434E+01   6.51484728E-01  -1.20123434E+01   2.10223160E+01   7.83628762E-01  -1.28675976E+01   3.31493640E+00   6.34652090E+00  -1.20123434E+01   3.89466977E+00
              718                2   1.85057678E+01   9.25695229E+00   9.25695229E+00   4.04505044E-01  -1.20123434E+01   9.25695229E+00  -1.20123434E+01   4.04505044E-01  -1.20123434E+01   2.12692947E+01   7.83628762E-01  -1.21832361E+01   2.94877124E+00   6.71268606E+00  -1.20123434E+01   4.00620651E+00
              718                3   1.85456829E+01   9.31229401E+00   9.31229401E+00   3.49163383E-01  -1.20123434E+01   9.31229401E+00  -1.20123434E+01   3.49163383E-01  -1.20123434E+01   2.13246365E+01   7.83628762E-01  -1.20130520E+01   3.46813202E+00   6.19332504E+00  -1.20123434E+01   4.26939774E+00
              718                4   1.87178440E+01   9.54484272E+00   9.54484272E+00   1.16614424E-01  -1.20123434E+01   9.54484272E+00  -1.20123434E+01   1.16614424E-01  -1.20123434E+01   2.15571861E+01   7.83628762E-01  -1.12120895E+01   3.09778571E+00   6.56367159E+00  -1.20123434E+01   4.38403702E+00
              719                1   1.99187103E+02   1.93617096E+02   1.93617096E+02  -6.80865097E+00  -4.30782223E+00   1.93617096E+02   1.93617096E+02  -4.30782223E+00  -6.80865097E+00   2.00425751E+02  -6.08335419E+01   1.99151779E+02  -6.74683380E+00   1.93555283E+02  -4.30782223E+00   3.51915050E+00
              719                2   1.99454529E+02   1.93792068E+02   1.93792068E+02  -7.13719893E+00  -4.15425301E+00   1.93792068E+02   1.93792068E+02  -4.15425301E+00  -7.13719893E+00   2.00929276E+02  -6.08335419E+01   1.99404327E+02  -7.03338385E+00   1.93688263E+02  -4.15425301E+00   4.56598234E+00
              719                3   1.98235443E+02   1.92987488E+02   1.92987488E+02  -6.01745415E+00  -4.46941233E+00   1.92987488E+02   1.92987488E+02  -4.46941233E+00  -6.01745415E+00   1.99004944E+02  -6.08335419E+01   1.98221848E+02  -5.94025517E+00   1.92910294E+02  -4.46941233E+00   3.91863441E+00
              719                4   1.98588211E+02   1.93220383E+02   1.93220383E+02  -6.38630342E+00  -4.33345985E+00   1.93220383E+02   1.93220383E+02  -4.33345985E+00  -6.38630342E+00   1.99606689E+02  -6.08335381E+01   1.98564346E+02  -6.26247549E+00   1.93096558E+02  -4.33345985E+00   4.96993876E+00
              720                1   1.93842667E+02   2.17865082E+02   2.17865082E+02   1.30720291E+01   3.72392082E+01   2.17865082E+02   2.17865082E+02   3.72392082E+01   1.30720291E+01   2.04793060E+02  -8.93921127E+01   1.90409058E+02   1.47383595E+01   2.16198761E+02   3.72392082E+01   1.83977127E+01
              720                2   1.92844345E+02   2.17391403E+02   2.17391403E+02   1.49785337E+01   3.58064003E+01   2.17391403E+02   2.17391403E+02   3.58064003E+01   1.49785337E+01   2.02412872E+02  -8.93921127E+01   1.90289215E+02   1.80169716E+01   2.14352966E+02   3.58064003E+01   2.46127205E+01
              720                3   1.92269302E+02   2.17119339E+02   2.17119339E+02   1.62112846E+01   3.48457031E+01   2.17119339E+02   2.17119339E+02   3.48457031E+01   1.62112846E+01   2.00908066E+02  -8.93921127E+01   1.90221771E+02   1.72527256E+01   2.16077896E+02   3.48457031E+01   1.44274216E+01
              720                4   1.91157761E+02   2.16540848E+02   2.16540848E+02   1.83794250E+01   3.32560654E+01   2.16540848E+02   2.16540848E+02   3.32560654E+01   1.83794250E+01   1.98161423E+02  -8.93921127E+01   1.89848816E+02   2.05853291E+01   2.14334946E+02   3.32560654E+01   2.07908363E+01
              721                1   1.16757515E+02   1.39248718E+02   1.39248718E+02   2.22129421E+01   2.27714577E+01   1.39248718E+02   1.39248718E+02   2.27714577E+01   2.22129421E+01   1.17035767E+02  -6.14110374E+01   1.16754509E+02   2.24143486E+01   1.39047302E+02   2.27714577E+01   4.85093737E+00
              721                2   1.16914017E+02   1.39352768E+02   1.39352768E+02   2.21088791E+01   2.27714577E+01   1.39352768E+02   1.39352768E+02   2.27714577E+01   2.21088791E+01   1.17243896E+02  -6.14110374E+01   1.16909798E+02   2.23251667E+01   1.39136490E+02   2.27714577E+01   5.03103876E+00
              721                3   1.16496826E+02   1.39075272E+02   1.39075272E+02   2.23863869E+01   2.27714577E+01   1.39075272E+02   1.39075272E+02   2.27714577E+01   2.23863869E+01   1.16688881E+02  -6.14110374E+01   1.16495392E+02   2.25955029E+01   1.38866150E+02   2.27714577E+01   4.93537664E+00
              721                4   1.16653809E+02   1.39179718E+02   1.39179718E+02   2.22819157E+01   2.27714577E+01   1.39179718E+02   1.39179718E+02   2.27714577E+01   2.22819157E+01   1.16897812E+02  -6.14110298E+01   1.16651512E+02   2.25062180E+01   1.38955429E+02   2.27714577E+01   5.11564112E+00
              722                1   7.84665985E+01   7.22874832E+01   7.22874832E+01  -5.80180836E+00  -6.55105829E+00   7.22874832E+01   7.22874832E+01  -5.80180836E+00  -6.55105829E+00   7.88385391E+01  -1.99782047E+01   7.84585495E+01  -1.12430561E+00   6.76099777E+01  -6.55105829E+00   1.85306187E+01
              722                2   7.75341187E+01   7.16615143E+01   7.16615143E+01  -5.17584515E+00  -6.55105829E+00   7.16615143E+01   7.16615143E+01  -5.17584515E+00  -6.55105829E+00   7.82125778E+01  -1.99782047E+01   7.75066681E+01  -3.29931170E-01   6.68156052E+01  -6.55105829E+00   1.86779079E+01
              722                3   7.78529053E+01   7.18758163E+01   7.18758163E+01  -5.39014244E+00  -6.55105829E+00   7.18758163E+01   7.18758163E+01  -5.39014244E+00  -6.55105829E+00   7.84268723E+01  -1.99782047E+01   7.78334274E+01  -1.06285048E+00   6.75485229E+01  -6.55105829E+00   1.77658901E+01
              722                4   7.68942566E+01   7.12304306E+01   7.12304306E+01  -4.74475956E+00  -6.55105829E+00   7.12304306E+01   7.12304306E+01  -4.74475956E+00  -6.55105829E+00   7.77814865E+01  -1.99782047E+01   7.68464966E+01  -2.69795895E-01   6.67554703E+01  -6.55105829E+00   1.78874474E+01
              723                1   1.19973778E+02   1.35251343E+02   1.35251343E+02   1.24792118E+01   1.82868748E+01   1.35251343E+02   1.35251343E+02   1.82868748E+01   1.24792118E+01   1.22772133E+02  -5.53391457E+01   1.19656883E+02   2.44294910E+01   1.23301064E+02   1.82868748E+01   3.63916512E+01
              723                2   1.20431412E+02   1.35549332E+02   1.35549332E+02   1.21812286E+01   1.82868748E+01   1.35549332E+02   1.35549332E+02   1.82868748E+01   1.21812286E+01   1.23368103E+02  -5.53391457E+01   1.20082428E+02   2.39249954E+01   1.23805557E+02   1.82868748E+01   3.62062225E+01
              723                3   1.20709526E+02   1.35730270E+02   1.35730270E+02   1.20002794E+01   1.82868748E+01   1.35730270E+02   1.35730270E+02   1.82868748E+01   1.20002794E+01   1.23729988E+02  -5.53391418E+01   1.20340378E+02   2.43328667E+01   1.23397682E+02   1.82868748E+01   3.70650482E+01
              723                4   1.21105522E+02   1.35987717E+02   1.35987717E+02   1.17428493E+01   1.82868748E+01   1.35987717E+02   1.35987717E+02   1.82868748E+01   1.17428493E+01   1.24244865E+02  -5.53391457E+01   1.20706749E+02   2.37554646E+01   1.23975090E+02   1.82868748E+01   3.67178841E+01
              724                1   3.52861214E+01   3.52164879E+01   3.52164879E+01   3.06629390E-01  -4.34231609E-01   3.52164879E+01   3.52164879E+01   3.06629390E-01  -4.34231609E-01   3.56507187E+01  -1.16962957E+01   3.52686157E+01   1.04621100E+00   3.44769058E+01  -4.34231609E-01   5.02709818E+00
              724                2   3.50658569E+01   3.50678902E+01   3.50678902E+01   4.55225199E-01  -4.34231609E-01   3.50678902E+01   3.50678902E+01   4.55225199E-01  -4.34231609E-01   3.55021248E+01  -1.16962957E+01   3.50404625E+01   1.18551302E+00   3.43376045E+01  -4.34231609E-01   4.97432137E+00
              724                3   3.53049965E+01   3.52292061E+01   3.52292061E+01   2.93912709E-01  -4.34231609E-01   3.52292061E+01   3.52292061E+01   2.93912709E-01  -4.34231609E-01   3.56634369E+01  -1.16962957E+01   3.52880936E+01   9.91530895E-01   3.45315857E+01  -4.34231609E-01   4.88721180E+00
              724                4   3.50847473E+01   3.50806503E+01   3.50806503E+01   4.42466885E-01  -4.34231609E-01   3.50806503E+01   3.50806503E+01   4.42466885E-01  -4.34231609E-01   3.55148811E+01  -1.16962957E+01   3.50600891E+01   1.13091004E+00   3.43922081E+01  -4.34231609E-01   4.83450413E+00
              725                1   7.10665436E+01   7.49411469E+01   7.49411469E+01   2.65660715E+00   5.15869141E+00   7.49411469E+01   7.49411469E+01   5.15869141E+00   2.65660715E+00   7.22845383E+01  -2.75854816E+01   7.09673386E+01   3.43309822E+01   4.32667732E+01   5.15869141E+00   3.58650475E+01
              725                2   7.07198181E+01   7.47137375E+01   7.47137375E+01   2.88402128E+00   5.15869141E+00   7.47137375E+01   7.47137375E+01   5.15869141E+00   2.88402128E+00   7.18297119E+01  -2.75854816E+01   7.06374435E+01   3.37093468E+01   4.38884087E+01   5.15869141E+00   3.55524063E+01
              725                3   7.20366516E+01   7.55757523E+01   7.55757523E+01   2.02199221E+00   5.15869141E+00   7.55757523E+01   7.55757523E+01   5.15869141E+00   2.02199221E+00   7.35537643E+01  -2.75854797E+01   7.18827667E+01   3.41454277E+01   4.34523239E+01   5.15869141E+00   3.64812889E+01
              725                4   7.17245178E+01   7.53718338E+01   7.53718338E+01   2.22591233E+00   5.15869141E+00   7.53718338E+01   7.53718338E+01   5.15869141E+00   2.22591233E+00   7.31459198E+01  -2.75854797E+01   7.15894318E+01   3.35158081E+01   4.40819435E+01   5.15869141E+00   3.61893730E+01
              726                1   2.15622223E+02   2.23152863E+02   2.23152863E+02  -5.34748650E+00   2.32660580E+01   2.23152863E+02   2.23152863E+02   2.32660580E+01  -5.34748650E+00   2.28500351E+02  -8.03571396E+01   2.11287521E+02  -5.31271791E+00   2.23118088E+02   2.32660580E+01  -2.81858468E+00
              726                2   2.16245361E+02   2.23408020E+02   2.23408020E+02  -6.65014315E+00   2.43135529E+01   2.23408020E+02   2.23408020E+02   2.43135529E+01  -6.65014315E+00   2.30058167E+02  -8.03571396E+01   2.11171494E+02  -6.44729519E+00   2.23205170E+02   2.43135529E+01  -6.82828760E+00
              726                3   2.16487823E+02   2.23502213E+02   2.23502213E+02  -7.16667986E+00   2.47358990E+01   2.23502213E+02   2.23502213E+02   2.47358990E+01  -7.16667986E+00   2.30668884E+02  -8.03571396E+01   2.11102005E+02  -7.16648340E+00   2.23502014E+02   2.47358990E+01  -2.09997371E-01
              726                4   2.17090714E+02   2.23736801E+02   2.23736801E+02  -8.39618397E+00   2.57308121E+01   2.23736801E+02   2.23736801E+02   2.57308121E+01  -8.39618397E+00   2.32132996E+02  -8.03571472E+01   2.10928848E+02  -8.31979847E+00   2.23660416E+02   2.57308121E+01  -4.21031666E+00
              727                1   4.01510963E+01   4.03688011E+01   4.03688011E+01   5.25068700E-01  -8.27554986E-02   4.03688011E+01   4.03688011E+01   5.25068700E-01  -8.27554986E-02   4.04515572E+01  -1.36037054E+01   4.01407433E+01   2.18711758E+00   3.87067528E+01  -8.27554986E-02   7.96616983E+00
              727                2   4.03212318E+01   4.04830170E+01   4.04830170E+01   4.10852432E-01  -8.27554986E-02   4.04830170E+01   4.04830170E+01   4.10852432E-01  -8.27554986E-02   4.05657692E+01  -1.36037035E+01   4.03144341E+01   2.13744473E+00   3.87564240E+01  -8.27554986E-02   8.13677597E+00
              727                3   3.99632111E+01   4.02424736E+01   4.02424736E+01   6.51398003E-01  -8.27554986E-02   4.02424736E+01   4.02424736E+01   6.51398003E-01  -8.27554986E-02   4.03252296E+01  -1.36037054E+01   3.99480324E+01   2.34462023E+00   3.85492516E+01  -8.27554986E-02   8.01058483E+00
              727                4   4.01360626E+01   4.03587036E+01   4.03587036E+01   5.35168648E-01  -8.27554986E-02   4.03587036E+01   4.03587036E+01   5.35168648E-01  -8.27554986E-02   4.04414597E+01  -1.36037054E+01   4.01253586E+01   2.29342985E+00   3.86004410E+01  -8.27554986E-02   8.18099689E+00
              728                1   3.39071274E+01   2.91100578E+01   2.91100578E+01  -9.67591107E-01  -7.63578415E+00   2.91100578E+01   2.91100578E+01  -9.67591107E-01  -7.63578415E+00   3.67458420E+01  -6.83556128E+00   3.23822403E+01   2.96800256E-01   2.78456669E+01  -7.63578415E+00   6.03583002E+00
              728                2   3.34234428E+01   2.87447014E+01   2.87447014E+01  -6.02233350E-01  -7.63578415E+00   2.87447014E+01   2.87447014E+01  -6.02233350E-01  -7.63578415E+00   3.63804855E+01  -6.83556128E+00   3.16935387E+01   6.61234736E-01   2.74812336E+01  -7.63578415E+00   5.95672226E+00
              728                3   3.38280449E+01   2.90505733E+01   2.90505733E+01  -9.08106446E-01  -7.63578415E+00   2.90505733E+01   2.90505733E+01  -9.08106446E-01  -7.63578415E+00   3.66863594E+01  -6.83556128E+00   3.22709656E+01   2.06428602E-01   2.79360390E+01  -7.63578415E+00   5.66990376E+00
              728                4   3.33426247E+01   2.86832829E+01   2.86832829E+01  -5.40814698E-01  -7.63578415E+00   2.86832829E+01   2.86832829E+01  -5.40814698E-01  -7.63578415E+00   3.63190651E+01  -6.83556128E+00   3.15764980E+01   5.70185065E-01   2.75722828E+01  -7.63578415E+00   5.58870602E+00
              729                1   2.09373535E+02   2.00011261E+02   2.00011261E+02  -1.75624104E+01  -6.38321638E-02   2.00011261E+02   2.00011261E+02  -6.38321638E-02  -1.75624104E+01   2.17573669E+02  -6.07950096E+01   2.07718796E+02  -1.75155411E+01   1.99964386E+02  -6.38321638E-02  -3.19325447E+00
              729                2   2.08471634E+02   1.99501694E+02   1.99501694E+02  -1.61180534E+01  -9.98611569E-01   1.99501694E+02   1.99501694E+02  -9.98611569E-01  -1.61180534E+01   2.15619751E+02  -6.07950096E+01   2.07232697E+02  -1.60005684E+01   1.99384201E+02  -9.98611569E-01  -5.03182650E+00
              729                3   2.09842972E+02   2.00260330E+02   2.00260330E+02  -1.84293079E+01   5.53998053E-01   2.00260330E+02   2.00260330E+02   5.53998053E-01  -1.84293079E+01   2.18689636E+02  -6.07950096E+01   2.07897964E+02  -1.82466469E+01   2.00077667E+02   5.53998053E-01  -6.31771278E+00
              729                4   2.09034134E+02   1.99811691E+02   1.99811691E+02  -1.71311417E+01  -2.95532614E-01   1.99811691E+02   1.99811691E+02  -2.95532614E-01  -1.71311417E+01   2.16942841E+02  -6.07950096E+01   2.07500565E+02  -1.68720455E+01   1.99552597E+02  -2.95532614E-01  -7.49286127E+00
              730                1   1.12397423E+02   1.23696167E+02   1.23696167E+02   1.07115040E+01   1.18953323E+01   1.23696167E+02   1.23696167E+02   1.18953323E+01   1.07115040E+01   1.12984665E+02  -4.87676697E+01   1.12383385E+02   1.22246685E+01   1.22182999E+02   1.18953323E+01   1.29874916E+01
              730                2   1.12371262E+02   1.23678810E+02   1.23678810E+02   1.07288456E+01   1.18953323E+01   1.23678810E+02   1.23678810E+02   1.18953323E+01   1.07288456E+01   1.12949959E+02  -4.87676582E+01   1.12357651E+02   1.22764435E+01   1.22131218E+02   1.18953323E+01   1.31303329E+01
              730                3   1.12176636E+02   1.23549683E+02   1.23549683E+02   1.08579693E+01   1.18953323E+01   1.23549683E+02   1.23549683E+02   1.18953323E+01   1.08579693E+01   1.12691719E+02  -4.87676582E+01   1.12165855E+02   1.23621206E+01   1.22045540E+02   1.18953323E+01   1.29322329E+01
              730                4   1.12146873E+02   1.23529945E+02   1.23529945E+02   1.08777246E+01   1.18953323E+01   1.23529945E+02   1.23529945E+02   1.18953323E+01   1.08777246E+01   1.12652222E+02  -4.87676697E+01   1.12136475E+02   1.24163771E+01   1.21991287E+02   1.18953323E+01   1.30753689E+01
              731                1   4.12531776E+01   4.66977005E+01   4.66977005E+01   5.49308777E+00   5.39612913E+00   4.66977005E+01   4.66977005E+01   5.49308777E+00   5.39612913E+00   4.13015709E+01  -1.91956387E+01   4.12529221E+01   5.90482187E+00   4.62859650E+01   5.39612913E+00   4.09827852E+00
              731                2   4.13237839E+01   4.67448120E+01   4.67448120E+01   5.44597244E+00   5.39612913E+00   4.67448120E+01   4.67448120E+01   5.44597244E+00   5.39612913E+00   4.13486824E+01  -1.91956387E+01   4.13237152E+01   5.81286287E+00   4.63779221E+01   5.39612913E+00   3.87524581E+00
              731                3   4.16472206E+01   4.69602852E+01   4.69602852E+01   5.23049784E+00   5.39612913E+00   4.69602852E+01   4.69602852E+01   5.39612913E+00   5.23049784E+00   4.17297897E+01  -1.91956387E+01   4.16464767E+01   5.65640211E+00   4.65343819E+01   5.39612913E+00   4.19422531E+00
              731                4   4.17200317E+01   4.70087166E+01   4.70087166E+01   5.18206978E+00   5.39612913E+00   4.70087166E+01   4.70087166E+01   5.39612913E+00   5.18206978E+00   4.18266487E+01  -1.91956387E+01   4.17187920E+01   5.56321573E+00   4.66275711E+01   5.39612913E+00   3.97452331E+00
              732                1   1.95063705E+02   2.16668625E+02   2.16668625E+02   5.77552938E+00   4.27171516E+01   2.16668625E+02   2.16668625E+02   4.27171516E+01   5.77552938E+00   2.10893097E+02  -8.83871078E+01   1.86948975E+02   2.67860317E+01   1.95658127E+02   4.27171516E+01   6.31627083E+01
              732                2   1.95831619E+02   2.16894989E+02   2.16894989E+02   4.19245386E+00   4.40738487E+01   2.16894989E+02   2.16894989E+02   4.40738487E+01   4.19245386E+00   2.12702545E+02  -8.83870926E+01   1.86363388E+02   2.15781307E+01   1.99509323E+02   4.40738487E+01   5.82727623E+01
              732                3   1.95936630E+02   2.16769211E+02   2.16769211E+02   3.32549167E+00   4.50666122E+01   2.16769211E+02   2.16769211E+02   4.50666122E+01   3.32549167E+00   2.13443710E+02  -8.83871078E+01   1.85533234E+02   2.64531059E+01   1.93641586E+02   4.50666122E+01   6.63442383E+01
              732                4   1.96693130E+02   2.16982208E+02   2.16982208E+02   1.87387502E+00   4.63052368E+01   2.16982208E+02   2.16982208E+02   4.63052368E+01   1.87387502E+00   2.15108322E+02  -8.83871078E+01   1.84889343E+02   2.12588577E+01   1.97597214E+02   4.63052368E+01   6.15962257E+01
              733                1   1.12286110E+02   1.23724174E+02   1.23724174E+02   1.09763374E+01   1.19055567E+01   1.23724174E+02   1.23724174E+02   1.19055567E+01   1.09763374E+01   1.12747841E+02  -4.88686943E+01   1.12277451E+02   1.20491743E+01   1.22651337E+02   1.19055567E+01   1.09457369E+01
              733                2   1.12214905E+02   1.23676895E+02   1.23676895E+02   1.10236206E+01   1.19055567E+01   1.23676895E+02   1.23676895E+02   1.19055567E+01   1.10236206E+01   1.12653275E+02  -4.88686943E+01   1.12207100E+02   1.21153297E+01   1.22585182E+02   1.19055567E+01   1.10359936E+01
              733                3   1.12138550E+02   1.23626183E+02   1.23626183E+02   1.10743341E+01   1.19055567E+01   1.23626183E+02   1.23626183E+02   1.19055567E+01   1.10743341E+01   1.12551849E+02  -4.88686943E+01   1.12131607E+02   1.21354189E+01   1.22565094E+02   1.19055567E+01   1.08766499E+01
              733                4   1.12066818E+02   1.23578529E+02   1.23578529E+02   1.11219730E+01   1.19055567E+01   1.23578529E+02   1.23578529E+02   1.19055567E+01   1.11219730E+01   1.12456551E+02  -4.88686867E+01   1.12060654E+02   1.22018499E+01   1.22498657E+02   1.19055567E+01   1.09668932E+01
              734                1   2.06282974E+02   1.95074005E+02   1.95074005E+02  -1.83035564E+01  -3.29453659E+00   1.95074005E+02   1.95074005E+02  -3.29453659E+00  -1.83035564E+01   2.13377563E+02  -5.78253021E+01   2.05049103E+02  -1.82636375E+01   1.95034088E+02  -3.29453659E+00  -2.91812253E+00
              734                2   2.05079361E+02   1.94357773E+02   1.94357773E+02  -1.66334209E+01  -4.24843168E+00   1.94357773E+02   1.94357773E+02  -4.24843168E+00  -1.66334209E+01   2.10991196E+02  -5.78253059E+01   2.04235413E+02  -1.65256500E+01   1.94250000E+02  -4.24843168E+00  -4.76728868E+00
              734                3   2.07138748E+02   1.95559677E+02   1.95559677E+02  -1.96492310E+01  -2.43453693E+00   1.95559677E+02   1.95559677E+02  -2.43453693E+00  -1.96492310E+01   2.15208908E+02  -5.78253021E+01   2.05520126E+02  -1.95040379E+01   1.95414490E+02  -2.43453693E+00  -5.58788443E+00
              734                4   2.05972778E+02   1.94877777E+02   1.94877777E+02  -1.80533371E+01  -3.34853435E+00   1.94877777E+02   1.94877777E+02  -3.34853435E+00  -1.80533371E+01   2.12931122E+02  -5.78253021E+01   2.04786819E+02  -1.77923641E+01   1.94616806E+02  -3.34853435E+00  -7.44998503E+00
              735                1   1.43802780E+02   1.68354645E+02   1.68354645E+02   2.03289642E+01   2.91840057E+01   1.68354645E+02   1.68354645E+02   2.91840057E+01   2.03289642E+01   1.48025681E+02  -7.26225357E+01   1.43187454E+02   2.65265713E+01   1.62157043E+02   2.91840057E+01   2.96478329E+01
              735                2   1.46264755E+02   1.69945679E+02   1.69945679E+02   1.87379265E+01   2.91840057E+01   1.69945679E+02   1.69945679E+02   2.91840057E+01   1.87379265E+01   1.51207748E+02  -7.26225357E+01   1.45421936E+02   2.52081718E+01   1.63475433E+02   2.91840057E+01   3.06020851E+01
              735                3   1.43040268E+02   1.67860474E+02   1.67860474E+02   2.08231411E+01   2.91840057E+01   1.67860474E+02   1.67860474E+02   2.91840057E+01   2.08231411E+01   1.47037323E+02  -7.26225357E+01   1.42488953E+02   2.76380062E+01   1.61045609E+02   2.91840057E+01   3.09127216E+01
              735                4   1.45602463E+02   1.69518356E+02   1.69518356E+02   1.91652756E+01   2.91840057E+01   1.69518356E+02   1.69518356E+02   2.91840057E+01   1.91652756E+01   1.50353073E+02  -7.26225433E+01   1.44823898E+02   2.62325974E+01   1.62451019E+02   2.91840057E+01   3.18221245E+01
              736                1   1.50032291E+01   6.60082769E+00   6.60082769E+00  -2.96846658E-01  -1.06107655E+01   6.60082769E+00  -1.06107655E+01  -2.96846658E-01  -1.06107655E+01   1.72115936E+01   1.43559492E+00  -1.04266815E+01   5.45903826E+00   8.44942749E-01  -1.06107655E+01   2.56359267E+00
              736                2   1.44390383E+01   5.67338991E+00   5.67338991E+00   6.30590796E-01  -1.06107655E+01   5.67338991E+00  -1.06107655E+01   6.30590796E-01  -1.06107655E+01   1.62841549E+01   1.43559492E+00  -1.22079182E+01   4.75874090E+00   1.54524016E+00  -1.06107655E+01   1.94314420E+00
              736                3   1.51364994E+01   6.78976297E+00   6.78976297E+00  -4.85782325E-01  -1.06107655E+01   6.78976297E+00  -1.06107655E+01  -4.85782325E-01  -1.06107655E+01   1.74005280E+01   1.43559492E+00  -9.89115238E+00   4.79599571E+00   1.50798512E+00  -1.06107655E+01   3.24509430E+00
              736                4   1.45915432E+01   5.95078039E+00   5.95078039E+00   3.53200495E-01  -1.06107655E+01   5.95078039E+00  -1.06107655E+01   3.53200495E-01  -1.06107655E+01   1.65615463E+01   1.43559492E+00  -1.17845583E+01   4.10331488E+00   2.20066619E+00  -1.06107655E+01   2.63214874E+00
              737                1   1.65618607E+02   1.83270859E+02   1.83270859E+02   7.56664181E+00   3.00311050E+01   1.83270859E+02   1.83270859E+02   3.00311050E+01   7.56664181E+00   1.75704208E+02  -7.36228638E+01   1.62137772E+02   3.64354668E+01   1.54402023E+02   3.00311050E+01   6.51073380E+01
              737                2   1.61779892E+02   1.80853302E+02   1.80853302E+02   9.98418331E+00   3.00311050E+01   1.80853302E+02   1.80853302E+02   3.00311050E+01   9.98418331E+00   1.70869110E+02  -7.36228638E+01   1.58949478E+02   3.74994202E+01   1.53338058E+02   3.00311050E+01   6.28045845E+01
              737                3   1.67281998E+02   1.84315170E+02   1.84315170E+02   6.52231503E+00   3.00311050E+01   1.84315170E+02   1.84315170E+02   3.00311050E+01   6.52231503E+00   1.77792847E+02  -7.36228638E+01   1.63503555E+02   3.37907410E+01   1.57046738E+02   3.00311050E+01   6.40668716E+01
              737                4   1.63253860E+02   1.81782852E+02   1.81782852E+02   9.05463409E+00   3.00311050E+01   1.81782852E+02   1.81782852E+02   3.00311050E+01   9.05463409E+00   1.72728226E+02  -7.36228638E+01   1.60179871E+02   3.50308037E+01   1.55806686E+02   3.00311050E+01   6.17418556E+01
              738                1   2.32675133E+01   3.92058105E+01   3.92058105E+01   1.60130882E+01   1.58642225E+01   3.92058105E+01   3.92058105E+01   1.60130882E+01   1.58642225E+01   2.33415890E+01  -2.36943741E+01   2.32664413E+01   1.60136414E+01   3.92052574E+01   1.58642225E+01   1.13320440E-01
              738                2   2.37337418E+01   3.95165939E+01   3.95165939E+01   1.57023067E+01   1.58642225E+01   3.95165939E+01   3.95165939E+01   1.58642225E+01   1.57023067E+01   2.38142853E+01  -2.36943741E+01   2.37324982E+01   1.57029009E+01   3.95159988E+01   1.58642225E+01   1.18865363E-01
              738                3   2.32700481E+01   3.92075081E+01   3.92075081E+01   1.60113926E+01   1.58642225E+01   3.92075081E+01   3.92075081E+01   1.60113926E+01   1.58642225E+01   2.33432846E+01  -2.36943741E+01   2.32690010E+01   1.60189590E+01   3.91999397E+01   1.58642225E+01   4.18895096E-01
              738                4   2.37383900E+01   3.95196800E+01   3.95196800E+01   1.56992159E+01   1.58642225E+01   3.95196800E+01   3.95196800E+01   1.58642225E+01   1.56992159E+01   2.38204632E+01  -2.36943722E+01   2.37371044E+01   1.57067432E+01   3.95121536E+01   1.58642225E+01   4.23338681E-01
              739                1   1.40302811E+02   1.62631134E+02   1.62631134E+02   1.80115948E+01   2.70855331E+01   1.62631134E+02   1.62631134E+02   2.70855331E+01   1.80115948E+01   1.44619537E+02  -6.92427597E+01   1.39640335E+02   2.59329185E+01   1.54709808E+02   2.70855331E+01   3.29064026E+01
              739                2   1.38335571E+02   1.61356461E+02   1.61356461E+02   1.92862473E+01   2.70855331E+01   1.61356461E+02   1.61356461E+02   2.70855331E+01   1.92862473E+01   1.42070221E+02  -6.92427444E+01   1.37839615E+02   2.69817257E+01   1.53660995E+02   2.70855331E+01   3.21570778E+01
              739                3   1.40986740E+02   1.63073196E+02   1.63073196E+02   1.75695305E+01   2.70855331E+01   1.63073196E+02   1.63073196E+02   2.70855331E+01   1.75695305E+01   1.45503677E+02  -6.92427597E+01   1.40261459E+02   2.49771862E+01   1.55665543E+02   2.70855331E+01   3.19838715E+01
              739                4   1.39257553E+02   1.61954453E+02   1.61954453E+02   1.86882687E+01   2.70855331E+01   1.61954453E+02   1.61954453E+02   2.70855331E+01   1.86882687E+01   1.43266174E+02  -6.92427444E+01   1.38686218E+02   2.58525448E+01   1.54790176E+02   2.70855331E+01   3.12261238E+01
              740                1   2.14466934E+02   2.19674225E+02   2.19674225E+02  -1.09604299E+00   1.21220779E+01   2.19674225E+02   2.19674225E+02   1.21220779E+01  -1.09604299E+00   2.20770279E+02  -7.69000854E+01   2.13547592E+02  -1.06350470E+00   2.19641693E+02   1.21220779E+01   2.67990494E+00
              740                2   2.14386429E+02   2.19644882E+02   2.19644882E+02  -6.73627973E-01   1.17290163E+01   2.19644882E+02   2.19644882E+02   1.17290163E+01  -6.73627973E-01   2.20318512E+02  -7.69000931E+01   2.13577011E+02  -6.68519378E-01   2.19639771E+02   1.17290163E+01   1.06103015E+00
              740                3   2.14643295E+02   2.19744675E+02   2.19744675E+02  -1.85819983E+00   1.28137856E+01   2.19744675E+02   2.19744675E+02   1.28137856E+01  -1.85819983E+00   2.21602875E+02  -7.69000854E+01   2.13510727E+02  -1.84216046E+00   2.19728638E+02   1.28137856E+01   1.88507879E+00
              740                4   2.14565842E+02   2.19719223E+02   2.19719223E+02  -1.45127845E+00   1.24323168E+01   2.19719223E+02   2.19719223E+02   1.24323168E+01  -1.45127845E+00   2.21170502E+02  -7.69000854E+01   2.13551758E+02  -1.45098686E+00   2.19718933E+02   1.24323168E+01   2.53120989E-01
              741                1   2.83400993E+01   2.18371544E+01   2.18371544E+01  -6.83385551E-01  -9.98473644E+00   2.18371544E+01   2.18371544E+01  -6.83385551E-01  -9.98473644E+00   3.18218899E+01  -3.72301078E+00   2.45358105E+01   5.17876208E-01   2.06358929E+01  -9.98473644E+00   5.06063461E+00
              741                2   2.78599758E+01   2.14304237E+01   2.14304237E+01  -2.76654035E-01  -9.98473644E+00   2.14304237E+01   2.14304237E+01  -2.76654035E-01  -9.98473644E+00   3.14151611E+01  -3.72301126E+00   2.35772362E+01   9.20691729E-01   2.02330780E+01  -9.98473644E+00   4.95552778E+00
              741                3   2.82564011E+01   2.17668190E+01   2.17668190E+01  -6.13048792E-01  -9.98473644E+00   2.17668190E+01   2.17668190E+01  -6.13048792E-01  -9.98473644E+00   3.17515564E+01  -3.72301126E+00   2.43729324E+01   4.01126266E-01   2.07526436E+01  -9.98473644E+00   4.65495062E+00
              741                4   2.77744484E+01   2.13571091E+01   2.13571091E+01  -2.03340560E-01  -9.98473644E+00   2.13571091E+01   2.13571091E+01  -2.03340560E-01  -9.98473644E+00   3.13418465E+01  -3.72301078E+00   2.33999043E+01   8.03998888E-01   2.03497696E+01  -9.98473644E+00   4.55016041E+00
              742                1   4.36479187E+01   4.26119423E+01   4.26119423E+01  -4.59238201E-01  -1.59071422E+00   4.26119423E+01   4.26119423E+01  -4.59238201E-01  -1.59071422E+00   4.42026558E+01  -1.35206633E+01   4.36148987E+01   1.27944458E+00   4.08732567E+01  -1.59071422E+00   8.47727203E+00
              742                2   4.38738480E+01   4.27644348E+01   4.27644348E+01  -6.11730635E-01  -1.59071422E+00   4.27644348E+01   4.27644348E+01  -6.11730635E-01  -1.59071422E+00   4.43551483E+01  -1.35206633E+01   4.38492622E+01   1.21615958E+00   4.09365425E+01  -1.59071422E+00   8.71468258E+00
              742                3   4.33839340E+01   4.24333954E+01   4.24333954E+01  -2.80692518E-01  -1.59071422E+00   4.24333954E+01   4.24333954E+01  -2.80692518E-01  -1.59071422E+00   4.40241089E+01  -1.35206633E+01   4.33394012E+01   1.49416804E+00   4.06585350E+01  -1.59071422E+00   8.52416515E+00
              742                4   4.36152725E+01   4.25898819E+01   4.25898819E+01  -4.37179834E-01  -1.59071422E+00   4.25898819E+01   4.25898819E+01  -4.37179834E-01  -1.59071422E+00   4.41805954E+01  -1.35206633E+01   4.35809288E+01   1.43008125E+00   4.07226219E+01  -1.59071422E+00   8.76675892E+00
              743                1   2.02438156E+02   1.97403778E+02   1.97403778E+02  -1.21432953E+01   2.91554570E+00   1.97403778E+02   1.97403778E+02   2.91554570E+00  -1.21432953E+01   2.09547073E+02  -6.27253418E+01   2.01172226E+02  -1.21429157E+01   1.97403397E+02   2.91554570E+00  -2.82732248E-01
              743                2   2.01084885E+02   1.96613037E+02   1.96613037E+02  -1.00442581E+01   1.60724199E+00   1.96613037E+02   1.96613037E+02   1.60724199E+00  -1.00442581E+01   2.06657303E+02  -6.27253418E+01   2.00323288E+02  -1.00190020E+01   1.96587784E+02   1.60724199E+00  -2.28465700E+00
              743                3   2.03557983E+02   1.98017944E+02   1.98017944E+02  -1.40797625E+01   4.23783779E+00   1.98017944E+02   1.98017944E+02   4.23783779E+00  -1.40797625E+01   2.12097717E+02  -6.27253418E+01   2.01691223E+02  -1.40321312E+01   1.97970322E+02   4.23783779E+00  -3.17795134E+00
              743                4   2.02123459E+02   1.97202637E+02   1.97202637E+02  -1.19197569E+01   2.89313650E+00   1.97202637E+02   1.97202637E+02   2.89313650E+00  -1.19197569E+01   2.09122391E+02  -6.27253418E+01   2.00896790E+02  -1.17702370E+01   1.97053116E+02   2.89313650E+00  -5.58985329E+00
              744                1   1.92736374E+02   1.91271973E+02   1.91271973E+02  -7.35200548E+00   5.01921463E+00   1.91271973E+02   1.91271973E+02   5.01921463E+00  -7.35200548E+00   1.98623978E+02  -6.29797249E+01   1.91840027E+02  -7.33018875E+00   1.91250153E+02   5.01921463E+00   2.08172894E+00
              744                2   1.90662689E+02   1.89965240E+02   1.89965240E+02  -5.35347033E+00   4.32741117E+00   1.89965240E+02   1.89965240E+02   4.32741117E+00  -5.35347033E+00   1.95318710E+02  -6.29797249E+01   1.90108536E+02  -5.35342932E+00   1.89965195E+02   4.32741117E+00   9.49181393E-02
              744                3   1.94128891E+02   1.92138336E+02   1.92138336E+02  -8.70936775E+00   5.51021147E+00   1.92138336E+02   1.92138336E+02   5.51021147E+00  -8.70936775E+00   2.00847702E+02  -6.29797249E+01   1.92951996E+02  -8.70624065E+00   1.92135208E+02   5.51021147E+00  -7.92847633E-01
              744                4   1.92218521E+02   1.90947174E+02   1.90947174E+02  -6.85513449E+00   4.84714651E+00   1.90947174E+02   1.90947174E+02   4.84714651E+00  -6.85513449E+00   1.97802307E+02  -6.29797325E+01   1.91414597E+02  -6.82038021E+00   1.90912415E+02   4.84714651E+00  -2.62194467E+00
              745                1   6.05400848E+01   5.34280052E+01   5.34280052E+01  -5.47557211E+00  -8.62559700E+00   5.34280052E+01   5.34280052E+01  -5.47557211E+00  -8.62559700E+00   6.20536041E+01  -1.31089449E+01   6.03552895E+01  -3.38330977E-02   4.79862671E+01  -8.62559700E+00   1.70565357E+01
              745                2   5.96705894E+01   5.28304558E+01   5.28304558E+01  -4.87802076E+00  -8.62559700E+00   5.28304558E+01   5.28304558E+01  -4.87802076E+00  -8.62559700E+00   6.14560509E+01  -1.31089449E+01   5.94049530E+01   6.90002441E-01   4.72624321E+01  -8.62559700E+00   1.70387573E+01
              745                3   6.00454407E+01   5.30885124E+01   5.30885124E+01  -5.13607264E+00  -8.62559700E+00   5.30885124E+01   5.30885124E+01  -5.13607264E+00  -8.62559700E+00   6.17141075E+01  -1.31089478E+01   5.98166656E+01  -9.84355509E-02   4.80508728E+01  -8.62559700E+00   1.63687687E+01
              745                4   5.91408081E+01   5.24645615E+01   5.24645615E+01  -4.51212597E+00  -8.62559700E+00   5.24645615E+01   5.24645615E+01  -4.51212597E+00  -8.62559700E+00   6.10901566E+01  -1.31089449E+01   5.88176651E+01   6.36238098E-01   4.73161964E+01  -8.62559700E+00   1.63349648E+01
              746                1   5.96489944E+01   5.43307076E+01   5.43307076E+01  -4.45005608E+00  -6.15016794E+00   5.43307076E+01   5.43307076E+01  -4.45005608E+00  -6.15016794E+00   6.04808769E+01  -1.45768280E+01   5.95944481E+01  -2.00793982E+00   5.18885918E+01  -6.15016794E+00   1.17296886E+01
              746                2   5.92821465E+01   5.40822449E+01   5.40822449E+01  -4.20159101E+00  -6.15016794E+00   5.40822449E+01   5.40822449E+01  -4.20159101E+00  -6.15016794E+00   6.02324142E+01  -1.45768280E+01   5.92100296E+01  -1.91637540E+00   5.17970276E+01  -6.15016794E+00   1.13123379E+01
              746                3   6.01710968E+01   5.46833496E+01   5.46833496E+01  -4.80269480E+00  -6.15016794E+00   5.46833496E+01   5.46833496E+01  -4.80269480E+00  -6.15016794E+00   6.08335152E+01  -1.45768280E+01   6.01371346E+01  -2.44421840E+00   5.23248711E+01  -6.15016794E+00   1.16075001E+01
              746                4   5.98190994E+01   5.44457245E+01   5.44457245E+01  -4.56507301E+00  -6.15016794E+00   5.44457245E+01   5.44457245E+01  -4.56507301E+00  -6.15016794E+00   6.05958939E+01  -1.45768280E+01   5.97718201E+01  -2.36039114E+00   5.22410431E+01  -6.15016794E+00   1.11910448E+01
              747                1   6.02357063E+01   5.42837715E+01   5.42837715E+01  -4.82583714E+00  -7.01817179E+00   5.42837715E+01   5.42837715E+01  -4.82583714E+00  -7.01817179E+00   6.13019447E+01  -1.41465874E+01   6.01458473E+01  -1.84598005E+00   5.13039169E+01  -7.01817179E+00   1.29328480E+01
              747                2   5.98581696E+01   5.40269775E+01   5.40269775E+01  -4.56903696E+00  -7.01817179E+00   5.40269775E+01   5.40269775E+01  -4.56903696E+00  -7.01817179E+00   6.10451469E+01  -1.41465883E+01   5.97452850E+01  -1.78904819E+00   5.12469864E+01  -7.01817179E+00   1.24566431E+01
              747                3   6.08331108E+01   5.46888657E+01   5.46888657E+01  -5.23093176E+00  -7.01817179E+00   5.46888657E+01   5.46888657E+01  -5.23093176E+00  -7.01817179E+00   6.17070389E+01  -1.41465874E+01   6.07740021E+01  -2.33200336E+00   5.17899399E+01  -7.01817179E+00   1.28568802E+01
              747                4   6.04425964E+01   5.44242363E+01   5.44242363E+01  -4.96629763E+00  -7.01817179E+00   5.44242363E+01   5.44242363E+01  -4.96629763E+00  -7.01817179E+00   6.14424095E+01  -1.41465883E+01   6.03641624E+01  -2.26966929E+00   5.17276077E+01  -7.01817179E+00   1.23645630E+01
              748                1   5.94959984E+01   5.40500450E+01   5.40500450E+01  -3.31480718E+00  -7.36965418E+00   5.40500450E+01   5.40500450E+01  -3.31480718E+00  -7.36965418E+00   6.14196968E+01  -1.44551935E+01   5.91839218E+01   7.43059111E+00   4.33046455E+01  -7.36965418E+00   2.23817921E+01
              748                2   5.83345375E+01   5.32434692E+01   5.32434692E+01  -2.50823283E+00  -7.36965418E+00   5.32434692E+01   5.32434692E+01  -2.50823283E+00  -7.36965418E+00   6.06131248E+01  -1.44551935E+01   5.78761597E+01   7.17309189E+00   4.35621452E+01  -7.36965418E+00   2.11192398E+01
              748                3   6.13257065E+01   5.53070755E+01   5.53070755E+01  -4.57183790E+00  -7.36965418E+00   5.53070755E+01   5.53070755E+01  -4.57183790E+00  -7.36965418E+00   6.26767311E+01  -1.44551935E+01   6.11818657E+01   6.27198648E+00   4.44632492E+01  -7.36965418E+00   2.30592270E+01
              748                4   6.01497688E+01   5.45010223E+01   5.45010223E+01  -3.76578617E+00  -7.36965418E+00   5.45010223E+01   5.45010223E+01  -3.76578617E+00  -7.36965418E+00   6.18706779E+01  -1.44551935E+01   5.99061432E+01   6.00757217E+00   4.47276649E+01  -7.36965418E+00   2.17702522E+01
              749                1   1.17798538E+02   1.32698090E+02   1.32698090E+02   1.34260798E+01   1.64305038E+01   1.32698090E+02   1.32698090E+02   1.64305038E+01   1.34260798E+01   1.19272018E+02  -5.41848946E+01   1.17712288E+02   1.72085152E+01   1.28915665E+02   1.64305038E+01   2.09005127E+01
              749                2   1.17517632E+02   1.32513062E+02   1.32513062E+02   1.36111069E+01   1.64305038E+01   1.32513062E+02   1.32513062E+02   1.64305038E+01   1.36111069E+01   1.18901962E+02  -5.41848946E+01   1.17441490E+02   1.73670654E+01   1.28757111E+02   1.64305038E+01   2.07962399E+01
              749                3   1.17890472E+02   1.32758621E+02   1.32758621E+02   1.33655672E+01   1.64305038E+01   1.32758621E+02   1.32758621E+02   1.64305038E+01   1.33655672E+01   1.19393059E+02  -5.41848946E+01   1.17800781E+02   1.70837803E+01   1.29040405E+02   1.64305038E+01   2.07389469E+01
              749                4   1.17577301E+02   1.32552383E+02   1.32552383E+02   1.35717945E+01   1.64305038E+01   1.32552383E+02   1.32552383E+02   1.64305038E+01   1.35717945E+01   1.18980591E+02  -5.41848946E+01   1.17499062E+02   1.72389183E+01   1.28885254E+02   1.64305038E+01   2.05637836E+01
              750                1   6.57998352E+01   5.91300430E+01   5.91300430E+01  -5.89299440E+00  -7.42001057E+00   5.91300430E+01   5.91300430E+01  -5.89299440E+00  -7.42001057E+00   6.65500565E+01  -1.52723465E+01   6.57599487E+01  -2.71613598E+00   5.59531860E+01  -7.42001057E+00   1.40170078E+01
              750                2   6.51067429E+01   5.86615448E+01   5.86615448E+01  -5.42449665E+00  -7.42001057E+00   5.86615448E+01   5.86615448E+01  -5.42449665E+00  -7.42001057E+00   6.60815582E+01  -1.52723465E+01   6.50378799E+01  -2.13541436E+00   5.53724632E+01  -7.42001057E+00   1.41409416E+01
              750                3   6.53746414E+01   5.88428497E+01   5.88428497E+01  -5.60580206E+00  -7.42001057E+00   5.88428497E+01   5.88428497E+01  -5.60580206E+00  -7.42001057E+00   6.62628632E+01  -1.52723465E+01   6.53179626E+01  -2.65626740E+00   5.58933182E+01  -7.42001057E+00   1.34682474E+01
              750                4   6.46670609E+01   5.83633766E+01   5.83633766E+01  -5.12632370E+00  -7.42001057E+00   5.83633766E+01   5.83633766E+01  -5.12632370E+00  -7.42001057E+00   6.57833862E+01  -1.52723475E+01   6.45754395E+01  -2.06877637E+00   5.53058281E+01  -7.42001057E+00   1.35931683E+01
              751                1   5.12366295E+01   5.27103271E+01   5.27103271E+01   1.42584348E+00   1.52168405E+00   5.27103271E+01   5.27103271E+01   1.52168405E+00   1.42584348E+00   5.12844810E+01  -1.85526180E+01   5.12364273E+01   1.48320305E+00   5.26529655E+01   1.52168405E+00   1.71417856E+00
              751                2   5.08961258E+01   5.24832840E+01   5.24832840E+01   1.65288174E+00   1.52168405E+00   5.24832840E+01   5.24832840E+01   1.65288174E+00   1.52168405E+00   5.09616013E+01  -1.85526161E+01   5.08957481E+01   1.70808589E+00   5.24280815E+01   1.52168405E+00   1.67419004E+00
              751                3   5.12761192E+01   5.27366257E+01   5.27366257E+01   1.39954507E+00   1.52168405E+00   5.27366257E+01   5.27366257E+01   1.52168405E+00   1.39954507E+00   5.13370781E+01  -1.85526180E+01   5.12757912E+01   1.44285047E+00   5.26933174E+01   1.52168405E+00   1.49042881E+00
              751                4   5.09359016E+01   5.25098305E+01   5.25098305E+01   1.62633348E+00   1.52168405E+00   5.25098305E+01   5.25098305E+01   1.62633348E+00   1.52168405E+00   5.09881477E+01  -1.85526161E+01   5.09356651E+01   1.66771054E+00   5.24684563E+01   1.52168405E+00   1.45039248E+00
              752                1   3.45917625E+01   3.19837322E+01   3.19837322E+01  -3.64988267E-01  -4.48250675E+00   3.19837322E+01   3.19837322E+01  -3.64988267E-01  -4.48250675E+00   3.64662399E+01  -9.04541302E+00   3.40338821E+01   3.77472639E-01   3.12412720E+01  -4.48250675E+00   4.84421206E+00
              752                2   3.42085114E+01   3.17097073E+01   3.17097073E+01  -9.09608006E-02  -4.48250675E+00   3.17097073E+01   3.17097073E+01  -9.09608006E-02  -4.48250675E+00   3.61922150E+01  -9.04541302E+00   3.35655403E+01   6.41289771E-01   3.09774551E+01  -4.48250675E+00   4.76968479E+00
              752                3   3.45884438E+01   3.19813671E+01   3.19813671E+01  -3.62622410E-01  -4.48250675E+00   3.19813671E+01   3.19813671E+01  -3.62622410E-01  -4.48250675E+00   3.64638748E+01  -9.04541302E+00   3.40298576E+01   2.99473554E-01   3.13192711E+01  -4.48250675E+00   4.58000326E+00
              752                4   3.42048798E+01   3.17071037E+01   3.17071037E+01  -8.83572772E-02  -4.48250675E+00   3.17071037E+01   3.17071037E+01  -8.83572772E-02  -4.48250675E+00   3.61896095E+01  -9.04541302E+00   3.35610657E+01   5.63505352E-01   3.10552406E+01  -4.48250675E+00   4.50570107E+00
              753                1   3.56871262E+01   3.78092346E+01   3.78092346E+01   4.26633269E-01   4.10204268E+00   3.78092346E+01   3.78092346E+01   4.10204268E+00   4.26633269E-01   3.73825989E+01  -1.41126366E+01   3.52575455E+01   9.35790420E-01   3.73000755E+01   4.10204268E+00   4.33294344E+00
              753                2   3.55353050E+01   3.77125626E+01   3.77125626E+01   5.23306310E-01   4.10204268E+00   3.77125626E+01   3.77125626E+01   4.10204268E+00   5.23306310E-01   3.71892586E+01  -1.41126375E+01   3.51264381E+01   1.00691032E+00   3.72289581E+01   4.10204268E+00   4.21320200E+00
              753                3   3.58485413E+01   3.79119110E+01   3.79119110E+01   3.23954910E-01   4.10204268E+00   3.79119110E+01   3.79119110E+01   4.10204268E+00   3.23954910E-01   3.75879555E+01  -1.41126366E+01   3.53964767E+01   8.13667297E-01   3.74221992E+01   4.10204268E+00   4.26233149E+00
              753                4   3.56974792E+01   3.78158226E+01   3.78158226E+01   4.20049042E-01   4.10204268E+00   3.78158226E+01   3.78158226E+01   4.10204268E+00   4.20049042E-01   3.73957710E+01  -1.41126375E+01   3.52664680E+01   8.84607553E-01   3.73512611E+01   4.10204268E+00   4.14207315E+00
              754                1   1.91960850E+01   9.50221634E+00   9.50221634E+00  -4.31561321E-01  -1.26250839E+01   9.50221634E+00  -1.26250839E+01  -4.31561321E-01  -1.26250839E+01   2.21273003E+01   1.18480968E+00  -1.07528048E+01   1.35571349E+00   7.71494150E+00  -1.26250839E+01   3.81576180E+00
              754                2   1.89978561E+01   9.24130917E+00   9.24130917E+00  -1.70653984E-01  -1.26250839E+01   9.24130917E+00  -1.26250839E+01  -1.70653984E-01  -1.26250839E+01   2.18663921E+01   1.18480968E+00  -1.17760372E+01   1.77384305E+00   7.29681206E+00  -1.26250839E+01   3.81057262E+00
              754                3   1.89746971E+01   9.21006298E+00   9.21006298E+00  -1.39407709E-01  -1.26250839E+01   9.21006298E+00  -1.26250839E+01  -1.39407709E-01  -1.26250839E+01   2.18351460E+01   1.18480968E+00  -1.18838606E+01   1.30332470E+00   7.76733017E+00  -1.26250839E+01   3.37747049E+00
              754                4   1.87713108E+01   8.92783451E+00   8.92783451E+00   1.42820343E-01  -1.26250839E+01   8.92783451E+00  -1.26250839E+01   1.42820343E-01  -1.26250839E+01   2.15529194E+01   1.18480968E+00  -1.27517757E+01   1.71786845E+00   7.35278654E+00  -1.26250839E+01   3.36987281E+00
              755                1   9.23573303E+01   8.79450455E+01   8.79450455E+01  -4.36323690E+00  -4.46125221E+00   8.79450455E+01   8.79450455E+01  -4.36323690E+00  -4.46125221E+00   9.24062958E+01  -2.63735199E+01   9.23572159E+01  -3.51434970E+00   8.70961609E+01  -4.46125221E+00   8.81127739E+00
              755                2   9.21676178E+01   8.78184586E+01   8.78184586E+01  -4.23665571E+00  -4.46125221E+00   8.78184586E+01   8.78184586E+01  -4.23665571E+00  -4.46125221E+00   9.22797089E+01  -2.63735180E+01   9.21669998E+01  -3.43695474E+00   8.70187607E+01  -4.46125221E+00   8.54264164E+00
              755                3   9.27213058E+01   8.81876678E+01   8.81876678E+01  -4.60585642E+00  -4.46125221E+00   8.81876678E+01   8.81876678E+01  -4.46125221E+00  -4.60585642E+00   9.27935257E+01  -2.63735199E+01   9.27210464E+01  -3.77650428E+00   8.73583145E+01  -4.46125221E+00   8.73330688E+00
              755                4   9.25324326E+01   8.80618057E+01   8.80618057E+01  -4.47999859E+00  -4.46125221E+00   8.80618057E+01   8.80618057E+01  -4.46125221E+00  -4.47999859E+00   9.25418091E+01  -2.63735199E+01   9.25324326E+01  -3.69908261E+00   8.72808914E+01  -4.46125221E+00   8.46508503E+00
              756                1   1.38204391E+02   1.66820038E+02   1.66820038E+02   2.63507843E+01   3.09977055E+01   1.66820038E+02   1.66820038E+02   3.09977055E+01   2.63507843E+01   1.40469254E+02  -7.47228470E+01   1.38028458E+02   2.83702736E+01   1.64800552E+02   3.09977055E+01   1.67211647E+01
              756                2   1.39132019E+02   1.67427902E+02   1.67427902E+02   2.57429352E+01   3.09977055E+01   1.67427902E+02   1.67427902E+02   3.09977055E+01   2.57429352E+01   1.41684967E+02  -7.47228470E+01   1.38908493E+02   2.74541016E+01   1.65716736E+02   3.09977055E+01   1.54763861E+01
              756                3   1.39635056E+02   1.67757034E+02   1.67757034E+02   2.54137974E+01   3.09977055E+01   1.67757034E+02   1.67757034E+02   3.09977055E+01   2.54137974E+01   1.42343246E+02  -7.47228470E+01   1.39383499E+02   2.76925926E+01   1.65478241E+02   3.09977055E+01   1.78655739E+01
              756                4   1.40584564E+02   1.68377411E+02   1.68377411E+02   2.47934284E+01   3.09977055E+01   1.68377411E+02   1.68377411E+02   3.09977055E+01   2.47934284E+01   1.43583984E+02  -7.47228470E+01   1.40276031E+02   2.68143692E+01   1.66356461E+02   3.09977055E+01   1.69142399E+01
              757                1   5.23402138E+01   4.54768295E+01   4.54768295E+01  -4.27892637E+00  -9.11252403E+00   4.54768295E+01   4.54768295E+01  -4.27892637E+00  -9.11252403E+00   5.45893517E+01  -1.06951265E+01   5.18345070E+01   4.49097919E+00   3.67069244E+01  -9.11252403E+00   1.89589558E+01
              757                2   5.12746773E+01   4.47258415E+01   4.47258415E+01  -3.52794003E+00  -9.11252403E+00   4.47258415E+01   4.47258415E+01  -3.52794003E+00  -9.11252403E+00   5.38383675E+01  -1.06951265E+01   5.05836678E+01   5.33138943E+00   3.58665123E+01  -9.11252403E+00   1.86817684E+01
              757                3   5.14406166E+01   4.48432999E+01   4.48432999E+01  -3.64539409E+00  -9.11252403E+00   4.48432999E+01   4.48432999E+01  -3.64539409E+00  -9.11252403E+00   5.39558258E+01  -1.06951265E+01   5.07808228E+01   4.24288416E+00   3.69550209E+01  -9.11252403E+00   1.78960171E+01
              757                4   5.03329811E+01   4.40555573E+01   4.40555573E+01  -2.85765433E+00  -9.11252403E+00   4.40555573E+01   4.40555573E+01  -2.85765433E+00  -9.11252403E+00   5.31680794E+01  -1.06951265E+01   4.94472618E+01   5.09806108E+00   3.60998421E+01  -9.11252403E+00   1.76049633E+01
              758                1   2.88416100E+01   2.27533054E+01   2.27533054E+01  -5.86508572E-01  -9.49032879E+00   2.27533054E+01   2.27533054E+01  -5.86508572E-01  -9.49032879E+00   3.22436333E+01  -4.22548962E+00   2.54625397E+01   4.48915541E-01   2.17178822E+01  -9.49032879E+00   4.80567408E+00
              758                2   2.83716412E+01   2.23627586E+01   2.23627586E+01  -1.95958346E-01  -9.49032879E+00   2.23627586E+01   2.23627586E+01  -1.95958346E-01  -9.49032879E+00   3.18530865E+01  -4.22549009E+00   2.45789871E+01   8.31178129E-01   2.13356209E+01  -9.49032879E+00   4.70275259E+00
              758                3   2.87825661E+01   2.27046127E+01   2.27046127E+01  -5.37813485E-01  -9.49032879E+00   2.27046127E+01   2.27046127E+01  -5.37813485E-01  -9.49032879E+00   3.21949425E+01  -4.22549009E+00   2.53541107E+01   3.35530460E-01   2.18312683E+01  -9.49032879E+00   4.41994572E+00
              758                4   2.83111095E+01   2.23119431E+01   2.23119431E+01  -1.45143896E-01  -9.49032879E+00   2.23119431E+01   2.23119431E+01  -1.45143896E-01  -9.49032879E+00   3.18022728E+01  -4.22549009E+00   2.44615765E+01   7.16792464E-01   2.14500065E+01  -9.49032879E+00   4.31435490E+00
              759                1   3.07035561E+01   4.23238983E+01   4.23238983E+01   1.16732073E+01   1.15677462E+01   4.23238983E+01   4.23238983E+01   1.16732073E+01   1.15677462E+01   3.07561512E+01  -2.18549500E+01   3.07031479E+01   1.17401953E+01   4.22569084E+01   1.15677462E+01   1.43134749E+00
              759                2   3.07075253E+01   4.23265457E+01   4.23265457E+01   1.16705542E+01   1.15677462E+01   4.23265457E+01   4.23265457E+01   1.16705542E+01   1.15677462E+01   3.07588005E+01  -2.18549500E+01   3.07071381E+01   1.17143459E+01   4.22827568E+01   1.15677462E+01   1.15780973E+00
              759                3   3.11246967E+01   4.26044998E+01   4.26044998E+01   1.13926010E+01   1.15677462E+01   4.26044998E+01   4.26044998E+01   1.15677462E+01   1.13926010E+01   3.12118988E+01  -2.18549500E+01   3.11235867E+01   1.14609280E+01   4.25361748E+01   1.15677462E+01   1.45873857E+00
              759                4   3.11281090E+01   4.26067696E+01   4.26067696E+01   1.13903332E+01   1.15677462E+01   4.26067696E+01   4.26067696E+01   1.15677462E+01   1.13903332E+01   3.12164345E+01  -2.18549500E+01   3.11269703E+01   1.14354954E+01   4.25616074E+01   1.15677462E+01   1.18648326E+00
              760                1   4.35115929E+01   4.78431320E+01   4.78431320E+01   4.36708736E+00   4.29607725E+00   4.78431320E+01   4.78431320E+01   4.36708736E+00   4.29607725E+00   4.35470543E+01  -1.88354321E+01   4.35114632E+01   4.73767471E+00   4.74725456E+01   4.29607725E+00   3.99678969E+00
              760                2   4.38817673E+01   4.80897675E+01   4.80897675E+01   4.12045193E+00   4.29607725E+00   4.80897675E+01   4.80897675E+01   4.29607725E+00   4.12045193E+00   4.39693146E+01  -1.88354321E+01   4.38809738E+01   4.50478649E+00   4.77054329E+01   4.29607725E+00   4.09282875E+00
              760                3   4.34386177E+01   4.77944260E+01   4.77944260E+01   4.41579294E+00   4.29607725E+00   4.77944260E+01   4.77944260E+01   4.41579294E+00   4.29607725E+00   4.34983521E+01  -1.88354321E+01   4.34382439E+01   4.83024216E+00   4.73799782E+01   4.29607725E+00   4.21977282E+00
              760                4   4.38060722E+01   4.80393906E+01   4.80393906E+01   4.17082548E+00   4.29607725E+00   4.80393906E+01   4.80393906E+01   4.29607725E+00   4.17082548E+00   4.38685646E+01  -1.88354321E+01   4.38056717E+01   4.59875631E+00   4.76114616E+01   4.29607725E+00   4.31155634E+00
              761                1   1.38962540E+02   1.52693848E+02   1.52693848E+02   4.68643665E+00   2.50157146E+01   1.52693848E+02   1.52693848E+02   2.50157146E+01   4.68643665E+00   1.48007401E+02  -6.07986641E+01   1.35556396E+02   5.01696930E+01   1.07210579E+02   2.50157146E+01   6.82871323E+01
              761                2   1.40646011E+02   1.53746475E+02   1.53746475E+02   3.63381076E+00   2.50157146E+01   1.53746475E+02   1.53746475E+02   2.50157146E+01   3.63381076E+00   1.50112656E+02  -6.07986641E+01   1.36917618E+02   4.71612816E+01   1.10218994E+02   2.50157146E+01   6.81130219E+01
              761                3   1.43302536E+02   1.55403183E+02   1.55403183E+02   1.97709620E+00   2.50157146E+01   1.55403183E+02   1.55403183E+02   2.50157146E+01   1.97709620E+00   1.53426086E+02  -6.07986641E+01   1.39044159E+02   5.01244583E+01   1.07255814E+02   2.50157146E+01   7.11961594E+01
              761                4   1.45000534E+02   1.56459473E+02   1.56459473E+02   9.20800745E-01   2.50157146E+01   1.56459473E+02   1.56459473E+02   2.50157146E+01   9.20800745E-01   1.55538681E+02  -6.07986641E+01   1.40390182E+02   4.69990234E+01   1.10381248E+02   2.50157146E+01   7.10193176E+01
              762                1   3.38637123E+01   3.39346733E+01   3.39346733E+01   2.18297318E-01  -7.44820237E-02   3.39346733E+01   3.39346733E+01   2.18297318E-01  -7.44820237E-02   3.40091553E+01  -1.13594961E+01   3.38608665E+01   5.87001085E-01   3.35659676E+01  -7.44820237E-02   3.50648475E+00
              762                2   3.35939636E+01   3.37538033E+01   3.37538033E+01   3.99166644E-01  -7.44820237E-02   3.37538033E+01   3.37538033E+01   3.99166644E-01  -7.44820237E-02   3.38282852E+01  -1.13594961E+01   3.35864487E+01   7.52082467E-01   3.34008865E+01  -7.44820237E-02   3.41274691E+00
              762                3   3.39539871E+01   3.39950905E+01   3.39950905E+01   1.57878458E-01  -7.44820237E-02   3.39950905E+01   3.39950905E+01   1.57878458E-01  -7.44820237E-02   3.40695724E+01  -1.13594961E+01   3.39522018E+01   4.91128683E-01   3.36618423E+01  -7.44820237E-02   3.34142900E+00
              762                4   3.36849060E+01   3.38148346E+01   3.38148346E+01   3.38137120E-01  -7.44820237E-02   3.38148346E+01   3.38148346E+01   3.38137120E-01  -7.44820237E-02   3.38893166E+01  -1.13594971E+01   3.36792145E+01   6.56225502E-01   3.34967461E+01  -7.44820237E-02   3.24767947E+00
              763                1   1.63244431E+02   1.92836197E+02   1.92836197E+02   2.48485718E+01   3.47892647E+01   1.92836197E+02   1.92836197E+02   3.47892647E+01   2.48485718E+01   1.67987625E+02  -8.41580124E+01   1.62561371E+02   2.80095387E+01   1.89675232E+02   3.47892647E+01   2.28256721E+01
              763                2   1.59628006E+02   1.90486404E+02   1.90486404E+02   2.71983757E+01   3.47892647E+01   1.90486404E+02   1.90486404E+02   3.47892647E+01   2.71983757E+01   1.63288025E+02  -8.41580124E+01   1.59221161E+02   3.01229382E+01   1.87561844E+02   3.47892647E+01   2.16562519E+01
              763                3   1.63949936E+02   1.93292999E+02   1.93292999E+02   2.43917847E+01   3.47892647E+01   1.93292999E+02   1.93292999E+02   3.47892647E+01   2.43917847E+01   1.68901215E+02  -8.41580124E+01   1.63205673E+02   2.68327274E+01   1.90852051E+02   3.47892647E+01   2.01574001E+01
              763                4   1.59942566E+02   1.90691360E+02   1.90691360E+02   2.69934273E+01   3.47892647E+01   1.90691360E+02   1.90691360E+02   3.47892647E+01   2.69934273E+01   1.63697937E+02  -8.41580124E+01   1.59514267E+02   2.92596073E+01   1.88425171E+02   3.47892647E+01   1.91267967E+01
              764                1   2.06667816E+02   2.22586960E+02   2.22586960E+02   9.26897451E-02   3.66149406E+01   2.22586960E+02   2.22586960E+02   3.66149406E+01   9.26897451E-02   2.22494278E+02  -8.64315262E+01   1.99212387E+02   1.91661179E-01   2.22487991E+02   3.66149406E+01   4.69167089E+00
              764                2   2.06000610E+02   2.22285049E+02   2.22285049E+02   1.08973849E+00   3.59197922E+01   2.22285049E+02   2.22285049E+02   3.59197922E+01   1.08973849E+00   2.21195312E+02  -8.64315262E+01   1.99213852E+02   1.48999310E+00   2.21884796E+02   3.59197922E+01   9.40072441E+00
              764                3   2.05516098E+02   2.22106964E+02   2.22106964E+02   2.06845880E+00   3.51191597E+01   2.22106964E+02   2.22106964E+02   3.51191597E+01   2.06845880E+00   2.20038513E+02  -8.64315262E+01   1.99405212E+02   2.09425592E+00   2.22081177E+02   3.51191597E+01   2.38226032E+00
              764                4   2.04805771E+02   2.21775360E+02   2.21775360E+02   3.16036415E+00   3.43588600E+01   2.21775360E+02   2.21775360E+02   3.43588600E+01   3.16036415E+00   2.18615005E+02  -8.64315262E+01   1.99354294E+02   3.39870048E+00   2.21537033E+02   3.43588600E+01   7.21431351E+00
              765                1   7.77481613E+01   7.56800156E+01   7.56800156E+01  -1.51322210E+00  -2.61142874E+00   7.56800156E+01   7.56800156E+01  -1.51322210E+00  -2.61142874E+00   7.82914429E+01  -2.38517895E+01   7.77307053E+01   9.36768246E+00   6.47991104E+01  -2.61142874E+00   2.68614635E+01
              765                2   7.77390594E+01   7.56739044E+01   7.56739044E+01  -1.50711167E+00  -2.61142874E+00   7.56739044E+01   7.56739044E+01  -1.50711167E+00  -2.61142874E+00   7.82853317E+01  -2.38517895E+01   7.77214127E+01   8.98215866E+00   6.51846390E+01  -2.61142874E+00   2.64489632E+01
              765                3   7.84357758E+01   7.61410065E+01   7.61410065E+01  -1.97421587E+00  -2.61142874E+00   7.61410065E+01   7.61410065E+01  -1.97421587E+00  -2.61142874E+00   7.87524414E+01  -2.38517895E+01   7.84299469E+01   9.16996193E+00   6.49968338E+01  -2.61142874E+00   2.73191719E+01
              765                4   7.85227051E+01   7.61991959E+01   7.61991959E+01  -2.03239822E+00  -2.61142874E+00   7.61991959E+01   7.61991959E+01  -2.03239822E+00  -2.61142874E+00   7.88106232E+01  -2.38517895E+01   7.85179062E+01   8.79699230E+00   6.53698044E+01  -2.61142874E+00   2.70171185E+01
              766                1   2.27620506E+01   1.44137239E+01   1.44137239E+01  -3.81638974E-01  -1.17970877E+01   1.44137239E+01   1.44137239E+01  -3.81638974E-01  -1.17970877E+01   2.62108116E+01  -7.44999230E-01   1.37638092E+01   3.56423521E+00   1.04678497E+01  -1.17970877E+01   6.54299021E+00
              766                2   2.25489712E+01   1.41929083E+01   1.41929083E+01  -1.60822898E-01  -1.17970877E+01   1.41929083E+01   1.41929083E+01  -1.60822898E-01  -1.17970877E+01   2.59899960E+01  -7.44999230E-01   1.27291794E+01   3.93051314E+00   1.01015720E+01  -1.17970877E+01   6.47973061E+00
              766                3   2.25018673E+01   1.41434574E+01   1.41434574E+01  -1.11372150E-01  -1.17970877E+01   1.41434574E+01   1.41434574E+01  -1.11372150E-01  -1.17970877E+01   2.59405460E+01  -7.44999230E-01   1.24778624E+01   3.46154881E+00   1.05705366E+01  -1.17970877E+01   6.17783260E+00
              766                4   2.22844238E+01   1.39119759E+01   1.39119759E+01   1.20109700E-01  -1.17970877E+01   1.39119759E+01   1.39119759E+01   1.20109700E-01  -1.17970877E+01   2.57090626E+01  -7.44999230E-01   1.11685724E+01   3.82514310E+00   1.02069426E+01  -1.17970877E+01   6.11326838E+00
              767                1   2.15675705E+02   2.22593018E+02   2.22593018E+02  -1.93831420E+00   1.70253220E+01   2.22593018E+02   2.22593018E+02   1.70253220E+01  -1.93831420E+00   2.24531342E+02  -7.92266769E+01   2.13787949E+02  -1.85511923E+00   2.22509827E+02   1.70253220E+01   4.32125902E+00
              767                2   2.15557236E+02   2.22576584E+02   2.22576584E+02  -1.18962324E+00   1.62930756E+01   2.22576584E+02   2.22576584E+02   1.62930756E+01  -1.18962324E+00   2.23766205E+02  -7.92266769E+01   2.13953445E+02  -1.17473257E+00   2.22561691E+02   1.62930756E+01   1.82557642E+00
              767                3   2.15874832E+02   2.22621704E+02   2.22621704E+02  -3.07172298E+00   1.81300392E+01   2.22621704E+02   2.22621704E+02   1.81300392E+01  -3.07172298E+00   2.25693436E+02  -7.92266769E+01   2.13513596E+02  -3.03686976E+00   2.22586853E+02   1.81300392E+01   2.80463457E+00
              767                4   2.15761032E+02   2.22613251E+02   2.22613251E+02  -2.35728621E+00   1.74240665E+01   2.22613251E+02   2.22613251E+02   1.74240665E+01  -2.35728621E+00   2.24970535E+02  -7.92266769E+01   2.13706604E+02  -2.35683274E+00   2.22612793E+02   1.74240665E+01   3.21482420E-01
              768                1   2.72074986E+01   1.93955517E+01   1.93955517E+01  -1.00457883E+00  -1.14956713E+01   1.93955517E+01   1.93955517E+01  -1.00457883E+00  -1.14956713E+01   3.08912220E+01  -2.29843354E+00   2.19088783E+01   3.89108133E+00   1.44998913E+01  -1.14956713E+01   8.71232510E+00
              768                2   2.70331097E+01   1.92398052E+01   1.92398052E+01  -8.48833025E-01  -1.14956713E+01   1.92398052E+01   1.92398052E+01  -8.48833025E-01  -1.14956713E+01   3.07354755E+01  -2.29843354E+00   2.14933014E+01   4.27070761E+00   1.41202650E+01  -1.14956713E+01   8.75413609E+00
              768                3   2.68623734E+01   1.90859375E+01   1.90859375E+01  -6.94966078E-01  -1.14956713E+01   1.90859375E+01   1.90859375E+01  -6.94966078E-01  -1.14956713E+01   3.05816097E+01  -2.29843354E+00   2.10729866E+01   3.84445453E+00   1.45465183E+01  -1.14956713E+01   8.31790257E+00
              768                4   2.66781197E+01   1.89182796E+01   1.89182796E+01  -5.27304649E-01  -1.14956713E+01   1.89182796E+01   1.89182796E+01  -5.27304649E-01  -1.14956713E+01   3.04139500E+01  -2.29843426E+00   2.06029186E+01   4.21480131E+00   1.41761723E+01  -1.14956713E+01   8.35017681E+00
              769                1   5.52096863E+01   4.88015938E+01   4.88015938E+01  -3.78803515E+00  -8.69991589E+00   4.88015938E+01   4.88015938E+01  -3.78803515E+00  -8.69991589E+00   5.75015068E+01  -1.21045465E+01   5.47148590E+01   5.03764200E+00   3.99759140E+01  -8.69991589E+00   1.96531563E+01
              769                2   5.43103676E+01   4.81697083E+01   4.81697083E+01  -3.15615535E+00  -8.69991589E+00   4.81697083E+01   4.81697083E+01  -3.15615535E+00  -8.69991589E+00   5.68696251E+01  -1.21045456E+01   5.36682663E+01   4.80897617E+00   4.02045784E+01  -8.69991589E+00   1.85842381E+01
              769                3   5.65737724E+01   4.97509460E+01   4.97509460E+01  -4.73739195E+00  -8.69991589E+00   4.97509460E+01   4.97509460E+01  -4.73739195E+00  -8.69991589E+00   5.84508629E+01  -1.21045456E+01   5.62602844E+01   4.07478094E+00   4.09387741E+01  -8.69991589E+00   2.00625572E+01
              769                4   5.56211357E+01   4.90890579E+01   4.90890579E+01  -4.07550621E+00  -8.69991589E+00   4.90890579E+01   4.90890579E+01  -4.07550621E+00  -8.69991589E+00   5.77889748E+01  -1.21045456E+01   5.51861420E+01   3.84146500E+00   4.11720886E+01  -8.69991589E+00   1.89268036E+01
              770                1   1.58772141E+02   1.88289307E+02   1.88289307E+02   2.65007362E+01   3.27161446E+01   1.88289307E+02   1.88289307E+02   3.27161446E+01   2.65007362E+01   1.61788574E+02  -8.25020599E+01   1.58498062E+02   2.79454269E+01   1.86844604E+02   3.27161446E+01   1.52200060E+01
              770                2   1.61142929E+02   1.89837143E+02   1.89837143E+02   2.49528885E+01   3.27161446E+01   1.89837143E+02   1.89837143E+02   3.27161446E+01   2.49528885E+01   1.64884247E+02  -8.25020523E+01   1.60721390E+02   2.65268307E+01   1.88263199E+02   3.27161446E+01   1.60324707E+01
              770                3   1.58445984E+02   1.88075867E+02   1.88075867E+02   2.67141743E+01   3.27161446E+01   1.88075867E+02   1.88075867E+02   3.27161446E+01   2.67141743E+01   1.61361694E+02  -8.25020599E+01   1.58189911E+02   2.85170059E+01   1.86273026E+02   3.27161446E+01   1.69605083E+01
              770                4   1.60427185E+02   1.89370514E+02   1.89370514E+02   2.54195213E+01   3.27161446E+01   1.89370514E+02   1.89370514E+02   3.27161446E+01   2.54195213E+01   1.63950989E+02  -8.25020599E+01   1.60053207E+02   2.73083611E+01   1.87481674E+02   3.27161446E+01   1.74959984E+01
              771                1   6.57748032E+01   5.98997307E+01   5.98997307E+01  -5.06904173E+00  -6.65251541E+00   5.98997307E+01   5.98997307E+01  -5.06904173E+00  -6.65251541E+00   6.65522461E+01  -1.60593910E+01   6.57318954E+01  -2.85078168E+00   5.76814690E+01  -6.65251541E+00   1.17981787E+01
              771                2   6.63265686E+01   6.02715683E+01   6.02715683E+01  -5.44088030E+00  -6.65251541E+00   6.02715683E+01   6.02715683E+01  -5.44088030E+00  -6.65251541E+00   6.69240875E+01  -1.60593910E+01   6.63016586E+01  -3.28765130E+00   5.81183395E+01  -6.65251541E+00   1.16986141E+01
              771                3   6.61374435E+01   6.01442451E+01   6.01442451E+01  -5.31355715E+00  -6.65251541E+00   6.01442451E+01   6.01442451E+01  -5.31355715E+00  -6.65251541E+00   6.67967606E+01  -1.60593910E+01   6.61069412E+01  -2.94537973E+00   5.77760696E+01  -6.65251541E+00   1.22232294E+01
              771                4   6.66735916E+01   6.05048637E+01   6.05048637E+01  -5.67417431E+00  -6.65251541E+00   6.05048637E+01   6.05048637E+01  -5.67417431E+00  -6.65251541E+00   6.71573792E+01  -1.60593910E+01   6.66574402E+01  -3.37564778E+00   5.82063370E+01  -6.65251541E+00   1.21173849E+01
              772                1   6.78160782E+01   6.95275879E+01   6.95275879E+01   1.59578228E+00   1.82782686E+00   6.95275879E+01   6.95275879E+01   1.82782686E+00   1.59578228E+00   6.79318008E+01  -2.43170643E+01   6.78151855E+01   2.60318069E+01   4.50915642E+01   1.82782686E+00   3.26015930E+01
              772                2   6.73425674E+01   6.92120819E+01   6.92120819E+01   1.91128933E+00   1.82782686E+00   6.92120819E+01   6.92120819E+01   1.91128933E+00   1.82782686E+00   6.73842621E+01  -2.43170681E+01   6.73424454E+01   2.57918453E+01   4.53315277E+01   1.82782686E+00   3.22009239E+01
              772                3   6.82519455E+01   6.98173676E+01   6.98173676E+01   1.30600762E+00   1.82782686E+00   6.98173676E+01   6.98173676E+01   1.82782686E+00   1.30600762E+00   6.85113602E+01  -2.43170681E+01   6.82474518E+01   2.56787739E+01   4.54445992E+01   1.82782686E+00   3.27990799E+01
              772                4   6.77528458E+01   6.94854965E+01   6.94854965E+01   1.63787687E+00   1.82782686E+00   6.94854965E+01   6.94854965E+01   1.82782686E+00   1.63787687E+00   6.78476181E+01  -2.43170681E+01   6.77522430E+01   2.54727077E+01   4.56506653E+01   1.82782686E+00   3.23888474E+01
              773                1   6.51285095E+01   5.90581970E+01   5.90581970E+01  -4.74095678E+00  -7.32287455E+00   5.90581970E+01   5.90581970E+01  -4.74095678E+00  -7.32287455E+00   6.63810730E+01  -1.56647882E+01   6.50132141E+01   4.28478241E+00   5.00324593E+01  -7.32287455E+00   2.22344456E+01
              773                2   6.43605652E+01   5.85343513E+01   5.85343513E+01  -4.21710587E+00  -7.32287455E+00   5.85343513E+01   5.85343513E+01  -4.21710587E+00  -7.32287455E+00   6.58572235E+01  -1.56647902E+01   6.41916428E+01   5.21824503E+00   4.90989990E+01  -7.32287455E+00   2.24289150E+01
              773                3   6.41046600E+01   5.83592300E+01   5.83592300E+01  -4.04198837E+00  -7.32287455E+00   5.83592300E+01   5.83592300E+01  -4.04198837E+00  -7.32287455E+00   6.56821060E+01  -1.56647882E+01   6.39153519E+01   4.32982731E+00   4.99874153E+01  -7.32287455E+00   2.12679138E+01
              773                4   6.33380356E+01   5.78328934E+01   5.78328934E+01  -3.51565266E+00  -7.32287455E+00   5.78328934E+01   5.78328934E+01  -3.51565266E+00  -7.32287455E+00   6.51557693E+01  -1.56647882E+01   6.30798187E+01   5.23703909E+00   4.90802040E+01  -7.32287455E+00   2.14558907E+01
              774                1   8.17937088E+01   7.58279953E+01   7.58279953E+01  -5.69882154E+00  -6.23001289E+00   7.58279953E+01   7.58279953E+01  -5.69882154E+00  -6.23001289E+00   8.20580063E+01  -2.12997208E+01   8.17898178E+01  -4.58039379E+00   7.47095642E+01  -6.23001289E+00   9.48320580E+00
              774                2   8.22137756E+01   7.61087112E+01   7.61087112E+01  -5.97954082E+00  -6.23001289E+00   7.61087112E+01   7.61087112E+01  -5.97954082E+00  -6.23001289E+00   8.23387299E+01  -2.12997208E+01   8.22129135E+01  -4.89763165E+00   7.50268021E+01  -6.23001289E+00   9.36171627E+00
              774                3   8.20773697E+01   7.60176086E+01   7.60176086E+01  -5.88844442E+00  -6.23001289E+00   7.60176086E+01   7.60176086E+01  -5.88844442E+00  -6.23001289E+00   8.22476196E+01  -2.12997189E+01   8.20757751E+01  -4.69720268E+00   7.48263702E+01  -6.23001289E+00   9.80564690E+00
              774                4   8.24958878E+01   7.62969666E+01   7.62969666E+01  -6.16779137E+00  -6.23001289E+00   7.62969666E+01   7.62969666E+01  -6.16779137E+00  -6.23001289E+00   8.25269775E+01  -2.12997208E+01   8.24958267E+01  -5.01446819E+00   7.51436386E+01  -6.23001289E+00   9.68393517E+00
              775                1   1.89578537E+02   1.89845352E+02   1.89845352E+02  -4.69818152E-02   5.82179606E-01   1.89845352E+02   1.89845352E+02   5.82179606E-01  -4.69818152E-02   1.89892334E+02  -6.34601860E+01   1.89576187E+02  -3.67357172E-02   1.89835114E+02   5.82179606E-01   1.39432287E+00
              775                2   1.89094193E+02   1.89522858E+02   1.89522858E+02   2.75239497E-01   5.82457423E-01   1.89522858E+02   1.89522858E+02   5.82457423E-01   2.75239497E-01   1.89247620E+02  -6.34601860E+01   1.89093643E+02   2.87390888E-01   1.89510712E+02   5.82457423E-01   1.51597333E+00
              775                3   1.89373169E+02   1.89708649E+02   1.89708649E+02   8.95514935E-02   5.82364261E-01   1.89708649E+02   1.89708649E+02   5.82364261E-01   8.95514935E-02   1.89619095E+02  -6.34601898E+01   1.89371735E+02   9.52498168E-02   1.89702957E+02   5.82364261E-01   1.03905404E+00
              775                4   1.88887573E+02   1.89385193E+02   1.89385193E+02   4.12729949E-01   5.82642138E-01   1.89385193E+02   1.89385193E+02   5.82642138E-01   4.12729949E-01   1.88972473E+02  -6.34601898E+01   1.88887390E+02   4.19887871E-01   1.89378036E+02   5.82642138E-01   1.16329539E+00
              776                1   9.20406342E+01   8.92469254E+01   8.92469254E+01  -2.60374808E+00  -2.98250031E+00   8.92469254E+01   8.92469254E+01  -2.60374808E+00  -2.98250031E+00   9.22294312E+01  -2.78868942E+01   9.20388870E+01   3.78061831E-01   8.62651215E+01  -2.98250031E+00   1.62785091E+01
              776                2   9.27913742E+01   8.97477646E+01   8.97477646E+01  -3.10458732E+00  -2.98250031E+00   8.97477646E+01   8.97477646E+01  -2.98250031E+00  -3.10458732E+00   9.28523560E+01  -2.78868942E+01   9.27911911E+01  -1.64387196E-01   8.68075714E+01  -2.98250031E+00   1.62591343E+01
              776                3   9.23616409E+01   8.94612503E+01   8.94612503E+01  -2.81805921E+00  -2.98250031E+00   8.94612503E+01   8.94612503E+01  -2.81805921E+00  -2.98250031E+00   9.24437485E+01  -2.78868961E+01   9.23613052E+01   3.76174867E-01   8.62670135E+01  -2.98250031E+00   1.68688641E+01
              776                4   9.31228867E+01   8.99685059E+01   8.99685059E+01  -3.32532358E+00  -2.98250031E+00   8.99685059E+01   8.99685059E+01  -2.98250031E+00  -3.32532358E+00   9.32938309E+01  -2.78868942E+01   9.31214676E+01  -1.71652079E-01   8.68148346E+01  -2.98250031E+00   1.68603764E+01
              777                1   5.41034660E+01   5.35492783E+01   5.35492783E+01   4.56599712E-01  -1.51128089E+00   5.35492783E+01   5.35492783E+01   4.56599712E-01  -1.51128089E+00   5.50605583E+01  -1.74981995E+01   5.40228577E+01   2.23293571E+01   3.16765213E+01  -1.51128089E+00   2.61317005E+01
              777                2   5.68772392E+01   5.54163132E+01   5.54163132E+01  -1.41043603E+00  -1.51128089E+00   5.54163132E+01   5.54163132E+01  -1.41043603E+00  -1.51128089E+00   5.69275970E+01  -1.74981995E+01   5.68770370E+01   2.31091690E+01   3.08967094E+01  -1.51128089E+00   2.81453094E+01
              777                3   5.16273117E+01   5.18512688E+01   5.18512688E+01   2.15460610E+00  -1.51128089E+00   5.18512688E+01   5.18512688E+01   2.15460610E+00  -1.51128089E+00   5.33625488E+01  -1.74981976E+01   5.13332634E+01   2.39959602E+01   3.00099163E+01  -1.51128089E+00   2.46657181E+01
              777                4   5.37686920E+01   5.33215714E+01   5.33215714E+01   6.84306085E-01  -1.51128089E+00   5.33215714E+01   5.33215714E+01   6.84306085E-01  -1.51128089E+00   5.48328514E+01  -1.74981995E+01   5.36676903E+01   2.47163486E+01   2.92895298E+01  -1.51128089E+00   2.62191143E+01
              778                1   2.07662659E+02   2.08910934E+02   2.08910934E+02  -1.15866446E+00   3.74197602E+00   2.08910934E+02   2.08910934E+02   3.74197602E+00  -1.15866446E+00   2.10069595E+02  -7.04980850E+01   2.07532486E+02  -1.14750576E+00   2.08899780E+02   3.74197602E+00   1.53093994E+00
              778                2   2.07758362E+02   2.08972778E+02   2.08972778E+02  -1.27216673E+00   3.79363847E+00   2.08972778E+02   2.08972778E+02   3.79363847E+00  -1.27216673E+00   2.10244934E+02  -7.04980850E+01   2.07619339E+02  -1.24394572E+00   2.08944550E+02   3.79363847E+00   2.43582892E+00
              778                3   2.06810013E+02   2.08351669E+02   2.08351669E+02  -4.50251549E-01   3.59283233E+00   2.08351669E+02   2.08351669E+02   3.59283233E+00  -4.50251549E-01   2.08801910E+02  -7.04980850E+01   2.06721069E+02  -4.36631739E-01   2.08338043E+02   3.59283233E+00   1.68640602E+00
              778                4   2.06902145E+02   2.08411484E+02   2.08411484E+02  -5.61185777E-01   3.64395881E+00   2.08411484E+02   2.08411484E+02   3.64395881E+00  -5.61185777E-01   2.08972672E+02  -7.04980850E+01   2.06805969E+02  -5.28978467E-01   2.08379272E+02   3.64395881E+00   2.59419131E+00
              779                1   1.09177216E+02   1.16870049E+02   1.16870049E+02   7.63725376E+00   7.74849892E+00   1.16870049E+02   1.16870049E+02   7.74849892E+00   7.63725376E+00   1.09232796E+02  -4.40852661E+01   1.09177086E+02   7.91302729E+00   1.16594276E+02   7.74849892E+00   5.48153114E+00
              779                2   1.09296616E+02   1.16949593E+02   1.16949593E+02   7.55770969E+00   7.74849892E+00   1.16949593E+02   1.16949593E+02   7.74849892E+00   7.55770969E+00   1.09391884E+02  -4.40852661E+01   1.09296242E+02   7.82660580E+00   1.16680695E+02   7.74849892E+00   5.41690588E+00
              779                3   1.09283440E+02   1.16940819E+02   1.16940819E+02   7.56647682E+00   7.74849892E+00   1.16940819E+02   1.16940819E+02   7.74849892E+00   7.56647682E+00   1.09374344E+02  -4.40852661E+01   1.09283096E+02   7.85066509E+00   1.16656631E+02   7.74849892E+00   5.56792927E+00
              779                4   1.09403198E+02   1.17020576E+02   1.17020576E+02   7.48672628E+00   7.74849892E+00   1.17020576E+02   1.17020576E+02   7.74849892E+00   7.48672628E+00   1.09533852E+02  -4.40852661E+01   1.09402496E+02   7.76390219E+00   1.16743401E+02   7.74849892E+00   5.50301504E+00
              780                1   2.06968048E+02   1.95651566E+02   1.95651566E+02  -1.53606615E+01  -7.02014112E+00   1.95651566E+02   1.95651566E+02  -7.02014112E+00  -1.53606615E+01   2.11012238E+02  -5.77569237E+01   2.06589432E+02  -1.51862907E+01   1.95477203E+02  -7.02014112E+00   6.06326675E+00
              780                2   2.07686325E+02   1.96076324E+02   1.96076324E+02  -1.67579632E+01  -6.04759789E+00   1.96076324E+02   1.96076324E+02  -6.04759789E+00  -1.67579632E+01   2.12834290E+02  -5.77569237E+01   2.07063614E+02  -1.66824265E+01   1.96000793E+02  -6.04759789E+00   4.00866747E+00
              780                3   2.07437424E+02   1.95917694E+02   1.95917694E+02  -1.65322647E+01  -6.11464167E+00   1.95917694E+02   1.95917694E+02  -6.11464167E+00  -1.65322647E+01   2.12449951E+02  -5.77569275E+01   2.06847626E+02  -1.61848202E+01   1.95570236E+02  -6.11464167E+00   8.58459282E+00
              780                4   2.08141708E+02   1.96323135E+02   1.96323135E+02  -1.78936577E+01  -5.15870667E+00   1.96323135E+02   1.96323135E+02  -5.15870667E+00  -1.78936577E+01   2.14216797E+02  -5.77569237E+01   2.07262466E+02  -1.76930466E+01   1.96122528E+02  -5.15870667E+00   6.55229187E+00
              781                1   4.47062607E+01   4.09350739E+01   4.09350739E+01  -3.61404538E-01  -6.53853178E+00   4.09350739E+01   4.09350739E+01  -3.61404538E-01  -6.53853178E+00   4.74736061E+01  -1.13450460E+01   4.37306824E+01   1.41557570E+01   2.64179115E+01  -6.53853178E+00   1.97169895E+01
              781                2   4.59580116E+01   4.18316612E+01   4.18316612E+01  -1.25799012E+00  -6.53853178E+00   4.18316612E+01   4.18316612E+01  -1.25799012E+00  -6.53853178E+00   4.83701897E+01  -1.13450460E+01   4.52679482E+01   1.26367645E+01   2.79369030E+01  -6.53853178E+00   2.01409016E+01
              781                3   4.62690887E+01   4.20524673E+01   4.20524673E+01  -1.47879827E+00  -6.53853178E+00   4.20524673E+01   4.20524673E+01  -1.47879827E+00  -6.53853178E+00   4.85909996E+01  -1.13450460E+01   4.56404495E+01   1.45331364E+01   2.60405312E+01  -6.53853178E+00   2.09913731E+01
              781                4   4.72862701E+01   4.27693558E+01   4.27693558E+01  -2.19568610E+00  -6.53853178E+00   4.27693558E+01   4.27693558E+01  -2.19568610E+00  -6.53853178E+00   4.93078880E+01  -1.13450460E+01   4.68344421E+01   1.31346140E+01   2.74390545E+01  -6.53853178E+00   2.13145370E+01
              782                1   1.15489349E+01   4.82712865E-01   4.82712865E-01  -3.13471526E-01  -1.14437122E+01   4.82712865E-01  -1.14437122E+01  -3.13471526E-01  -1.14437122E+01   1.19264250E+01   3.75815701E+00  -1.14869442E+01   2.81471074E-01  -1.12229742E-01  -1.14437122E+01  -3.46016347E-01
              782                2   1.15553570E+01   5.40620506E-01   5.40620506E-01  -3.71379167E-01  -1.14437122E+01   5.40620506E-01  -1.14437122E+01  -3.71379167E-01  -1.14437122E+01   1.19843330E+01   3.75815701E+00  -1.14739656E+01  -2.15669602E-01   3.84910941E-01  -1.14437122E+01  -3.43164086E-01
              782                3   1.15345011E+01   3.02373797E-01   3.02373797E-01  -1.33132473E-01  -1.14437122E+01   3.02373797E-01  -1.14437122E+01  -1.33132473E-01  -1.14437122E+01   1.17460861E+01   3.75815701E+00  -1.15159798E+01   2.29919881E-01  -6.06785454E-02  -1.14437122E+01   1.62186831E-01
              782                4   1.15477819E+01   4.71406609E-01   4.71406609E-01  -3.02165270E-01  -1.14437122E+01   4.71406609E-01  -1.14437122E+01  -3.02165270E-01  -1.14437122E+01   1.19151192E+01   3.75815701E+00  -1.14892693E+01  -2.64606982E-01   4.33848321E-01  -1.14437122E+01   1.66263029E-01
              783                1   1.22737015E+02   1.45068710E+02   1.45068710E+02   2.11030807E+01   2.35983582E+01   1.45068710E+02   1.45068710E+02   2.35983582E+01   2.11030807E+01   1.23965622E+02  -6.32567139E+01   1.22679916E+02   2.25883446E+01   1.43583435E+02   2.35983582E+01   1.34876308E+01
              783                2   1.22779770E+02   1.45096924E+02   1.45096924E+02   2.10748558E+01   2.35983582E+01   1.45096924E+02   1.45096924E+02   2.35983582E+01   2.10748558E+01   1.24022072E+02  -6.32567139E+01   1.22721405E+02   2.25193920E+01   1.43652390E+02   2.35983582E+01   1.33066854E+01
              783                3   1.23012138E+02   1.45250244E+02   1.45250244E+02   2.09215450E+01   2.35983582E+01   1.45250244E+02   1.45250244E+02   2.35983582E+01   2.09215450E+01   1.24328690E+02  -6.32567139E+01   1.22946587E+02   2.24172421E+01   1.43754547E+02   2.35983582E+01   1.35543604E+01
              783                4   1.23061813E+02   1.45283005E+02   1.45283005E+02   2.08887768E+01   2.35983582E+01   1.45283005E+02   1.45283005E+02   2.35983582E+01   2.08887768E+01   1.24394226E+02  -6.32567139E+01   1.22994667E+02   2.23443737E+01   1.43827408E+02   2.35983582E+01   1.33771925E+01
              784                1   2.90769005E+01   2.22141991E+01   2.22141991E+01  -7.86444545E-01  -1.04685173E+01   2.22141991E+01   2.22141991E+01  -7.86444545E-01  -1.04685173E+01   3.26827164E+01  -3.65307927E+00   2.50449047E+01   7.24385595E+00   1.41838999E+01  -1.04685173E+01   1.09643221E+01
              784                2   2.91551075E+01   2.22800121E+01   2.22800121E+01  -8.52256835E-01  -1.04685173E+01   2.22800121E+01   2.22800121E+01  -8.52256835E-01  -1.04685173E+01   3.27485313E+01  -3.65307927E+00   2.51977673E+01   7.21684408E+00   1.42109118E+01  -1.04685173E+01   1.10248003E+01
              784                3   2.90910625E+01   2.22261333E+01   2.22261333E+01  -7.98377454E-01  -1.04685173E+01   2.22261333E+01   2.22261333E+01  -7.98377454E-01  -1.04685173E+01   3.26946487E+01  -3.65307927E+00   2.50726948E+01   7.30561399E+00   1.41221418E+01  -1.04685173E+01   1.09961700E+01
              784                4   2.91700401E+01   2.22925549E+01   2.22925549E+01  -8.64799857E-01  -1.04685173E+01   2.22925549E+01   2.22925549E+01  -8.64799857E-01  -1.04685173E+01   3.27610741E+01  -3.65307927E+00   2.52267895E+01   7.27761412E+00   1.41501417E+01  -1.04685173E+01   1.10570278E+01
              785                1   1.07636894E+02   1.15677940E+02   1.15677940E+02   7.30051374E+00   8.79719162E+00   1.15677940E+02   1.15677940E+02   8.79719162E+00   7.30051374E+00   1.08377426E+02  -4.39252167E+01   1.07613472E+02   1.18553734E+01   1.11123085E+02   8.79719162E+00   2.17461910E+01
              785                2   1.08206650E+02   1.16054871E+02   1.16054871E+02   6.92358255E+00   8.79719162E+00   1.16054871E+02   1.16054871E+02   8.79719162E+00   6.92358255E+00   1.09131287E+02  -4.39252167E+01   1.08170143E+02   1.14219933E+01   1.11556465E+02   8.79719162E+00   2.16951904E+01
              785                3   1.07827049E+02   1.15803810E+02   1.15803810E+02   7.17464304E+00   8.79719162E+00   1.15803810E+02   1.15803810E+02   8.79719162E+00   7.17464304E+00   1.08629166E+02  -4.39252167E+01   1.07799576E+02   1.19030199E+01   1.11075432E+02   8.79719162E+00   2.21648903E+01
              785                4   1.08394371E+02   1.16178925E+02   1.16178925E+02   6.79953241E+00   8.79719162E+00   1.16178925E+02   1.16178925E+02   8.79719162E+00   6.79953241E+00   1.09379387E+02  -4.39252167E+01   1.08352936E+02   1.14686861E+01   1.11509766E+02   8.79719162E+00   2.21112747E+01
              786                1   2.82334557E+01   4.11882591E+01   4.11882591E+01   1.29821119E+01   1.29275761E+01   4.11882591E+01   4.11882591E+01   1.29821119E+01   1.29275761E+01   2.82606850E+01  -2.23659821E+01   2.82333393E+01   1.30803986E+01   4.10899734E+01   1.29275761E+01   1.66211641E+00
              786                2   2.86571960E+01   4.14703293E+01   4.14703293E+01   1.27000427E+01   1.29275761E+01   4.14703293E+01   4.14703293E+01   1.29275761E+01   1.27000427E+01   2.87702866E+01  -2.23659821E+01   2.86551666E+01   1.28002090E+01   4.13701630E+01   1.29275761E+01   1.69463074E+00
              786                3   2.82396431E+01   4.11923904E+01   4.11923904E+01   1.29779825E+01   1.29275761E+01   4.11923904E+01   4.11923904E+01   1.29779825E+01   1.29275761E+01   2.82648144E+01  -2.23659821E+01   2.82395458E+01   1.31120043E+01   4.10583687E+01   1.29275761E+01   1.93993711E+00
              786                4   2.86664391E+01   4.14764671E+01   4.14764671E+01   1.26939096E+01   1.29275761E+01   4.14764671E+01   4.14764671E+01   1.29275761E+01   1.26939096E+01   2.87825565E+01  -2.23659840E+01   2.86642933E+01   1.28296194E+01   4.13407555E+01   1.29275761E+01   1.97172165E+00
              787                1   4.64777145E+01   4.59409409E+01   4.59409409E+01  -1.25124991E-01  -9.37770247E-01   4.59409409E+01   4.59409409E+01  -1.25124991E-01  -9.37770247E-01   4.68787117E+01  -1.49593477E+01   4.64617271E+01   1.56006575E+00   4.42557487E+01  -9.37770247E-01   8.64813614E+00
              787                2   4.66896362E+01   4.60833664E+01   4.60833664E+01  -2.67551422E-01  -9.37770247E-01   4.60833664E+01   4.60833664E+01  -2.67551422E-01  -9.37770247E-01   4.70211372E+01  -1.49593477E+01   4.66788101E+01   1.36096966E+00   4.44548454E+01  -9.37770247E-01   8.53412914E+00
              787                3   4.67621613E+01   4.61320572E+01   4.61320572E+01  -3.16241920E-01  -9.37770247E-01   4.61320572E+01   4.61320572E+01  -3.16241920E-01  -9.37770247E-01   4.70698280E+01  -1.49593477E+01   4.67528687E+01   1.43935859E+00   4.43764572E+01  -9.37770247E-01   8.85790539E+00
              787                4   4.69717560E+01   4.62726212E+01   4.62726212E+01  -4.56805408E-01  -9.37770247E-01   4.62726212E+01   4.62726212E+01  -4.56805408E-01  -9.37770247E-01   4.72103920E+01  -1.49593477E+01   4.69662132E+01   1.24219000E+00   4.45736237E+01  -9.37770247E-01   8.74680233E+00
              788                1   4.17073441E+01   4.46643372E+01   4.46643372E+01   2.97849131E+00   2.93553138E+00   4.46643372E+01   4.46643372E+01   2.97849131E+00   2.93553138E+00   4.17288055E+01  -1.68594532E+01   4.17072945E+01   4.49130440E+00   4.31515236E+01   2.93553138E+00   7.79579163E+00
              788                2   4.18124123E+01   4.47343903E+01   4.47343903E+01   2.90844035E+00   2.93553138E+00   4.47343903E+01   4.47343903E+01   2.93553138E+00   2.90844035E+00   4.18259506E+01  -1.68594532E+01   4.18123894E+01   4.34650230E+00   4.32963257E+01   2.93553138E+00   7.62104702E+00
              788                3   4.20342903E+01   4.48821297E+01   4.48821297E+01   2.76069474E+00   2.93553138E+00   4.48821297E+01   4.48821297E+01   2.93553138E+00   2.76069474E+00   4.21214371E+01  -1.68594532E+01   4.20334740E+01   4.31604052E+00   4.33267860E+01   2.93553138E+00   7.94319057E+00
              788                4   4.21381874E+01   4.49512253E+01   4.49512253E+01   2.69160128E+00   2.93553138E+00   4.49512253E+01   4.49512253E+01   2.93553138E+00   2.69160128E+00   4.22596245E+01  -1.68594532E+01   4.21366005E+01   4.17169189E+00   4.34711342E+01   2.93553138E+00   7.76900291E+00
              789                1   1.15860291E+02   1.38380905E+02   1.38380905E+02   2.23844337E+01   2.26572762E+01   1.38380905E+02   1.38380905E+02   2.26572762E+01   2.23844337E+01   1.15996468E+02  -6.11408691E+01   1.15859566E+02   2.24807396E+01   1.38284592E+02   2.26572762E+01   3.34099269E+00
              789                2   1.16032570E+02   1.38495590E+02   1.38495590E+02   2.22697411E+01   2.26572762E+01   1.38495590E+02   1.38495590E+02   2.26572762E+01   2.22697411E+01   1.16225853E+02  -6.11408691E+01   1.16031120E+02   2.23739319E+01   1.38391403E+02   2.26572762E+01   3.47834039E+00
              789                3   1.15661797E+02   1.38248688E+02   1.38248688E+02   2.25166416E+01   2.26572762E+01   1.38248688E+02   1.38248688E+02   2.26572762E+01   2.25166416E+01   1.15732056E+02  -6.11408691E+01   1.15661606E+02   2.26192875E+01   1.38146042E+02   2.26572762E+01   3.44517016E+00
              789                4   1.15834419E+02   1.38363663E+02   1.38363663E+02   2.24016533E+01   2.26572762E+01   1.38363663E+02   1.38363663E+02   2.26572762E+01   2.24016533E+01   1.15962013E+02  -6.11408653E+01   1.15833794E+02   2.25124416E+01   1.38252884E+02   2.26572762E+01   3.58255959E+00
              790                1   3.65249519E+01   3.75188713E+01   3.75188713E+01   9.36583936E-01   1.05152953E+00   3.75188713E+01   3.75188713E+01   1.05152953E+00   9.36583936E-01   3.65822868E+01  -1.31689949E+01   3.65245438E+01   2.19721985E+00   3.62582359E+01   1.05152953E+00   6.67291117E+00
              790                2   3.66379890E+01   3.75940742E+01   3.75940742E+01   8.61383677E-01   1.05152953E+00   3.75940742E+01   3.75940742E+01   1.05152953E+00   8.61383677E-01   3.67326927E+01  -1.31689959E+01   3.66368790E+01   2.11423683E+00   3.63412209E+01   1.05152953E+00   6.66716528E+00
              790                3   3.65837212E+01   3.75579796E+01   3.75579796E+01   8.97478759E-01   1.05152953E+00   3.75579796E+01   3.75579796E+01   1.05152953E+00   8.97478759E-01   3.66605034E+01  -1.31689959E+01   3.65829887E+01   2.18963480E+00   3.62658234E+01   1.05152953E+00   6.76028633E+00
              790                4   3.66941261E+01   3.76313934E+01   3.76313934E+01   8.24062884E-01   1.05152953E+00   3.76313934E+01   3.76313934E+01   1.05152953E+00   8.24062884E-01   3.68073311E+01  -1.31689949E+01   3.66925392E+01   2.10787129E+00   3.63475838E+01   1.05152953E+00   6.75317860E+00
              791                1   7.24378433E+01   6.55840683E+01   6.55840683E+01  -6.20283937E+00  -7.48762083E+00   6.55840683E+01   6.55840683E+01  -6.20283937E+00  -7.48762083E+00   7.30716858E+01  -1.72978687E+01   7.24122009E+01  -1.86497617E+00   6.12462006E+01  -7.48762083E+00   1.71051102E+01
              791                2   7.15735550E+01   6.50013885E+01   6.50013885E+01  -5.62016058E+00  -7.48762083E+00   6.50013885E+01   6.50013885E+01  -5.62016058E+00  -7.48762083E+00   7.24890060E+01  -1.72978687E+01   7.15187073E+01  -1.11412096E+00   6.04953461E+01  -7.48762083E+00   1.72603340E+01
              791                3   7.18805618E+01   6.52086563E+01   6.52086563E+01  -5.82742977E+00  -7.48762083E+00   6.52086563E+01   6.52086563E+01  -5.82742977E+00  -7.48762083E+00   7.26962738E+01  -1.72978687E+01   7.18374023E+01  -1.82054090E+00   6.12017670E+01  -7.48762083E+00   1.63883648E+01
              791                4   7.10179291E+01   6.46254349E+01   6.46254349E+01  -5.24420929E+00  -7.48762083E+00   6.46254349E+01   6.46254349E+01  -5.24420929E+00  -7.48762083E+00   7.21130524E+01  -1.72978687E+01   7.09381409E+01  -1.08214986E+00   6.04633751E+01  -7.48762083E+00   1.65371971E+01
              792                1   4.91296425E+01   4.35230827E+01   4.35230827E+01  -2.20642400E+00  -8.41624451E+00   4.35230827E+01   4.35230827E+01  -2.20642400E+00  -8.41624451E+00   5.19393272E+01  -1.09668045E+01   4.82348518E+01   8.01482773E+00   3.33018303E+01  -8.41624451E+00   1.90509529E+01
              792                2   5.00787354E+01   4.41994209E+01   4.41994209E+01  -2.88276267E+00  -8.41624451E+00   4.41994209E+01   4.41994209E+01  -2.88276267E+00  -8.41624451E+00   5.26156654E+01  -1.09668045E+01   4.93839188E+01   7.13563538E+00   3.41810226E+01  -8.41624451E+00   1.92696590E+01
              792                3   5.01716270E+01   4.42652588E+01   4.42652588E+01  -2.94860148E+00  -8.41624451E+00   4.42652588E+01   4.42652588E+01  -2.94860148E+00  -8.41624451E+00   5.26815033E+01  -1.09668045E+01   4.94946899E+01   8.17320347E+00   3.31434555E+01  -8.41624451E+00   2.00351887E+01
              792                4   5.10660782E+01   4.48961334E+01   4.48961334E+01  -3.57947516E+00  -8.41624451E+00   4.48961334E+01   4.48961334E+01  -3.57947516E+00  -8.41624451E+00   5.33123779E+01  -1.09668045E+01   5.05468826E+01   7.30210304E+00   3.40145569E+01  -8.41624451E+00   2.02257843E+01
              793                1   8.73549728E+01   8.82872467E+01   8.82872467E+01   6.98580682E-01   1.16785741E+00   8.82872467E+01   8.82872467E+01   1.16785741E+00   6.98580682E-01   8.75886612E+01  -3.00512257E+01   8.73521347E+01   1.25306320E+01   7.64551926E+01   1.16785741E+00   2.99392071E+01
              793                2   8.58158798E+01   8.72609100E+01   8.72609100E+01   1.72490680E+00   1.16785741E+00   8.72609100E+01   8.72609100E+01   1.72490680E+00   1.16785741E+00   8.60930557E+01  -3.00512238E+01   8.58118210E+01   1.25005131E+01   7.64853058E+01   1.16785741E+00   2.83828907E+01
              793                3   8.92239456E+01   8.95256882E+01   8.95256882E+01  -5.39859831E-01   1.16785741E+00   8.95256882E+01   8.95256882E+01   1.16785741E+00  -5.39859831E-01   9.00655441E+01  -3.00512257E+01   8.91871643E+01   1.11196289E+01   7.78661957E+01   1.16785741E+00   3.02353191E+01
              793                4   8.76718750E+01   8.84978256E+01   8.84978256E+01   4.87996548E-01   1.16785741E+00   8.84978256E+01   8.84978256E+01   1.16785741E+00   4.87996548E-01   8.80098343E+01  -3.00512257E+01   8.76659470E+01   1.09733582E+01   7.80124664E+01   1.16785741E+00   2.85109119E+01
              794                1   1.46371613E+02   1.75867691E+02   1.75867691E+02   2.65616055E+01   3.26185837E+01   1.75867691E+02   1.75867691E+02   3.26185837E+01   2.65616055E+01   1.49306076E+02  -7.83492966E+01   1.46089233E+02   2.82150059E+01   1.74214279E+02   3.26185837E+01   1.56246576E+01
              794                2   1.46830978E+02   1.76167770E+02   1.76167770E+02   2.62614975E+01   3.26185837E+01   1.76167770E+02   1.76167770E+02   3.26185837E+01   2.62614975E+01   1.49906281E+02  -7.83492813E+01   1.46520889E+02   2.80597229E+01   1.74369553E+02   3.26185837E+01   1.63196678E+01
              794                3   1.45513168E+02   1.75306168E+02   1.75306168E+02   2.71231117E+01   3.26185837E+01   1.75306168E+02   1.75306168E+02   3.26185837E+01   2.71231117E+01   1.48183044E+02  -7.83492813E+01   1.45279419E+02   2.88273792E+01   1.73601898E+02   3.26185837E+01   1.57999592E+01
              794                4   1.46058868E+02   1.75663223E+02   1.75663223E+02   2.67660656E+01   3.26185837E+01   1.75663223E+02   1.75663223E+02   3.26185837E+01   2.67660656E+01   1.48897156E+02  -7.83492966E+01   1.45794693E+02   2.86039505E+01   1.73825333E+02   3.26185837E+01   1.64401703E+01
              795                1   2.15131744E+02   1.99170227E+02   1.99170227E+02  -2.65910931E+01  -3.46306968E+00   1.99170227E+02   1.99170227E+02  -3.46306968E+00  -2.65910931E+01   2.25761322E+02  -5.63720207E+01   2.12307755E+02  -2.62727070E+01   1.98851837E+02  -3.46306968E+00  -8.47221661E+00
              795                2   2.15609222E+02   1.99271088E+02   1.99271088E+02  -2.85188637E+01  -1.63617170E+00   1.99271088E+02   1.99271088E+02  -1.63617170E+00  -2.85188637E+01   2.27789948E+02  -5.63720207E+01   2.11789536E+02  -2.84071064E+01   1.99159332E+02  -1.63617170E+00  -5.04430437E+00
              795                3   2.14738541E+02   1.99110504E+02   1.99110504E+02  -2.44932518E+01  -5.50117302E+00   1.99110504E+02   1.99110504E+02  -5.50117302E+00  -2.44932518E+01   2.23603760E+02  -5.63720245E+01   2.12836685E+02  -2.44119015E+01   1.99029144E+02  -5.50117302E+00  -4.26439142E+00
              795                4   2.15250381E+02   1.99248474E+02   1.99248474E+02  -2.66412907E+01  -3.49112248E+00   1.99248474E+02   1.99248474E+02  -3.49112248E+00  -2.66412907E+01   2.25889755E+02  -5.63720207E+01   2.12422516E+02  -2.66368523E+01   1.99244034E+02  -3.49112248E+00  -1.00086319E+00
              796                1   4.99126968E+01   4.39459305E+01   4.39459305E+01  -2.54066324E+00  -8.80202293E+00   4.39459305E+01   4.39459305E+01  -2.54066324E+00  -8.80202293E+00   5.27479515E+01  -1.08677473E+01   4.90174484E+01   6.50901461E+00   3.48962517E+01  -8.80202293E+00   1.84063034E+01
              796                2   5.10055885E+01   4.47237740E+01   4.47237740E+01  -3.31850624E+00  -8.80202293E+00   4.47237740E+01   4.47237740E+01  -3.31850624E+00  -8.80202293E+00   5.35257950E+01  -1.08677473E+01   5.03360252E+01   5.61740494E+00   3.57878609E+01  -8.80202293E+00   1.86936092E+01
              796                3   5.09012146E+01   4.46498604E+01   4.46498604E+01  -3.24459410E+00  -8.80202293E+00   4.46498604E+01   4.46498604E+01  -3.24459410E+00  -8.80202293E+00   5.34518814E+01  -1.08677473E+01   5.02118645E+01   6.68166542E+00   3.47236023E+01  -8.80202293E+00   1.94134521E+01
              796                4   5.19131699E+01   4.53633461E+01   4.53633461E+01  -3.95808029E+00  -8.80202293E+00   4.53633461E+01   4.53633461E+01  -3.95808029E+00  -8.80202293E+00   5.41653671E+01  -1.08677473E+01   5.14010429E+01   5.79772711E+00   3.56075401E+01  -8.80202293E+00   1.96467438E+01
              797                1   5.13074150E+01   4.57259598E+01   4.57259598E+01  -3.95339370E+00  -7.06764364E+00   4.57259598E+01   4.57259598E+01  -3.95339370E+00  -7.06764364E+00   5.27936058E+01  -1.15683088E+01   5.10941162E+01  -1.01429009E+00   4.27868576E+01  -7.06764364E+00   1.17206850E+01
              797                2   5.07241707E+01   4.53234100E+01   4.53234100E+01  -3.55084157E+00  -7.06764364E+00   4.53234100E+01   4.53234100E+01  -3.55084157E+00  -7.06764364E+00   5.23910522E+01  -1.15683088E+01   5.04487839E+01  -5.54088652E-01   4.23266563E+01  -7.06764364E+00   1.17253370E+01
              797                3   5.10058403E+01   4.55180626E+01   4.55180626E+01  -3.74549651E+00  -7.06764364E+00   4.55180626E+01   4.55180626E+01  -3.74549651E+00  -7.06764364E+00   5.25857086E+01  -1.15683088E+01   5.07615662E+01  -1.02048457E+00   4.27930527E+01  -7.06764364E+00   1.12613535E+01
              797                4   5.04177666E+01   4.51111298E+01   4.51111298E+01  -3.33856010E+00  -7.06764364E+00   4.51111298E+01   4.51111298E+01  -3.33856010E+00  -7.06764364E+00   5.21787720E+01  -1.15683088E+01   5.01060791E+01  -5.60375571E-01   4.23329430E+01  -7.06764364E+00   1.12642746E+01
              798                1   2.10044128E+02   1.93840515E+02   1.93840515E+02  -2.29767189E+01  -8.70228672E+00   1.93840515E+02   1.93840515E+02  -8.70228672E+00  -2.29767189E+01   2.16817245E+02  -5.40538368E+01   2.08948639E+02  -2.29184799E+01   1.93782272E+02  -8.70228672E+00  -3.55324316E+00
              798                2   2.09249557E+02   1.93399643E+02   1.93399643E+02  -2.12922802E+01  -9.94584179E+00   1.93399643E+02   1.93399643E+02  -9.94584179E+00  -2.12922802E+01   2.14691925E+02  -5.40538368E+01   2.08555725E+02  -2.11169491E+01   1.93224304E+02  -9.94584179E+00  -6.13291025E+00
              798                3   2.10470093E+02   1.94022827E+02   1.94022827E+02  -2.44393730E+01  -7.42194414E+00   1.94022827E+02   1.94022827E+02  -7.42194414E+00  -2.44393730E+01   2.18462204E+02  -5.40538330E+01   2.08913864E+02  -2.42490444E+01   1.93832489E+02  -7.42194414E+00  -6.44551897E+00
              798                4   2.09829605E+02   1.93696655E+02   1.93696655E+02  -2.29137840E+01  -8.62135220E+00   1.93696655E+02   1.93696655E+02  -8.62135220E+00  -2.29137840E+01   2.16610443E+02  -5.40538368E+01   2.08730240E+02  -2.25343952E+01   1.93317261E+02  -8.62135220E+00  -9.05738258E+00
              799                1   2.12974152E+02   2.32623230E+02   2.32623230E+02   7.34957874E-01   4.57646217E+01   2.32623230E+02   2.32623230E+02   4.57646217E+01   7.34957874E-01   2.31888275E+02  -9.30409317E+01   2.01842453E+02   8.21438968E-01   2.32536743E+02   4.57646217E+01   4.47739840E+00
              799                2   2.12912140E+02   2.32615799E+02   2.32615799E+02   9.00206745E-01   4.56068001E+01   2.32615799E+02   2.32615799E+02   4.56068001E+01   9.00206745E-01   2.31715591E+02  -9.30409317E+01   2.01942566E+02   9.03698087E-01   2.32612305E+02   4.56068001E+01   8.99909616E-01
              799                3   2.13828003E+02   2.32907532E+02   2.32907532E+02  -7.42004871E-01   4.69572754E+01   2.32907532E+02   2.32907532E+02   4.69572754E+01  -7.42004871E-01   2.33649536E+02  -9.30409317E+01   2.01328934E+02  -6.58138335E-01   2.32823669E+02   4.69572754E+01   4.42577267E+00
              799                4   2.13710800E+02   2.32867447E+02   2.32867447E+02  -5.47464371E-01   4.68028183E+01   2.32867447E+02   2.32867447E+02   4.68028183E+01  -5.47464371E-01   2.33414902E+02  -9.30409317E+01   2.01394897E+02  -5.44599533E-01   2.32864578E+02   4.68028183E+01   8.17457080E-01
              800                1   2.96881142E+01   2.33056602E+01   2.33056602E+01  -8.95010531E-01  -9.82155609E+00   2.33056602E+01   2.33056602E+01  -8.95010531E-01  -9.82155609E+00   3.31272163E+01  -4.19636488E+00   2.64057827E+01   8.93423176E+00   1.34764185E+01  -9.82155609E+00   1.18852959E+01
              800                2   2.97597542E+01   2.33641796E+01   2.33641796E+01  -9.53529119E-01  -9.82155609E+00   2.33641796E+01   2.33641796E+01  -9.53529119E-01  -9.82155609E+00   3.31857338E+01  -4.19636488E+00   2.65335941E+01   8.92338467E+00   1.34872656E+01  -9.82155609E+00   1.19428005E+01
              800                3   2.96794529E+01   2.32985764E+01   2.32985764E+01  -8.87927055E-01  -9.82155609E+00   2.32985764E+01   2.32985764E+01  -8.87927055E-01  -9.82155609E+00   3.31201324E+01  -4.19636488E+00   2.63902702E+01   8.99316692E+00   1.34174833E+01  -9.82155609E+00   1.18892012E+01
              800                4   2.97497768E+01   2.33560390E+01   2.33560390E+01  -9.45387900E-01  -9.82155609E+00   2.33560390E+01   2.33560390E+01  -9.45387900E-01  -9.82155609E+00   3.31775932E+01  -4.19636488E+00   2.65158501E+01   8.98637295E+00   1.34242773E+01  -9.82155609E+00   1.19463835E+01
              801                1   1.86291580E+02   2.08399323E+02   2.08399323E+02   1.65012474E+01   2.82725029E+01   2.08399323E+02   2.08399323E+02   2.82725029E+01   1.65012474E+01   1.91898071E+02  -8.43910294E+01   1.85452072E+02   1.88285789E+01   2.06071991E+02   2.82725029E+01   2.10046349E+01
              801                2   1.80781494E+02   2.04819199E+02   2.04819199E+02   2.00813713E+01   2.82725029E+01   2.04819199E+02   2.04819199E+02   2.82725029E+01   2.00813713E+01   1.84737823E+02  -8.43910294E+01   1.80363266E+02   2.18725529E+01   2.03028015E+02   2.82725029E+01   1.81022549E+01
              801                3   1.88336014E+02   2.09693924E+02   2.09693924E+02   1.48207178E+01   2.86584129E+01   2.09693924E+02   2.09693924E+02   2.86584129E+01   1.48207178E+01   1.94873215E+02  -8.43910217E+01   1.87187164E+02   1.64227276E+01   2.08091919E+02   2.86584129E+01   1.75960999E+01
              801                4   1.84105469E+02   2.06982330E+02   2.06982330E+02   1.79182415E+01   2.82725029E+01   2.06982330E+02   2.06982330E+02   2.82725029E+01   1.79182415E+01   1.89064087E+02  -8.43910294E+01   1.83448639E+02   1.90933781E+01   2.05807190E+02   2.82725029E+01   1.48592119E+01
              802                1   1.92097092E+02   1.93669083E+02   1.93669083E+02   1.10868680E+00   2.03867745E+00   1.93669083E+02   1.93669083E+02   2.03867745E+00   1.10868680E+00   1.92560394E+02  -6.56054840E+01   1.92092026E+02   1.11681223E+00   1.93660965E+02   2.03867745E+00   1.25034893E+00
              802                2   1.92845245E+02   1.94166351E+02   1.94166351E+02   6.11854553E-01   2.03825545E+00   1.94166351E+02   1.94166351E+02   2.03825545E+00   6.11854553E-01   1.93554489E+02  -6.56054840E+01   1.92833374E+02   6.18826747E-01   1.94159378E+02   2.03825545E+00   1.16111338E+00
              802                3   1.92224380E+02   1.93753738E+02   1.93753738E+02   1.02417183E+00   2.03855181E+00   1.93753738E+02   1.93753738E+02   2.03855181E+00   1.02417183E+00   1.92729568E+02  -6.56054916E+01   1.92218353E+02   1.04029143E+00   1.93737610E+02   2.03855181E+00   1.76290119E+00
              802                4   1.92971207E+02   1.94250000E+02   1.94250000E+02   5.28319478E-01   2.03813028E+00   1.94250000E+02   1.94250000E+02   2.03813028E+00   5.28319478E-01   1.93721680E+02  -6.56054840E+01   1.92957916E+02   5.42823315E-01   1.94235504E+02   2.03813028E+00   1.67574048E+00
              803                1   4.50996094E+01   4.53256683E+01   4.53256683E+01   5.30385137E-01  -7.22343922E-02   4.53256683E+01   4.53256683E+01   5.30385137E-01  -7.22343922E-02   4.53979034E+01  -1.52612724E+01   4.50905533E+01   2.20668888E+00   4.36493645E+01  -7.22343922E-02   8.50179195E+00
              803                2   4.52798309E+01   4.54465446E+01   4.54465446E+01   4.09506023E-01  -7.22343922E-02   4.54465446E+01   4.54465446E+01   4.09506023E-01  -7.22343922E-02   4.55187798E+01  -1.52612724E+01   4.52740669E+01   2.02713442E+00   4.38289185E+01  -7.22343922E-02   8.38071918E+00
              803                3   4.53855972E+01   4.55174065E+01   4.55174065E+01   3.38645875E-01  -7.22343922E-02   4.55174065E+01   4.55174065E+01   3.38645875E-01  -7.22343922E-02   4.55896416E+01  -1.52612724E+01   4.53814125E+01   2.07925320E+00   4.37767982E+01  -7.22343922E-02   8.69533253E+00
              803                4   4.55670471E+01   4.56388474E+01   4.56388474E+01   2.17206806E-01  -7.22343922E-02   4.56388474E+01   4.56388474E+01   2.17206806E-01  -7.22343922E-02   4.57110786E+01  -1.52612724E+01   4.55649796E+01   1.89740384E+00   4.39586487E+01  -7.22343922E-02   8.57287788E+00
              804                1   3.58978271E+01   3.60661469E+01   3.60661469E+01   5.34595609E-01  -1.87073648E-01   3.60661469E+01   3.60661469E+01   5.34595609E-01  -1.87073648E-01   3.62532196E+01  -1.21378899E+01   3.58815002E+01   1.45386922E+00   3.51468735E+01  -1.87073648E-01   5.64075708E+00
              804                2   3.60874405E+01   3.61937408E+01   3.61937408E+01   4.07006055E-01  -1.87073648E-01   3.61937408E+01   3.61937408E+01   4.07006055E-01  -1.87073648E-01   3.63808136E+01  -1.21378908E+01   3.60764351E+01   1.32839048E+00   3.52723541E+01  -1.87073648E-01   5.66784286E+00
              804                3   3.59171677E+01   3.60791740E+01   3.60791740E+01   5.21568775E-01  -1.87073648E-01   3.60791740E+01   3.60791740E+01   5.21568775E-01  -1.87073648E-01   3.62662468E+01  -1.21378899E+01   3.59014359E+01   1.48279214E+00   3.51179504E+01  -1.87073648E-01   5.76670122E+00
              804                4   3.61066513E+01   3.62066498E+01   3.62066498E+01   3.94094527E-01  -1.87073648E-01   3.62066498E+01   3.62066498E+01   3.94094527E-01  -1.87073648E-01   3.63937263E+01  -1.21378908E+01   3.60961227E+01   1.35736275E+00   3.52433815E+01  -1.87073648E-01   5.79390001E+00
              805                1   1.14602928E+01   1.65009335E-01  -4.90442157E-01  -4.90442157E-01  -1.16089430E+01   1.65009335E-01  -1.16089430E+01  -4.90442157E-01  -1.16089430E+01   1.17739525E+01   3.97812533E+00  -1.14180069E+01   5.24697043E-02  -3.77902508E-01  -1.16089430E+01  -2.47182325E-01
              805                2   1.14671030E+01   2.36591503E-01  -5.62024355E-01  -5.62024355E-01  -1.16089430E+01   2.36591503E-01  -1.16089430E+01  -5.62024355E-01  -1.16089430E+01   1.18455343E+01   3.97812533E+00  -1.14042826E+01   2.22692981E-01  -5.48125803E-01  -1.16089430E+01  -1.04433820E-01
              805                3   1.14858332E+01   3.87512684E-01  -7.12945521E-01  -7.12945521E-01  -1.16089430E+01   3.87512684E-01  -1.16089430E+01  -7.12945521E-01  -1.16089430E+01   1.19964561E+01   3.97812533E+00  -1.13663206E+01   1.86706364E-01  -5.12139201E-01  -1.16089430E+01  -4.25036222E-01
              805                4   1.14918242E+01   4.27740455E-01  -7.53173232E-01  -7.53173232E-01  -1.16089430E+01   4.27740455E-01  -1.16089430E+01  -7.53173232E-01  -1.16089430E+01   1.20366831E+01   3.97812533E+00  -1.13541107E+01   3.55928034E-01  -6.81360841E-01  -1.16089430E+01  -2.82218397E-01
              806                1   4.00450249E+01   4.39353142E+01   4.39353142E+01   3.83421302E+00   3.94659925E+00   4.39353142E+01   4.39353142E+01   3.94659925E+00   3.83421302E+00   4.01011009E+01  -1.72387085E+01   4.00446739E+01   5.37884617E+00   4.23906822E+01   3.94659925E+00   7.71722507E+00
              806                2   4.01248474E+01   4.39884377E+01   4.39884377E+01   3.78108931E+00   3.94659925E+00   4.39884377E+01   4.39884377E+01   3.94659925E+00   3.78108931E+00   4.02073479E+01  -1.72387085E+01   4.01240845E+01   5.24632406E+00   4.25232048E+01   3.94659925E+00   7.53433704E+00
              806                3   4.03786316E+01   4.41571045E+01   4.41571045E+01   3.61242127E+00   3.94659925E+00   4.41571045E+01   4.41571045E+01   3.94659925E+00   3.61242127E+00   4.05446854E+01  -1.72387085E+01   4.03755226E+01   5.19534445E+00   4.25741844E+01   3.94659925E+00   7.85324287E+00
              806                4   4.04581490E+01   4.42098846E+01   4.42098846E+01   3.55964398E+00   3.94659925E+00   4.42098846E+01   4.42098846E+01   3.94659925E+00   3.55964398E+00   4.06502380E+01  -1.72387085E+01   4.04539871E+01   5.06257534E+00   4.27069511E+01   3.94659925E+00   7.67044687E+00
              807                1   3.56530838E+01   4.02288017E+01   4.02288017E+01   2.65362024E+00   6.87338114E+00   4.02288017E+01   4.02288017E+01   6.87338114E+00   2.65362024E+00   3.75751839E+01  -1.65852680E+01   3.50846710E+01   4.95626974E+00   3.79261551E+01   6.87338114E+00   9.01222706E+00
              807                2   3.57238731E+01   4.02735710E+01   4.02735710E+01   2.60885119E+00   6.87338114E+00   4.02735710E+01   4.02735710E+01   6.87338114E+00   2.60885119E+00   3.76647224E+01  -1.65852680E+01   3.51443634E+01   4.78737879E+00   3.80950432E+01   6.87338114E+00   8.79247952E+00
              807                3   3.60653152E+01   4.04892693E+01   4.04892693E+01   2.39315510E+00   6.87338114E+00   4.04892693E+01   4.04892693E+01   6.87338114E+00   2.39315510E+00   3.80961113E+01  -1.65852680E+01   3.54311295E+01   4.74712944E+00   3.81352959E+01   6.87338114E+00   9.17256832E+00
              807                4   3.61348686E+01   4.05331573E+01   4.05331573E+01   2.34926701E+00   6.87338114E+00   4.05331573E+01   4.05331573E+01   6.87338114E+00   2.34926701E+00   3.81838875E+01  -1.65852680E+01   3.54893074E+01   4.57886076E+00   3.83035622E+01   6.87338114E+00   8.95340633E+00
              808                1   1.24980553E+02   1.51190750E+02   1.51190750E+02   2.51748905E+01   2.72719002E+01   1.51190750E+02   1.51190750E+02   2.72719002E+01   2.51748905E+01   1.26015862E+02  -6.78791809E+01   1.24940964E+02   2.60685425E+01   1.50297104E+02   2.72719002E+01   1.05742922E+01
              808                2   1.25031250E+02   1.51224274E+02   1.51224274E+02   2.51413841E+01   2.72719002E+01   1.51224274E+02   1.51224274E+02   2.72719002E+01   2.51413841E+01   1.26082893E+02  -6.78791885E+01   1.24990395E+02   2.59467697E+01   1.50418884E+02   2.72719002E+01   1.00447626E+01
              808                3   1.25792473E+02   1.51727051E+02   1.51727051E+02   2.46385975E+01   2.72719002E+01   1.51727051E+02   1.51727051E+02   2.72719002E+01   2.46385975E+01   1.27088455E+02  -6.78791809E+01   1.25730438E+02   2.55502777E+01   1.50815369E+02   2.72719002E+01   1.07253418E+01
              808                4   1.25844902E+02   1.51761642E+02   1.51761642E+02   2.46040173E+01   2.72719002E+01   1.51761642E+02   1.51761642E+02   2.72719002E+01   2.46040173E+01   1.27157631E+02  -6.78791885E+01   1.25781250E+02   2.54266796E+01   1.50938980E+02   2.72719002E+01   1.01946735E+01
              809                1   2.03065338E+02   1.94968369E+02   1.94968369E+02  -1.09960394E+01  -5.06807661E+00   1.94968369E+02   1.94968369E+02  -5.06807661E+00  -1.09960394E+01   2.05964417E+02  -5.96347542E+01   2.02870514E+02  -1.09141083E+01   1.94886444E+02  -5.06807661E+00   4.10708332E+00
              809                2   2.03540131E+02   1.95268494E+02   1.95268494E+02  -1.16670456E+01  -4.69719601E+00   1.95268494E+02   1.95268494E+02  -4.69719601E+00  -1.16670456E+01   2.06935532E+02  -5.96347504E+01   2.03271362E+02  -1.15069370E+01   1.95108383E+02  -4.69719601E+00   5.75372791E+00
              809                3   2.02079636E+02   1.94330444E+02   1.94330444E+02  -9.91870975E+00  -5.50747204E+00   1.94330444E+02   1.94330444E+02  -5.50747204E+00  -9.91870975E+00   2.04249146E+02  -5.96347504E+01   2.01971268E+02  -9.79138374E+00   1.94203110E+02  -5.50747204E+00   5.09807110E+00
              809                4   2.02574570E+02   1.94647247E+02   1.94647247E+02  -1.06165838E+01  -5.12642145E+00   1.94647247E+02   1.94647247E+02  -5.12642145E+00  -1.06165838E+01   2.05263840E+02  -5.96347504E+01   2.02407074E+02  -1.03940744E+01   1.94424744E+02  -5.12642145E+00   6.75454712E+00
              810                1   4.00141335E+01   3.80275764E+01   3.80275764E+01  -7.88131773E-01  -3.08595371E+00   3.80275764E+01   3.80275764E+01  -7.88131773E-01  -3.08595371E+00   4.11135292E+01  -1.13844976E+01   3.98652840E+01   6.96404636E-01   3.65430412E+01  -3.08595371E+00   7.44442368E+00
              810                2   3.96831017E+01   3.77996788E+01   3.77996788E+01  -5.60234845E-01  -3.08595371E+00   3.77996788E+01   3.77996788E+01  -5.60234845E-01  -3.08595371E+00   4.08856316E+01  -1.13844976E+01   3.95016518E+01   9.40226376E-01   3.62992172E+01  -3.08595371E+00   7.43681526E+00
              810                3   3.98957634E+01   3.79461746E+01   3.79461746E+01  -7.06731677E-01  -3.08595371E+00   3.79461746E+01   3.79461746E+01  -7.06731677E-01  -3.08595371E+00   4.10321312E+01  -1.13844976E+01   3.97356758E+01   6.84299648E-01   3.65551453E+01  -3.08595371E+00   7.19947433E+00
              810                4   3.95635300E+01   3.77171631E+01   3.77171631E+01  -4.77717906E-01  -3.08595371E+00   3.77171631E+01   3.77171631E+01  -4.77717906E-01  -3.08595371E+00   4.08031158E+01  -1.13844976E+01   3.93694000E+01   9.28253055E-01   3.63111916E+01  -3.08595371E+00   7.19194984E+00
              811                1   4.00082512E+01   3.30424385E+01   3.30424385E+01  -2.49892306E+00  -1.02873640E+01   3.30424385E+01   3.30424385E+01  -2.49892306E+00  -1.02873640E+01   4.33298035E+01  -6.75205088E+00   3.82464333E+01   2.40192485E+00   2.81415920E+01  -1.02873640E+01   1.22541618E+01
              811                2   3.97098007E+01   3.28178825E+01   3.28178825E+01  -2.27436447E+00  -1.02873640E+01   3.28178825E+01   3.28178825E+01  -2.27436447E+00  -1.02873640E+01   4.31052475E+01  -6.75205088E+00   3.78261185E+01   2.14243412E+00   2.84010830E+01  -1.02873640E+01   1.16399012E+01
              811                3   4.11074677E+01   3.38598824E+01   3.38598824E+01  -3.31636524E+00  -1.02873640E+01   3.38598824E+01   3.38598824E+01  -3.31636524E+00  -1.02873640E+01   4.41472473E+01  -6.75205088E+00   3.97449074E+01   1.83159995E+00   2.87119179E+01  -1.02873640E+01   1.28405800E+01
              811                4   4.07513924E+01   3.35966721E+01   3.35966721E+01  -3.05315447E+00  -1.02873640E+01   3.35966721E+01   3.35966721E+01  -3.05315447E+00  -1.02873640E+01   4.38840370E+01  -6.75205088E+00   3.92675819E+01   1.52934444E+00   2.90141735E+01  -1.02873640E+01   1.21222315E+01
              812                1   1.81203156E+01   7.83786011E+00   7.83786011E+00  -4.49919730E-01  -1.29442492E+01   7.83786011E+00  -1.29442492E+01  -4.49919730E-01  -1.29442492E+01   2.07821102E+01   1.85210288E+00  -1.26714239E+01   5.16147375E-01   6.87179327E+00  -1.29442492E+01   2.65956092E+00
              812                2   1.78429585E+01   7.41511822E+00   7.41511822E+00  -2.71773003E-02  -1.29442492E+01   7.41511822E+00  -1.29442492E+01  -2.71773003E-02  -1.29442492E+01   2.03593674E+01   1.85210276E+00  -1.36305904E+01   1.01393259E+00   6.37400818E+00  -1.29442492E+01   2.58153796E+00
              812                3   1.79768105E+01   7.62399912E+00   7.62399912E+00  -2.36058295E-01  -1.29442492E+01   7.62399912E+00  -1.29442492E+01  -2.36058295E-01  -1.29442492E+01   2.05682487E+01   1.85210276E+00  -1.31869431E+01   4.10728186E-01   6.97721291E+00  -1.29442492E+01   2.15996408E+00
              812                4   1.76917171E+01   7.16607475E+00   7.16607475E+00   2.21865937E-01  -1.29442492E+01   7.16607475E+00  -1.29442492E+01   2.21865937E-01  -1.29442492E+01   2.01103249E+01   1.85210276E+00  -1.40958128E+01   9.03769851E-01   6.48417091E+00  -1.29442492E+01   2.06646824E+00
              813                1   7.61844864E+01   7.74702682E+01   7.74702682E+01   1.51219308E+00   1.06136501E+00   7.74702682E+01   7.74702682E+01   1.51219308E+00   1.06136501E+00   7.64089050E+01  -2.66812744E+01   7.61814880E+01   1.86579437E+01   6.03245163E+01   1.06136501E+00   3.17550220E+01
              813                2   7.66003647E+01   7.77480850E+01   7.77480850E+01   1.23437452E+00   1.06136501E+00   7.77480850E+01   7.77480850E+01   1.23437452E+00   1.06136501E+00   7.66867218E+01  -2.66812744E+01   7.65999222E+01   1.78275909E+01   6.11548691E+01   1.06136501E+00   3.15321064E+01
              813                3   7.72709961E+01   7.81950302E+01   7.81950302E+01   7.87432253E-01   1.06136501E+00   7.81950302E+01   7.81950302E+01   1.06136501E+00   7.87432253E-01   7.74075928E+01  -2.66812744E+01   7.72698975E+01   1.85913639E+01   6.03910942E+01   1.06136501E+00   3.25757523E+01
              813                4   7.76810303E+01   7.84676666E+01   7.84676666E+01   5.14794648E-01   1.06136501E+00   7.84676666E+01   7.84676666E+01   1.06136501E+00   5.14794648E-01   7.79528732E+01  -2.66812744E+01   7.76767044E+01   1.77310371E+01   6.12514229E+01   1.06136501E+00   3.23366127E+01
              814                1   1.04999352E+02   1.07435638E+02   1.07435638E+02   2.41804647E+00   2.45452905E+00   1.07435638E+02   1.07435638E+02   2.45452905E+00   2.41804647E+00   1.05017593E+02  -3.74360695E+01   1.04999344E+02   2.69499421E+00   1.07158691E+02   2.45452905E+00   5.38585663E+00
              814                2   1.05031456E+02   1.07457031E+02   1.07457031E+02   2.39665008E+00   2.45452905E+00   1.07457031E+02   1.07457031E+02   2.45452905E+00   2.39665008E+00   1.05060387E+02  -3.74360695E+01   1.05031418E+02   2.66242266E+00   1.07191261E+02   2.45452905E+00   5.27745056E+00
              814                3   1.05165367E+02   1.07546265E+02   1.07546265E+02   2.30742478E+00   2.45452905E+00   1.07546265E+02   1.07546265E+02   2.45452905E+00   2.30742478E+00   1.05238838E+02  -3.74360733E+01   1.05165131E+02   2.58721566E+00   1.07266472E+02   2.45452905E+00   5.41912985E+00
              814                4   1.05197426E+02   1.07567627E+02   1.07567627E+02   2.28605986E+00   2.45452905E+00   1.07567627E+02   1.07567627E+02   2.45452905E+00   2.28605986E+00   1.05281563E+02  -3.74360695E+01   1.05197128E+02   2.55464506E+00   1.07299042E+02   2.45452905E+00   5.31079865E+00
              815                1   1.28241959E+01   1.06122509E-01  -3.43804270E-01  -3.43804270E-01  -1.29371157E+01   1.06122509E-01  -1.29371157E+01  -3.43804270E-01  -1.29371157E+01   1.30432386E+01   4.39159918E+00  -1.28064194E+01   8.59930441E-02  -3.23674798E-01  -1.29371157E+01  -9.30139050E-02
              815                2   1.28388042E+01   3.00172925E-01  -5.37854671E-01  -5.37854671E-01  -1.29371157E+01   3.00172925E-01  -1.29371157E+01  -5.37854671E-01  -1.29371157E+01   1.32372885E+01   4.39159918E+00  -1.27770519E+01   3.69633026E-02  -2.74645060E-01  -1.29371157E+01   3.88969958E-01
              815                3   1.28717461E+01   5.57838202E-01  -7.95519948E-01  -7.95519948E-01  -1.29371157E+01   5.57838202E-01  -1.29371157E+01  -7.95519948E-01  -1.29371157E+01   1.34949541E+01   4.39159918E+00  -1.27102003E+01   5.57776093E-01  -7.95457840E-01  -1.29371157E+01  -9.16844793E-03
              815                4   1.28903084E+01   6.66839063E-01  -9.04520810E-01  -9.04520810E-01  -1.29371157E+01   6.66839063E-01  -1.29371157E+01  -9.04520810E-01  -1.29371157E+01   1.36039543E+01   4.39159918E+00  -1.26721439E+01   5.08156478E-01  -7.45838225E-01  -1.29371157E+01   4.73463029E-01
              816                1   4.43472252E+01   4.65697365E+01   4.65697365E+01   2.32550836E+00   2.12022591E+00   4.65697365E+01   4.65697365E+01   2.32550836E+00   2.12022591E+00   4.44495087E+01  -1.70051575E+01   4.43461571E+01   3.57011962E+00   4.53251266E+01   2.12022591E+00   7.31558180E+00
              816                2   4.44760704E+01   4.66557922E+01   4.66557922E+01   2.23945737E+00   2.12022591E+00   4.66557922E+01   4.66557922E+01   2.23945737E+00   2.12022591E+00   4.45355644E+01  -1.70051575E+01   4.44757118E+01   3.41730356E+00   4.54779434E+01   2.12022591E+00   7.13640976E+00
              816                3   4.46789627E+01   4.67911301E+01   4.67911301E+01   2.10411668E+00   2.12022591E+00   4.67911301E+01   4.67911301E+01   2.12022591E+00   2.10411668E+00   4.46870155E+01  -1.70051575E+01   4.46789589E+01   3.38849950E+00   4.55067482E+01   2.12022591E+00   7.46629906E+00
              816                4   4.48044930E+01   4.68747635E+01   4.68747635E+01   2.02048063E+00   2.12022591E+00   4.68747635E+01   4.68747635E+01   2.12022591E+00   2.02048063E+00   4.48542824E+01  -1.70051575E+01   4.48042412E+01   3.23780584E+00   4.56574402E+01   2.12022591E+00   7.28836775E+00
              817                1   1.12427315E+02   1.23580437E+02   1.23580437E+02   1.04425430E+01   1.18774309E+01   1.23580437E+02   1.23580437E+02   1.18774309E+01   1.04425430E+01   1.13137894E+02  -4.86334686E+01   1.12406708E+02   1.24996738E+01   1.21523300E+02   1.18774309E+01   1.51164751E+01
              817                2   1.12406525E+02   1.23566658E+02   1.23566658E+02   1.04563189E+01   1.18774309E+01   1.23566658E+02   1.23566658E+02   1.18774309E+01   1.04563189E+01   1.13110344E+02  -4.86334686E+01   1.12386307E+02   1.25414124E+01   1.21481560E+02   1.18774309E+01   1.52150726E+01
              817                3   1.12274773E+02   1.23479355E+02   1.23479355E+02   1.05436115E+01   1.18774309E+01   1.23479355E+02   1.23479355E+02   1.18774309E+01   1.05436115E+01   1.12935738E+02  -4.86334648E+01   1.12256958E+02   1.25939541E+01   1.21429016E+02   1.18774309E+01   1.50782232E+01
              817                4   1.12248466E+02   1.23461922E+02   1.23461922E+02   1.05610580E+01   1.18774309E+01   1.23461922E+02   1.23461922E+02   1.18774309E+01   1.05610580E+01   1.12900864E+02  -4.86334686E+01   1.12231094E+02   1.26396179E+01   1.21383354E+02   1.18774309E+01   1.51773272E+01
              818                1   1.01737137E+02   1.01379417E+02   1.01379417E+02  -3.62598121E-01  -3.52842093E-01   1.01379417E+02   1.01379417E+02  -3.52842093E-01  -3.62598121E-01   1.01742020E+02  -3.35546608E+01   1.01737144E+02  -9.17168185E-02   1.01108543E+02  -3.52842093E-01   5.24273348E+00
              818                2   1.01708611E+02   1.01360405E+02   1.01360405E+02  -3.43571424E-01  -3.52842093E-01   1.01360405E+02   1.01360405E+02  -3.43571424E-01  -3.52842093E-01   1.01713242E+02  -3.35546608E+01   1.01708611E+02  -8.52076784E-02   1.01102036E+02  -3.52842093E-01   5.11958313E+00
              818                3   1.01919189E+02   1.01500748E+02   1.01500748E+02  -4.83915865E-01  -3.52842093E-01   1.01500748E+02   1.01500748E+02  -3.52842093E-01  -4.83915865E-01   1.01984665E+02  -3.35546608E+01   1.01918999E+02  -2.14279145E-01   1.01231110E+02  -3.52842093E-01   5.23699379E+00
              818                4   1.01890678E+02   1.01481750E+02   1.01481750E+02  -4.64918792E-01  -3.52842093E-01   1.01481750E+02   1.01481750E+02  -3.52842093E-01  -4.64918792E-01   1.01946671E+02  -3.35546608E+01   1.01890541E+02  -2.07764834E-01   1.01224594E+02  -3.52842093E-01   5.11370516E+00
              819                1   1.13113159E+02   1.26943916E+02   1.26943916E+02   1.35538702E+01   1.41096888E+01   1.26943916E+02   1.26943916E+02   1.41096888E+01   1.35538702E+01   1.13390045E+02  -5.15358276E+01   1.13110085E+02   1.40153761E+01   1.26482414E+02   1.41096888E+01   7.21920156E+00
              819                2   1.12958801E+02   1.26841240E+02   1.26841240E+02   1.36565485E+01   1.41096888E+01   1.26841240E+02   1.26841240E+02   1.41096888E+01   1.36565485E+01   1.13184692E+02  -5.15358276E+01   1.12956749E+02   1.41177530E+01   1.26380035E+02   1.41096888E+01   7.21030569E+00
              819                3   1.13111389E+02   1.26942741E+02   1.26942741E+02   1.35550470E+01   1.41096888E+01   1.26942741E+02   1.26942741E+02   1.41096888E+01   1.35550470E+01   1.13387695E+02  -5.15358276E+01   1.13108330E+02   1.40036039E+01   1.26494186E+02   1.41096888E+01   7.11753559E+00
              819                4   1.12956863E+02   1.26839943E+02   1.26839943E+02   1.36578426E+01   1.41096888E+01   1.26839943E+02   1.26839943E+02   1.41096888E+01   1.36578426E+01   1.13182106E+02  -5.15358276E+01   1.12954826E+02   1.41060915E+01   1.26391701E+02   1.41096888E+01   7.10863972E+00
              820                1   1.21158844E+02   1.49022003E+02   1.49022003E+02   2.76001358E+01   2.81279240E+01   1.49022003E+02   1.49022003E+02   2.81279240E+01   2.76001358E+01   1.21421875E+02  -6.82500229E+01   1.21156250E+02   2.76655407E+01   1.48956604E+02   2.81279240E+01   2.81736112E+00
              820                2   1.21047653E+02   1.48948029E+02   1.48948029E+02   2.76741104E+01   2.81279240E+01   1.48948029E+02   1.48948029E+02   2.81279240E+01   2.76741104E+01   1.21273926E+02  -6.82500229E+01   1.21045738E+02   2.77534027E+01   1.48868744E+02   2.81279240E+01   3.09995699E+00
              820                3   1.20730988E+02   1.48737213E+02   1.48737213E+02   2.78849106E+01   2.81279240E+01   1.48737213E+02   1.48737213E+02   2.81279240E+01   2.78849106E+01   1.20852310E+02  -6.82500229E+01   1.20730431E+02   2.79463997E+01   1.48675735E+02   2.81279240E+01   2.72522497E+00
              820                4   1.20619392E+02   1.48662888E+02   1.48662888E+02   2.79592457E+01   2.81279240E+01   1.48662888E+02   1.48662888E+02   2.81279240E+01   2.79592457E+01   1.20703644E+02  -6.82500229E+01   1.20619125E+02   2.80342464E+01   1.48587891E+02   2.81279240E+01   3.00783229E+00
              821                1   2.18364349E+02   2.06986603E+02   2.06986603E+02  -2.59962521E+01   6.99529600E+00   2.06986603E+02   2.06986603E+02   6.99529600E+00  -2.59962521E+01   2.32982864E+02  -6.26618843E+01   2.12648605E+02  -2.58740768E+01   2.06864426E+02   6.99529600E+00  -5.33399248E+00
              821                2   2.18702209E+02   2.06955536E+02   2.06955536E+02  -2.75973473E+01   8.62745953E+00   2.06955536E+02   2.06955536E+02   8.62745953E+00  -2.75973473E+01   2.34552872E+02  -6.26618805E+01   2.11794357E+02  -2.75492973E+01   2.06907486E+02   8.62745953E+00  -3.35662961E+00
              821                3   2.18100342E+02   2.07020370E+02   2.07020370E+02  -2.45636406E+01   5.52891779E+00   2.07020370E+02   2.07020370E+02   5.52891779E+00  -2.45636406E+01   2.31584000E+02  -6.26618805E+01   2.13354660E+02  -2.45395775E+01   2.06996307E+02   5.52891779E+00  -2.36029768E+00
              821                4   2.18611374E+02   2.07114838E+02   2.07114838E+02  -2.63073139E+01   7.17811632E+00   2.07114838E+02   2.07114838E+02   7.17811632E+00  -2.63073139E+01   2.33422150E+02  -6.26618805E+01   2.12726669E+02  -2.63066864E+01   2.07114212E+02   7.17811632E+00  -3.82622927E-01
              822                1   2.09835617E+02   2.30170761E+02   2.30170761E+02   2.73659158E+00   4.40916290E+01   2.30170761E+02   2.30170761E+02   4.40916290E+01   2.73659158E+00   2.27434158E+02  -9.23329849E+01   2.00356796E+02   2.97961831E+00   2.29927734E+02   4.40916290E+01   7.43051958E+00
              822                2   2.10193573E+02   2.30302963E+02   2.30302963E+02   2.12708735E+00   4.45689278E+01   2.30302963E+02   2.30302963E+02   4.45689278E+01   2.12708735E+00   2.28175873E+02  -9.23330002E+01   2.00209579E+02   2.16094804E+00   2.30269104E+02   4.45689278E+01   2.77946210E+00
              822                3   2.10828217E+02   2.30489685E+02   2.30489685E+02   8.77746403E-01   4.56315613E+01   2.30489685E+02   2.30489685E+02   4.56315613E+01   8.77746403E-01   2.29611938E+02  -9.23330002E+01   1.99716919E+02   1.23320901E+00   2.30134216E+02   4.56315613E+01   9.02737808E+00
              822                4   2.11169922E+02   2.30611191E+02   2.30611191E+02   3.11587751E-01   4.60762062E+01   2.30611191E+02   2.30611191E+02   4.60762062E+01   3.11587751E-01   2.30299606E+02  -9.23330002E+01   1.99549469E+02   3.97687733E-01   2.30525085E+02   4.60762062E+01   4.45217466E+00
              823                1   8.28286743E+01   7.69328232E+01   7.69328232E+01  -5.68107605E+00  -6.10897017E+00   7.69328232E+01   7.69328232E+01  -5.68107605E+00  -6.10897017E+00   8.30417938E+01  -2.17142582E+01   8.28261871E+01  -4.80211449E+00   7.60538635E+01  -6.10897017E+00   8.47594929E+00
              823                2   8.31991806E+01   7.71802826E+01   7.71802826E+01  -5.92853594E+00  -6.10897017E+00   7.71802826E+01   7.71802826E+01  -5.92853594E+00  -6.10897017E+00   8.32892532E+01  -2.17142582E+01   8.31987457E+01  -5.08061266E+00   7.63323593E+01  -6.10897017E+00   8.35170460E+00
              823                3   8.30936279E+01   7.71098251E+01   7.71098251E+01  -5.85807562E+00  -6.10897017E+00   7.71098251E+01   7.71098251E+01  -5.85807562E+00  -6.10897017E+00   8.32187958E+01  -2.17142582E+01   8.30927811E+01  -4.92288780E+00   7.61746368E+01  -6.10897017E+00   8.75875664E+00
              823                4   8.34630814E+01   7.73563156E+01   7.73563156E+01  -6.10456753E+00  -6.10897017E+00   7.73563156E+01   7.73563156E+01  -6.10456753E+00  -6.10897017E+00   8.34652863E+01  -2.17142582E+01   8.34630814E+01  -5.20146942E+00   7.64532166E+01  -6.10897017E+00   8.63468552E+00
              824                1   7.66380539E+01   7.67958450E+01   7.67958450E+01   6.47027552E-01  -3.22250545E-01   7.67958450E+01   7.67958450E+01   6.47027552E-01  -3.22250545E-01   7.71180954E+01  -2.57068729E+01   7.66242523E+01   1.51271782E+01   6.23156891E+01  -3.22250545E-01   2.98826313E+01
              824                2   7.70980530E+01   7.71041641E+01   7.71041641E+01   3.38710219E-01  -3.22250545E-01   7.71041641E+01   7.71041641E+01   3.38710219E-01  -3.22250545E-01   7.74264145E+01  -2.57068729E+01   7.70916748E+01   1.41104546E+01   6.33324127E+01  -3.22250545E-01   2.94539185E+01
              824                3   7.79688568E+01   7.76860962E+01   7.76860962E+01  -2.43223161E-01  -3.22250545E-01   7.76860962E+01   7.76860962E+01  -2.43223161E-01  -3.22250545E-01   7.80083466E+01  -2.57068729E+01   7.79687653E+01   1.49563293E+01   6.24865379E+01  -3.22250545E-01   3.08782196E+01
              824                4   7.84188843E+01   7.79859772E+01   7.79859772E+01  -5.43103278E-01  -3.22250545E-01   7.79859772E+01   7.79859772E+01  -3.22250545E-01  -5.43103278E-01   7.85290756E+01  -2.57068729E+01   7.84181824E+01   1.39337158E+01   6.35091515E+01  -3.22250545E-01   3.04511585E+01
              825                1   1.50805908E+02   1.72210663E+02   1.72210663E+02   1.97082710E+01   2.31604919E+01   1.72210663E+02   1.72210663E+02   2.31604919E+01   1.97082710E+01   1.52502396E+02  -7.16931381E+01   1.50716980E+02   1.99925747E+01   1.71926361E+02   2.31604919E+01   6.57839823E+00
              825                2   1.49715683E+02   1.71491135E+02   1.71491135E+02   2.04278164E+01   2.31604919E+01   1.71491135E+02   1.71491135E+02   2.31604919E+01   2.04278164E+01   1.51063309E+02  -7.16931458E+01   1.49659546E+02   2.08171310E+01   1.71101807E+02   2.31604919E+01   7.65902472E+00
              825                3   1.49072891E+02   1.71066147E+02   1.71066147E+02   2.08527889E+01   2.31604919E+01   1.71066147E+02   1.71066147E+02   2.31604919E+01   2.08527889E+01   1.50213348E+02  -7.16931381E+01   1.49032700E+02   2.10702839E+01   1.70848648E+02   2.31604919E+01   5.71165466E+00
              825                4   1.47973404E+02   1.70337860E+02   1.70337860E+02   2.15810795E+01   2.31604919E+01   1.70337860E+02   1.70337860E+02   2.31604919E+01   2.15810795E+01   1.48756790E+02  -7.16931458E+01   1.47954437E+02   2.18919449E+01   1.70026993E+02   2.31604919E+01   6.79321909E+00
              826                1   1.94850525E+02   1.95436447E+02   1.95436447E+02  -1.34669572E-01   1.31459832E+00   1.95436447E+02   1.95436447E+02   1.31459832E+00  -1.34669572E-01   1.95571106E+02  -6.55387955E+01   1.94838394E+02  -1.12378523E-01   1.95414154E+02   1.31459832E+00   2.08770418E+00
              826                2   1.95740158E+02   1.96026917E+02   1.96026917E+02  -7.24614978E-01   1.31407070E+00   1.96026917E+02   1.96026917E+02   1.31407070E+00  -7.24614978E-01   1.96751541E+02  -6.55387955E+01   1.95716263E+02  -7.05044508E-01   1.96007355E+02   1.31407070E+00   1.96202099E+00
              826                3   1.95049057E+02   1.95568298E+02   1.95568298E+02  -2.66312629E-01   1.31439912E+00   1.95568298E+02   1.95568298E+02   1.31439912E+00  -2.66312629E-01   1.95834610E+02  -6.55387955E+01   1.95034653E+02  -2.28240564E-01   1.95530228E+02   1.31439912E+00   2.73025584E+00
              826                4   1.95935745E+02   1.96156631E+02   1.96156631E+02  -8.54119301E-01   1.31387186E+00   1.96156631E+02   1.96156631E+02   1.31387186E+00  -8.54119301E-01   1.97010742E+02  -6.55387955E+01   1.95908752E+02  -8.19506049E-01   1.96122009E+02   1.31387186E+00   2.61121154E+00
              827                1   3.47106514E+01   4.36117744E+01   4.36117744E+01   8.87183094E+00   8.93048859E+00   4.36117744E+01   4.36117744E+01   8.93048859E+00   8.87183094E+00   3.47399406E+01  -2.04713650E+01   3.47105408E+01   9.25745583E+00   4.32261505E+01   8.93048859E+00   3.63975406E+00
              827                2   3.51008339E+01   4.38712006E+01   4.38712006E+01   8.61240482E+00   8.93048859E+00   4.38712006E+01   4.38712006E+01   8.93048859E+00   8.61240482E+00   3.52587967E+01  -2.04713650E+01   3.50975914E+01   9.00880241E+00   4.34748039E+01   8.93048859E+00   3.71743393E+00
              827                3   3.46799393E+01   4.35913124E+01   4.35913124E+01   8.89229202E+00   8.93048859E+00   4.35913124E+01   4.35913124E+01   8.93048859E+00   8.89229202E+00   3.46990204E+01  -2.04713650E+01   3.46798897E+01   9.33081913E+00   4.31527863E+01   8.93048859E+00   3.87609649E+00
              827                4   3.50752640E+01   4.38542290E+01   4.38542290E+01   8.62937832E+00   8.93048859E+00   4.38542290E+01   4.38542290E+01   8.93048859E+00   8.62937832E+00   3.52248497E+01  -2.04713650E+01   3.50723572E+01   9.07945251E+00   4.34041557E+01   8.93048859E+00   3.95616269E+00
              828                1   3.96314011E+01   4.48911400E+01   4.48911400E+01   5.23193645E+00   5.28760338E+00   4.48911400E+01   4.48911400E+01   5.28760338E+00   5.23193645E+00   3.96592064E+01  -1.84702282E+01   3.96313095E+01   6.24513054E+00   4.38779449E+01   5.28760338E+00   6.25747442E+00
              828                2   3.97003670E+01   4.49370728E+01   4.49370728E+01   5.18600082E+00   5.28760338E+00   4.49370728E+01   4.49370728E+01   5.28760338E+00   5.18600082E+00   3.97510719E+01  -1.84702244E+01   3.97000771E+01   6.13211536E+00   4.39909592E+01   5.28760338E+00   6.05919933E+00
              828                3   3.99907494E+01   4.51301804E+01   4.51301804E+01   4.99289227E+00   5.28760338E+00   4.51301804E+01   4.51301804E+01   5.28760338E+00   4.99289227E+00   4.01372910E+01  -1.84702244E+01   3.99883080E+01   6.03355837E+00   4.40895157E+01   5.28760338E+00   6.37859821E+00
              828                4   4.00594673E+01   4.51758156E+01   4.51758156E+01   4.94726133E+00   5.28760338E+00   4.51758156E+01   4.51758156E+01   5.28760338E+00   4.94726133E+00   4.02285538E+01  -1.84702282E+01   4.00562134E+01   5.91804695E+00   4.42050285E+01   5.28760338E+00   6.17340612E+00
              829                1   9.12392960E+01   8.70452728E+01   8.70452728E+01  -4.09344196E+00  -4.29428053E+00   8.70452728E+01   8.70452728E+01  -4.09344196E+00  -4.29428053E+00   9.13395538E+01  -2.62191830E+01   9.12388000E+01  -2.16696930E+00   8.51187973E+01  -4.29428053E+00   1.31097269E+01
              829                2   9.09665222E+01   8.68631287E+01   8.68631287E+01  -3.91129827E+00  -4.29428053E+00   8.68631287E+01   8.68631287E+01  -3.91129827E+00  -4.29428053E+00   9.11574097E+01  -2.62191830E+01   9.09647064E+01  -2.10443401E+00   8.50562592E+01  -4.29428053E+00   1.26788235E+01
              829                3   9.18110962E+01   8.74264908E+01   8.74264908E+01  -4.47467184E+00  -4.29428053E+00   8.74264908E+01   8.74264908E+01  -4.29428053E+00  -4.47467184E+00   9.19011612E+01  -2.62191792E+01   9.18107071E+01  -2.58597255E+00   8.55377960E+01  -4.29428053E+00   1.30386429E+01
              829                4   9.15408783E+01   8.72464371E+01   8.72464371E+01  -4.29460573E+00  -4.29428053E+00   8.72464371E+01   8.72464371E+01  -4.29428053E+00  -4.29460573E+00   9.15410385E+01  -2.62191830E+01   9.15408783E+01  -2.52310920E+00   8.54749374E+01  -4.29428053E+00   1.26105671E+01
              830                1   3.19611130E+01   2.71632347E+01   2.71632347E+01  -6.31058395E-01  -7.76057816E+00   2.71632347E+01   2.71632347E+01  -6.31058395E-01  -7.76057816E+00   3.49238129E+01  -6.25719976E+00   3.00929432E+01   3.27173352E-01   2.62050037E+01  -7.76057816E+00   5.07101202E+00
              830                2   3.14965801E+01   2.68050919E+01   2.68050919E+01  -2.72914559E-01  -7.76057816E+00   2.68050919E+01   2.68050919E+01  -2.72914559E-01  -7.76057816E+00   3.45656700E+01  -6.25719976E+00   2.93923054E+01   6.74995661E-01   2.58571815E+01  -7.76057816E+00   4.97684431E+00
              830                3   3.19218979E+01   2.71331596E+01   2.71331596E+01  -6.00979924E-01  -7.76057816E+00   2.71331596E+01   2.71331596E+01  -6.00979924E-01  -7.76057816E+00   3.48937378E+01  -6.25720024E+00   3.00346622E+01   2.28066608E-01   2.63041115E+01  -7.76057816E+00   4.72287989E+00
              830                4   3.14565601E+01   2.67740421E+01   2.67740421E+01  -2.41865173E-01  -7.76057816E+00   2.67740421E+01   2.67740421E+01  -2.41865173E-01  -7.76057816E+00   3.45346222E+01  -6.25719976E+00   2.93308582E+01   5.75695932E-01   2.59564819E+01  -7.76057816E+00   4.62803698E+00
              831                1   3.82331963E+01   4.11777115E+01   4.11777115E+01   6.84048384E-02   6.68405437E+00   4.11777115E+01   4.11777115E+01   6.68405437E+00   6.84048384E-02   4.11093063E+01  -1.59767237E+01   3.69123764E+01   5.12224555E-01   4.07338905E+01   6.68405437E+00   4.24831820E+00
              831                2   3.78490028E+01   4.09393158E+01   4.09393158E+01   3.06797504E-01   6.68405437E+00   4.09393158E+01   4.09393158E+01   6.68405437E+00   3.06797504E-01   4.06325188E+01  -1.59767227E+01   3.66108856E+01   7.78212845E-01   4.04678993E+01   6.68405437E+00   4.35115910E+00
              831                3   3.79867935E+01   4.10248604E+01   4.10248604E+01   2.21254125E-01   6.68405437E+00   4.10248604E+01   4.10248604E+01   6.68405437E+00   2.21254125E-01   4.08036041E+01  -1.59767227E+01   3.67192345E+01   6.14605129E-01   4.06315079E+01   6.68405437E+00   3.98690438E+00
              831                4   3.76002426E+01   4.07847557E+01   4.07847557E+01   4.61359471E-01   6.68405437E+00   4.07847557E+01   4.07847557E+01   6.68405437E+00   4.61359471E-01   4.03233986E+01  -1.59767237E+01   3.64146500E+01   8.80705357E-01   4.03654099E+01   6.68405437E+00   4.09067917E+00
              832                1   1.02558357E+02   1.11538078E+02   1.11538078E+02   6.37706661E+00   1.17973442E+01   1.11538078E+02   1.11538078E+02   1.17973442E+01   6.37706661E+00   1.05161011E+02  -4.32374992E+01   1.02235344E+02   2.77386990E+01   9.01764450E+01   1.17973442E+01   4.23094749E+01
              832                2   1.00964920E+02   1.10499878E+02   1.10499878E+02   7.41526651E+00   1.17973442E+01   1.10499878E+02   1.10499878E+02   1.17973442E+01   7.41526651E+00   1.03084610E+02  -4.32374992E+01   1.00750618E+02   2.77957363E+01   9.01194077E+01   1.17973442E+01   4.10554428E+01
              832                3   1.03282112E+02   1.12008202E+02   1.12008202E+02   5.90694618E+00   1.17973442E+01   1.12008202E+02   1.12008202E+02   1.17973442E+01   5.90694618E+00   1.06101250E+02  -4.32374992E+01   1.02903160E+02   2.63813133E+01   9.15338287E+01   1.17973442E+01   4.18707123E+01
              832                4   1.01535599E+02   1.10872215E+02   1.10872215E+02   7.04293203E+00   1.17973442E+01   1.10872215E+02   1.10872215E+02   1.17973442E+01   7.04293203E+00   1.03829285E+02  -4.32374992E+01   1.01284691E+02   2.65320034E+01   9.13831406E+01   1.17973442E+01   4.05427246E+01
              833                1   3.39973488E+01   4.22222214E+01   4.22222214E+01   5.62223864E+00   1.16278896E+01   4.22222214E+01   4.22222214E+01   1.16278896E+01   5.62223864E+00   3.65999832E+01  -1.98241177E+01   3.27718964E+01   1.03871212E+01   3.74573402E+01   1.16278896E+01   1.23162689E+01
              833                2   3.31509666E+01   4.16970787E+01   4.16970787E+01   6.14738083E+00   1.16278896E+01   4.16970787E+01   4.16970787E+01   1.16278896E+01   6.14738083E+00   3.55496979E+01  -1.98241177E+01   3.21079521E+01   1.06960773E+01   3.71483841E+01   1.16278896E+01   1.18749371E+01
              833                3   3.42041321E+01   4.23502159E+01   4.23502159E+01   5.49424744E+00   1.16278896E+01   4.23502159E+01   4.23502159E+01   1.16278896E+01   5.49424744E+00   3.68559685E+01  -1.98241177E+01   3.29325523E+01   9.94207382E+00   3.79023895E+01   1.16278896E+01   1.20060730E+01
              833                4   3.33664093E+01   4.18309479E+01   4.18309479E+01   6.01351213E+00   1.16278896E+01   4.18309479E+01   4.18309479E+01   1.16278896E+01   6.01351213E+00   3.58174362E+01  -1.98241177E+01   3.22779503E+01   1.02491198E+01   3.75953407E+01   1.16278896E+01   1.15658207E+01
              834                1   4.25895844E+01   4.57307549E+01   4.57307549E+01   3.18562007E+00   3.09685874E+00   4.57307549E+01   4.57307549E+01   3.18562007E+00   3.09685874E+00   4.26338959E+01  -1.73377438E+01   4.25893745E+01   4.43756866E+00   4.44788055E+01   3.09685874E+00   7.19005871E+00
              834                2   4.26972580E+01   4.58025818E+01   4.58025818E+01   3.11379242E+00   3.09685874E+00   4.58025818E+01   4.58025818E+01   3.11379242E+00   3.09685874E+00   4.27057228E+01  -1.73377438E+01   4.26972504E+01   4.29548311E+00   4.46208916E+01   3.09685874E+00   7.00346565E+00
              834                3   4.29285965E+01   4.59566994E+01   4.59566994E+01   2.95967436E+00   3.09685874E+00   4.59566994E+01   4.59566994E+01   3.09685874E+00   2.95967436E+00   4.29970245E+01  -1.73377438E+01   4.29281044E+01   4.25054646E+00   4.46658287E+01   3.09685874E+00   7.33738852E+00
              834                4   4.30350914E+01   4.60275536E+01   4.60275536E+01   2.88882017E+00   3.09685874E+00   4.60275536E+01   4.60275536E+01   3.09685874E+00   2.88882017E+00   4.31387329E+01  -1.73377438E+01   4.30339622E+01   4.10877371E+00   4.48076019E+01   3.09685874E+00   7.15114689E+00
              835                1   1.56653461E+01   6.67878008E+00   6.67878008E+00   2.67615318E-01  -1.11752081E+01   6.67878008E+00  -1.11752081E+01   2.67615318E-01  -1.11752081E+01   1.78539886E+01   1.40960419E+00  -1.21384020E+01   4.18456650E+00   2.76182890E+00  -1.11752081E+01   3.12565398E+00
              835                2   1.59635439E+01   7.13648129E+00   7.13648129E+00  -1.90085411E-01  -1.11752081E+01   7.13648129E+00  -1.11752081E+01  -1.90085411E-01  -1.11752081E+01   1.83116894E+01   1.40960407E+00  -1.11172199E+01   4.27087688E+00   2.67551875E+00  -1.11752081E+01   3.57538152E+00
              835                3   1.56535187E+01   6.65946293E+00   6.65946293E+00   2.86932975E-01  -1.11752081E+01   6.65946293E+00  -1.11752081E+01   2.86932975E-01  -1.11752081E+01   1.78346710E+01   1.40960407E+00  -1.21751184E+01   4.52549553E+00   2.42090011E+00  -1.11752081E+01   3.00748301E+00
              835                4   1.59245882E+01   7.07952166E+00   7.07952166E+00  -1.33125558E-01  -1.11752081E+01   7.07952166E+00  -1.11752081E+01  -1.33125558E-01  -1.11752081E+01   1.82547302E+01   1.40960407E+00  -1.12625427E+01   4.61053562E+00   2.33586001E+00  -1.11752081E+01   3.42228460E+00
              836                1   1.95940521E+02   2.21774734E+02   2.21774734E+02   1.03825626E+01   4.62381439E+01   2.21774734E+02   2.21774734E+02   4.62381439E+01   1.03825626E+01   2.11392181E+02  -9.27984848E+01   1.88346222E+02   2.59038048E+01   2.06253494E+02   4.62381439E+01   5.51376534E+01
              836                2   1.94945236E+02   2.21550430E+02   2.21550430E+02   1.30900745E+01   4.37549515E+01   2.21550430E+02   2.21550430E+02   4.37549515E+01   1.30900745E+01   2.08460358E+02  -9.27984848E+01   1.89404877E+02   2.71131878E+01   2.07527313E+02   4.37549515E+01   5.22170067E+01
              836                3   1.96656464E+02   2.22008514E+02   2.22008514E+02   8.96249199E+00   4.74244423E+01   2.22008514E+02   2.22008514E+02   4.74244423E+01   8.96249199E+00   2.13046021E+02  -9.27984848E+01   1.87912628E+02   2.12565842E+01   2.09714417E+02   4.74244423E+01   4.96796150E+01
              836                4   1.95678986E+02   2.21806519E+02   2.21806519E+02   1.15278540E+01   4.50610847E+01   2.21806519E+02   2.21806519E+02   4.50610847E+01   1.15278540E+01   2.10278656E+02  -9.27984848E+01   1.89051865E+02   2.24251423E+01   2.10909225E+02   4.50610847E+01   4.66124001E+01
              837                1   1.17295952E+02   1.35419327E+02   1.35419327E+02   1.73956184E+01   1.88649178E+01   1.35419327E+02   1.35419327E+02   1.88649178E+01   1.73956184E+01   1.18023705E+02  -5.72266197E+01   1.17275238E+02   1.84204025E+01   1.34394531E+02   1.88649178E+01   1.09498396E+01
              837                2   1.17418129E+02   1.35500244E+02   1.35500244E+02   1.73146744E+01   1.88649178E+01   1.35500244E+02   1.35500244E+02   1.88649178E+01   1.73146744E+01   1.18185577E+02  -5.72266121E+01   1.17395103E+02   1.83653431E+01   1.34449585E+02   1.88649178E+01   1.10936766E+01
              837                3   1.17095070E+02   1.35286179E+02   1.35286179E+02   1.75287457E+01   1.88649178E+01   1.35286179E+02   1.35286179E+02   1.88649178E+01   1.75287457E+01   1.17757439E+02  -5.72266121E+01   1.17077927E+02   1.85647030E+01   1.34250229E+02   1.88649178E+01   1.09962883E+01
              837                4   1.17217293E+02   1.35367203E+02   1.35367203E+02   1.74477310E+01   1.88649178E+01   1.35367203E+02   1.35367203E+02   1.88649178E+01   1.74477310E+01   1.17919464E+02  -5.72266121E+01   1.17198013E+02   1.85096836E+01   1.34305237E+02   1.88649178E+01   1.11399012E+01
              838                1   7.65387955E+01   7.02128067E+01   7.02128067E+01  -5.68529987E+00  -6.95099068E+00   7.02128067E+01   7.02128067E+01  -5.68529987E+00  -6.95099068E+00   7.71637955E+01  -1.91921711E+01   7.65152435E+01  -2.02634454E+00   6.65538483E+01  -6.95099068E+00   1.62579155E+01
              838                2   7.60619354E+01   6.98918533E+01   6.98918533E+01  -5.36435604E+00  -6.95099068E+00   6.98918533E+01   6.98918533E+01  -5.36435604E+00  -6.95099068E+00   7.68428421E+01  -1.91921692E+01   7.60246887E+01  -1.96754169E+00   6.64950409E+01  -6.95099068E+00   1.56234703E+01
              838                3   7.73164139E+01   7.07346573E+01   7.07346573E+01  -6.20715570E+00  -6.95099068E+00   7.07346573E+01   7.07346573E+01  -6.20715570E+00  -6.95099068E+00   7.76856537E+01  -1.91921711E+01   7.73083649E+01  -2.64529443E+00   6.71727982E+01  -6.95099068E+00   1.61669178E+01
              838                4   7.68437576E+01   7.04176788E+01   7.04176788E+01  -5.89017630E+00  -6.95099068E+00   7.04176788E+01   7.04176788E+01  -5.89017630E+00  -6.95099068E+00   7.73686676E+01  -1.91921711E+01   7.68272781E+01  -2.58738041E+00   6.71148834E+01  -6.95099068E+00   1.55280676E+01
              839                1   4.79386215E+01   4.27366638E+01   4.27366638E+01  -1.82791734E+00  -7.98169613E+00   4.27366638E+01   4.27366638E+01  -1.82791734E+00  -7.98169613E+00   5.07183571E+01  -1.09756823E+01   4.70376930E+01   9.64784908E+00   3.12608948E+01  -7.98169613E+00   1.94863930E+01
              839                2   4.88081055E+01   4.33572197E+01   4.33572197E+01  -2.44847441E+00  -7.98169613E+00   4.33572197E+01   4.33572197E+01  -2.44847441E+00  -7.98169613E+00   5.13389168E+01  -1.09756823E+01   4.80948830E+01   8.77414131E+00   3.21346054E+01  -7.98169613E+00   1.97005730E+01
              839                3   4.89050751E+01   4.34260674E+01   4.34260674E+01  -2.51732278E+00  -7.98169613E+00   4.34260674E+01   4.34260674E+01  -2.51732278E+00  -7.98169613E+00   5.14077644E+01  -1.09756823E+01   4.82110825E+01   9.79336548E+00   3.11153793E+01  -7.98169613E+00   2.03480148E+01
              839                4   4.97386398E+01   4.40150909E+01   4.40150909E+01  -3.10634565E+00  -7.98169613E+00   4.40150909E+01   4.40150909E+01  -3.10634565E+00  -7.98169613E+00   5.19967880E+01  -1.09756823E+01   4.91967621E+01   8.92847633E+00   3.19802685E+01  -7.98169613E+00   2.05489941E+01
              840                1   2.58054409E+01   4.01553307E+01   4.01553307E+01   1.43699102E+01   1.43299179E+01   4.01553307E+01   4.01553307E+01   1.43699102E+01   1.43299179E+01   2.58254147E+01  -2.29517212E+01   2.58053684E+01   1.44788446E+01   4.00463982E+01   1.43299179E+01   1.67243445E+00
              840                2   2.62403812E+01   4.04447136E+01   4.04447136E+01   1.40805273E+01   1.43299179E+01   4.04447136E+01   4.04447136E+01   1.43299179E+01   1.40805273E+01   2.63641872E+01  -2.29517212E+01   2.62377110E+01   1.41901817E+01   4.03350601E+01   1.43299179E+01   1.69673991E+00
              840                3   2.58259773E+01   4.01690331E+01   4.01690331E+01   1.43562126E+01   1.43299179E+01   4.01690331E+01   4.01690331E+01   1.43562126E+01   1.43299179E+01   2.58391151E+01  -2.29517212E+01   2.58259449E+01   1.45057163E+01   4.00195274E+01   1.43299179E+01   1.95877111E+00
              840                4   2.62629223E+01   4.04596710E+01   4.04596710E+01   1.40655727E+01   1.43299179E+01   4.04596710E+01   4.04596710E+01   1.43299179E+01   1.40655727E+01   2.63940964E+01  -2.29517212E+01   2.62599239E+01   1.42153854E+01   4.03098564E+01   1.43299179E+01   1.98285830E+00
              841                1   4.18931923E+01   4.26142845E+01   4.26142845E+01   9.70025122E-01   4.76514101E-01   4.26142845E+01   4.26142845E+01   9.70025122E-01   4.76514101E-01   4.21377678E+01  -1.46869402E+01   4.18866539E+01   2.78439879E+00   4.07999115E+01   4.76514101E-01   8.50095463E+00
              841                2   4.20506554E+01   4.27198143E+01   4.27198143E+01   8.64492476E-01   4.76514101E-01   4.27198143E+01   4.27198143E+01   8.64492476E-01   4.76514101E-01   4.22433014E+01  -1.46869402E+01   4.20466309E+01   2.62995625E+00   4.09543533E+01   4.76514101E-01   8.41291618E+00
              841                3   4.21291351E+01   4.27723656E+01   4.27723656E+01   8.11947882E-01   4.76514101E-01   4.27723656E+01   4.27723656E+01   8.11947882E-01   4.76514101E-01   4.22958488E+01  -1.46869421E+01   4.21261330E+01   2.69120026E+00   4.08931122E+01   4.76514101E-01   8.67886066E+00
              841                4   4.22891769E+01   4.28794174E+01   4.28794174E+01   7.04895318E-01   4.76514101E-01   4.28794174E+01   4.28794174E+01   7.04895318E-01   4.76514101E-01   4.24029045E+01  -1.46869421E+01   4.22877884E+01   2.53369761E+00   4.10506134E+01   4.76514101E-01   8.58978462E+00
              842                1   3.77504349E+01   4.56085281E+01   4.56085281E+01   7.92037296E+00   7.79611540E+00   4.56085281E+01   4.56085281E+01   7.92037296E+00   7.79611540E+00   3.78124123E+01  -2.04416714E+01   3.77499771E+01   7.94358587E+00   4.55853157E+01   7.79611540E+00   9.35018241E-01
              842                2   3.77612152E+01   4.56157227E+01   4.56157227E+01   7.91317606E+00   7.79611540E+00   4.56157227E+01   4.56157227E+01   7.91317606E+00   7.79611540E+00   3.78196106E+01  -2.04416714E+01   3.77608070E+01   7.92548895E+00   4.56034126E+01   7.79611540E+00   6.81192815E-01
              842                3   3.81344528E+01   4.58645287E+01   4.58645287E+01   7.66437674E+00   7.79611540E+00   4.58645287E+01   4.58645287E+01   7.79611540E+00   7.66437674E+00   3.82001495E+01  -2.04416733E+01   3.81339378E+01   7.68821239E+00   4.58406906E+01   7.79611540E+00   9.53939319E-01
              842                4   3.81449585E+01   4.58715172E+01   4.58715172E+01   7.65738249E+00   7.79611540E+00   4.58715172E+01   4.58715172E+01   7.79611540E+00   7.65738249E+00   3.82141342E+01  -2.04416714E+01   3.81443901E+01   7.67021656E+00   4.58586845E+01   7.79611540E+00   7.00173855E-01
              843                1   1.37016647E+02   1.61099091E+02   1.61099091E+02   2.33461170E+01   2.48308353E+01   1.61099091E+02   1.61099091E+02   2.48308353E+01   2.33461170E+01   1.37752975E+02  -6.97586823E+01   1.36998535E+02   2.34531345E+01   1.60992065E+02   2.48308353E+01   3.83815646E+00
              843                2   1.36166168E+02   1.60534576E+02   1.60534576E+02   2.39106312E+01   2.48308353E+01   1.60534576E+02   1.60534576E+02   2.48308353E+01   2.39106312E+01   1.36623947E+02  -6.97586823E+01   1.36159164E+02   2.40543480E+01   1.60390854E+02   2.48308353E+01   4.42888594E+00
              843                3   1.36095917E+02   1.60487900E+02   1.60487900E+02   2.39573135E+01   2.48308353E+01   1.60487900E+02   1.60487900E+02   2.48308353E+01   2.39573135E+01   1.36530579E+02  -6.97586823E+01   1.36089600E+02   2.40336571E+01   1.60411545E+02   2.48308353E+01   3.22768974E+00
              843                4   1.35240463E+02   1.59918823E+02   1.59918823E+02   2.45263729E+01   2.48308353E+01   1.59918823E+02   1.59918823E+02   2.48308353E+01   2.45263729E+01   1.35392441E+02  -6.97586746E+01   1.35239700E+02   2.46341152E+01   1.59811081E+02   2.48308353E+01   3.81773019E+00
              844                1   3.29181633E+01   3.27507515E+01   3.27507515E+01   1.01665474E-01  -4.30048525E-01   3.27507515E+01   3.27507515E+01   1.01665474E-01  -4.30048525E-01   3.31808014E+01  -1.08074560E+01   3.29085007E+01   2.96916217E-01   3.25555000E+01  -4.30048525E-01   2.51727223E+00
              844                2   3.25887375E+01   3.25289230E+01   3.25289230E+01   3.23492944E-01  -4.30048525E-01   3.25289230E+01   3.25289230E+01   3.23492944E-01  -4.30048525E-01   3.29589729E+01  -1.08074560E+01   3.25691261E+01   5.04424930E-01   3.23479919E+01  -4.30048525E-01   2.40712690E+00
              844                3   3.30378990E+01   3.28311806E+01   3.28311806E+01   2.12361701E-02  -4.30048525E-01   3.28311806E+01   3.28311806E+01   2.12361701E-02  -4.30048525E-01   3.32612305E+01  -1.08074560E+01   3.30309639E+01   1.84589341E-01   3.26678276E+01  -4.30048525E-01   2.30931282E+00
              844                4   3.27093239E+01   3.26102180E+01   3.26102180E+01   2.42198884E-01  -4.30048525E-01   3.26102180E+01   3.26102180E+01   2.42198884E-01  -4.30048525E-01   3.30402679E+01  -1.08074560E+01   3.26937790E+01   3.92334133E-01   3.24600830E+01  -4.30048525E-01   2.19932604E+00
              845                1   2.14318176E+02   2.23304642E+02   2.23304642E+02  -6.27607536E+00   2.85030193E+01   2.23304642E+02   2.23304642E+02   2.85030193E+01  -6.27607536E+00   2.29580719E+02  -8.18438644E+01   2.07826675E+02  -6.22844172E+00   2.23257004E+02   2.85030193E+01  -3.30666351E+00
              845                2   2.13881851E+02   2.23135330E+02   2.23135330E+02  -5.41574478E+00   2.78119850E+01   2.23135330E+02   2.23135330E+02   2.78119850E+01  -5.41574478E+00   2.28551071E+02  -8.18438568E+01   2.07955780E+02  -5.41483641E+00   2.23134430E+02   2.78119850E+01   4.54562545E-01
              845                3   2.13538376E+02   2.23005234E+02   2.23005234E+02  -4.69440413E+00   2.72207432E+01   2.23005234E+02   2.23005234E+02   2.72207432E+01  -4.69440413E+00   2.27699646E+02  -8.18438644E+01   2.08070938E+02  -4.57761288E+00   2.22888443E+02   2.72207432E+01  -5.15569544E+00
              845                4   2.13092041E+02   2.22824127E+02   2.22824127E+02  -3.79546547E+00   2.65029297E+01   2.22824127E+02   2.22824127E+02   2.65029297E+01  -3.79546547E+00   2.26619583E+02  -8.18438644E+01   2.08163193E+02  -3.78584456E+00   2.22814499E+02   2.65029297E+01  -1.47667134E+00
              846                1   2.37337627E+01   1.54490080E+01   1.54490080E+01  -1.76875159E-01  -1.18617620E+01   1.54490080E+01   1.54490080E+01  -1.76875159E-01  -1.18617620E+01   2.73107700E+01  -1.13679028E+00   1.48869877E+01   3.35626912E+00   1.19158640E+01  -1.18617620E+01   6.53646612E+00
              846                2   2.40166149E+01   1.57320023E+01   1.57320023E+01  -4.59869117E-01  -1.18617620E+01   1.57320023E+01   1.57320023E+01  -4.59869117E-01  -1.18617620E+01   2.75937634E+01  -1.13679028E+00   1.59913015E+01   2.94110227E+00   1.23310308E+01  -1.18617620E+01   6.59556532E+00
              846                3   2.40365105E+01   1.57516594E+01   1.57516594E+01  -4.79526520E-01  -1.18617620E+01   1.57516594E+01   1.57516594E+01  -4.79526520E-01  -1.18617620E+01   2.76134224E+01  -1.13679028E+00   1.60638657E+01   3.46531630E+00   1.18068161E+01  -1.18617620E+01   6.96187449E+00
              846                4   2.43163013E+01   1.60248928E+01   1.60248928E+01  -7.52760053E-01  -1.18617620E+01   1.60248928E+01   1.60248928E+01  -7.52760053E-01  -1.18617620E+01   2.78866558E+01  -1.13679028E+00   1.70271587E+01   3.04889822E+00   1.22232342E+01  -1.18617620E+01   7.02355337E+00
              847                1   5.13933411E+01   4.48679657E+01   4.48679657E+01  -4.37886953E+00  -8.43187237E+00   4.48679657E+01   4.48679657E+01  -4.37886953E+00  -8.43187237E+00   5.32998390E+01  -1.06857414E+01   5.10319214E+01  -5.21872818E-01   4.10109711E+01  -8.43187237E+00   1.32313433E+01
              847                2   5.07278252E+01   4.44035721E+01   4.44035721E+01  -3.91447330E+00  -8.43187237E+00   4.44035721E+01   4.44035721E+01  -3.91447330E+00  -8.43187237E+00   5.28354416E+01  -1.06857414E+01   5.02723007E+01   2.35625841E-02   4.04655342E+01  -8.43187237E+00   1.32200642E+01
              847                3   5.10061417E+01   4.45981216E+01   4.45981216E+01  -4.10902405E+00  -8.43187237E+00   4.45981216E+01   4.45981216E+01  -4.10902405E+00  -8.43187237E+00   5.30299950E+01  -1.06857414E+01   5.05915451E+01  -5.54633498E-01   4.10437317E+01  -8.43187237E+00   1.26684847E+01
              847                4   5.03325424E+01   4.41263924E+01   4.41263924E+01  -3.63729596E+00  -8.43187237E+00   4.41263924E+01   4.41263924E+01  -3.63729596E+00  -8.43187237E+00   5.25582657E+01  -1.06857414E+01   4.98148842E+01  -9.61384736E-03   4.04987106E+01  -8.43187237E+00   1.26535149E+01
              848                1   1.13250023E+02   1.29454498E+02   1.29454498E+02   1.61379948E+01   1.62710896E+01   1.29454498E+02   1.29454498E+02   1.62710896E+01   1.61379948E+01   1.13316513E+02  -5.39545288E+01   1.13249847E+02   1.62584801E+01   1.29334015E+02   1.62710896E+01   3.69310117E+00
              848                2   1.13451935E+02   1.29588989E+02   1.29588989E+02   1.60035019E+01   1.62710896E+01   1.29588989E+02   1.29588989E+02   1.62710896E+01   1.60035019E+01   1.13585495E+02  -5.39545288E+01   1.13451218E+02   1.61262131E+01   1.29466278E+02   1.62710896E+01   3.73142362E+00
              848                3   1.13203278E+02   1.29423355E+02   1.29423355E+02   1.61691399E+01   1.62710896E+01   1.29423355E+02   1.29423355E+02   1.62710896E+01   1.61691399E+01   1.13254219E+02  -5.39545288E+01   1.13203186E+02   1.62984524E+01   1.29294052E+02   1.62710896E+01   3.82468200E+00
              848                4   1.13404922E+02   1.29557693E+02   1.29557693E+02   1.60348091E+01   1.62710896E+01   1.29557693E+02   1.29557693E+02   1.62710896E+01   1.60348091E+01   1.13522881E+02  -5.39545288E+01   1.13404373E+02   1.61664143E+01   1.29426086E+02   1.62710896E+01   3.86298037E+00
              849                1   1.30355730E+01   1.23455691E+00   1.23455691E+00   6.64440334E-01  -1.20767202E+01   1.23455691E+00  -1.20767202E+01   6.64440334E-01  -1.20767202E+01   1.33112774E+01   3.39257431E+00  -1.30074778E+01   9.49653983E-01   9.49343204E-01  -1.20767202E+01   2.85058230E-01
              849                2   1.30472307E+01   1.37683392E+00   1.37683392E+00   5.22163272E-01  -1.20767202E+01   1.37683392E+00  -1.20767202E+01   5.22163272E-01  -1.20767202E+01   1.34535542E+01   3.39257431E+00  -1.29840250E+01   1.15024376E+00   7.48753428E-01  -1.20767202E+01   3.77249032E-01
              849                3   1.30273952E+01   1.05056548E+00   1.05056548E+00   8.48431766E-01  -1.20767202E+01   1.05056548E+00  -1.20767202E+01   8.48431766E-01  -1.20767202E+01   1.31272860E+01   3.39257431E+00  -1.30238657E+01   1.01738465E+00   8.81612539E-01  -1.20767202E+01   7.48731419E-02
              849                4   1.30378456E+01   1.26732600E+00   1.26732600E+00   6.31671250E-01  -1.20767202E+01   1.26732600E+00  -1.20767202E+01   6.31671250E-01  -1.20767202E+01   1.33440466E+01   3.39257431E+00  -1.30029135E+01   1.21925533E+00   6.79741859E-01  -1.20767202E+01   1.68064103E-01
              850                1   2.04045242E+02   2.04737869E+02   2.04737869E+02  -9.42746878E-01   2.36828828E+00   2.04737869E+02   2.04737869E+02   2.36828828E+00  -9.42746878E-01   2.05680618E+02  -6.87211380E+01   2.03984787E+02  -9.13688600E-01   2.04708801E+02   2.36828828E+00   2.44487906E+00
              850                2   2.05307251E+02   2.05571732E+02   2.05571732E+02  -1.77587759E+00   2.36754775E+00   2.05571732E+02   2.05571732E+02   2.36754775E+00  -1.77587759E+00   2.07347610E+02  -6.87211380E+01   2.05213150E+02  -1.75125277E+00   2.05547104E+02   2.36754775E+00   2.25956082E+00
              850                3   2.04334366E+02   2.04929031E+02   2.04929031E+02  -1.13370299E+00   2.36805964E+00   2.04929031E+02   2.04929031E+02   2.36805964E+00  -1.13370299E+00   2.06062744E+02  -6.87211304E+01   2.04266830E+02  -1.08047533E+00   2.04875809E+02   2.36805964E+00   3.31141877E+00
              850                4   2.05464294E+02   2.05674530E+02   2.05674530E+02  -1.91951668E+00   2.40838122E+00   2.05674530E+02   2.05674530E+02   2.40838122E+00  -1.91951668E+00   2.07594055E+02  -6.87211380E+01   2.05361694E+02  -1.87236130E+00   2.05627380E+02   2.40838122E+00   3.12844706E+00
              851                1   8.82345276E+01   8.62750168E+01   8.62750168E+01  -1.85436368E+00  -2.06428409E+00   8.62750168E+01   8.62750168E+01  -1.85436368E+00  -2.06428409E+00   8.83393021E+01  -2.74521236E+01   8.82339706E+01   4.96694803E+00   7.94537048E+01  -2.06428409E+00   2.35505371E+01
              851                2   8.74416199E+01   8.57449722E+01   8.57449722E+01  -1.32431531E+00  -2.06428409E+00   8.57449722E+01   8.57449722E+01  -1.32431531E+00  -2.06428409E+00   8.78092575E+01  -2.74521236E+01   8.74345703E+01   4.96016645E+00   7.94604874E+01  -2.06428409E+00   2.25319920E+01
              851                3   8.94410248E+01   8.70784912E+01   8.70784912E+01  -2.65783572E+00  -2.06428409E+00   8.70784912E+01   8.70784912E+01  -2.06428409E+00  -2.65783572E+00   8.97363281E+01  -2.74521236E+01   8.94365997E+01   3.99204469E+00   8.04286118E+01  -2.06428409E+00   2.35056324E+01
              851                4   8.86556091E+01   8.65558472E+01   8.65558472E+01  -2.13519549E+00  -2.06428409E+00   8.65558472E+01   8.65558472E+01  -2.06428409E+00  -2.13519549E+00   8.86910477E+01  -2.74521236E+01   8.86555481E+01   3.98592401E+00   8.04347305E+01  -2.06428409E+00   2.24815559E+01
              852                1   6.79360733E+01   6.34315758E+01   6.34315758E+01  -2.96236467E+00  -5.94816685E+00   6.34315758E+01   6.34315758E+01  -2.96236467E+00  -5.94816685E+00   6.93797455E+01  -1.81736813E+01   6.77882080E+01   6.83025789E+00   5.36389542E+01  -5.94816685E+00   2.35430527E+01
              852                2   6.85539932E+01   6.38523407E+01   6.38523407E+01  -3.38312984E+00  -5.94816685E+00   6.38523407E+01   6.38523407E+01  -3.38312984E+00  -5.94816685E+00   6.98005066E+01  -1.81736813E+01   6.84458923E+01   5.91263056E+00   5.45565796E+01  -5.94816685E+00   2.32076225E+01
              852                3   6.90403976E+01   6.41825256E+01   6.41825256E+01  -3.71331191E+00  -5.94816685E+00   6.41825256E+01   6.41825256E+01  -3.71331191E+00  -5.94816685E+00   7.01306915E+01  -1.81736813E+01   6.89589386E+01   6.74469805E+00   5.37245140E+01  -5.94816685E+00   2.45088825E+01
              852                4   6.96327133E+01   6.45834122E+01   6.45834122E+01  -4.11420393E+00  -5.94816685E+00   6.45834122E+01   6.45834122E+01  -4.11420393E+00  -5.94816685E+00   7.05315857E+01  -1.81736813E+01   6.95783463E+01   5.83021307E+00   5.46389999E+01  -5.94816685E+00   2.41716003E+01
              853                1   1.55648285E+02   1.81616882E+02   1.81616882E+02   2.04195614E+01   3.21854057E+01   1.81616882E+02   1.81616882E+02   3.21854057E+01   2.04195614E+01   1.61197311E+02  -7.80739517E+01   1.54643005E+02   2.77472382E+01   1.74289200E+02   3.21854057E+01   3.35783691E+01
              853                2   1.58868530E+02   1.83684723E+02   1.83684723E+02   1.83517265E+01   3.21854057E+01   1.83684723E+02   1.83684723E+02   3.21854057E+01   1.83517265E+01   1.65332993E+02  -7.80739517E+01   1.57504898E+02   2.59669628E+01   1.76069489E+02   3.21854057E+01   3.46562881E+01
              853                3   1.54759247E+02   1.81044189E+02   1.81044189E+02   2.09922428E+01   3.21854057E+01   1.81044189E+02   1.81044189E+02   3.21854057E+01   2.09922428E+01   1.60051956E+02  -7.80739517E+01   1.53844589E+02   2.91909218E+01   1.72845520E+02   3.21854057E+01   3.52844963E+01
              853                4   1.57980774E+02   1.83115662E+02   1.83115662E+02   1.89207897E+01   3.21854057E+01   1.83115662E+02   1.83115662E+02   3.21854057E+01   1.89207897E+01   1.64194870E+02  -7.80739517E+01   1.56720551E+02   2.74248352E+01   1.74611618E+02   3.21854057E+01   3.63868370E+01
              854                1   1.21573563E+01   2.68015862E-01  -7.23841965E-01  -7.23841965E-01  -1.23548861E+01   2.68015862E-01  -1.23548861E+01  -7.23841965E-01  -1.23548861E+01   1.26229019E+01   4.27023745E+00  -1.20658226E+01   1.67832196E-01  -6.23658299E-01  -1.23548861E+01  -2.98883229E-01
              854                2   1.21394424E+01   8.96801353E-02  -5.45506239E-01  -5.45506239E-01  -1.23548861E+01   8.96801353E-02  -1.23548861E+01  -5.45506239E-01  -1.23548861E+01   1.24445658E+01   4.27023745E+00  -1.21019697E+01   8.54012221E-02  -5.41227341E-01  -1.23548861E+01   5.19575886E-02
              854                3   1.21986961E+01   5.34694970E-01  -9.90521073E-01  -9.90521073E-01  -1.23548861E+01   5.34694970E-01  -1.23548861E+01  -9.90521073E-01  -1.23548861E+01   1.28895807E+01   4.27023745E+00  -1.19813614E+01   5.10796070E-01  -9.66622174E-01  -1.23548861E+01  -1.89419925E-01
              854                4   1.21830645E+01   4.46273059E-01  -9.02099133E-01  -9.02099133E-01  -1.23548861E+01   4.46273059E-01  -1.23548861E+01  -9.02099133E-01  -1.23548861E+01   1.28011589E+01   4.27023745E+00  -1.20134726E+01   4.27517533E-01  -8.83343637E-01  -1.23548861E+01   1.57916740E-01
              855                1   6.86787567E+01   8.24227219E+01   8.24227219E+01   6.08438730E+00   2.56493816E+01   8.24227219E+01   8.24227219E+01   2.56493816E+01   6.08438730E+00   7.63383331E+01  -3.80521660E+01   6.19279556E+01   9.47703838E+00   7.90300751E+01   2.56493816E+01   1.57314672E+01
              855                2   6.76526337E+01   8.18069077E+01   8.18069077E+01   6.70020199E+00   2.56493816E+01   8.18069077E+01   8.18069077E+01   2.56493816E+01   6.70020199E+00   7.51067047E+01  -3.80521660E+01   6.12417526E+01   1.52534370E+01   7.32536774E+01   2.56493816E+01   2.38589058E+01
              855                3   5.29974403E+01   7.29044037E+01   7.29044037E+01   1.56027079E+01   2.56493816E+01   7.29044037E+01   7.29044037E+01   2.56493816E+01   1.56027079E+01   5.73016968E+01  -3.80521660E+01   5.07882423E+01   1.74170494E+01   7.10900650E+01   2.56493816E+01   1.00335903E+01
              855                4   5.15631676E+01   7.20183105E+01   7.20183105E+01   1.64888000E+01   2.56493816E+01   7.20183105E+01   7.20183105E+01   2.56493816E+01   1.64888000E+01   5.55295105E+01  -3.80521660E+01   4.96827049E+01   2.32603779E+01   6.52467346E+01   2.56493816E+01   1.81705284E+01
              856                1   5.67768936E+01   5.07126656E+01   5.07126656E+01  -4.34296274E+00  -7.64166451E+00   5.07126656E+01   5.07126656E+01  -4.34296274E+00  -7.64166451E+00   5.83543282E+01  -1.29093447E+01   5.65606918E+01  -1.07143068E+00   4.74411316E+01  -7.64166451E+00   1.30158882E+01
              856                2   5.74208183E+01   5.11543388E+01   5.11543388E+01  -4.78463602E+00  -7.64166451E+00   5.11543388E+01   5.11543388E+01  -4.78463602E+00  -7.64166451E+00   5.87960014E+01  -1.29093447E+01   5.72605782E+01  -1.60575306E+00   4.79754562E+01  -7.64166451E+00   1.29506006E+01
              856                3   5.72082634E+01   5.10087700E+01   5.10087700E+01  -4.63906765E+00  -7.64166451E+00   5.10087700E+01   5.10087700E+01  -4.63906765E+00  -7.64166451E+00   5.86504326E+01  -1.29093447E+01   5.70305748E+01  -1.09852695E+00   4.74682274E+01  -7.64166451E+00   1.35826378E+01
              856                4   5.78531570E+01   5.14497528E+01   5.14497528E+01  -5.08004999E+00  -7.64166451E+00   5.14497528E+01   5.14497528E+01  -5.08004999E+00  -7.64166451E+00   5.90914154E+01  -1.29093447E+01   5.77253532E+01  -1.63712358E+00   4.80068245E+01  -7.64166451E+00   1.35194016E+01
              857                1   6.00842590E+01   5.36503716E+01   5.36503716E+01  -5.31223869E+00  -7.49599123E+00   5.36503716E+01   5.36503716E+01  -5.31223869E+00  -7.49599123E+00   6.11463661E+01  -1.36140480E+01   5.99948730E+01  -1.98383856E+00   5.03219719E+01  -7.49599123E+00   1.36078281E+01
              857                2   5.94207268E+01   5.31986313E+01   5.31986313E+01  -4.86049795E+00  -7.49599123E+00   5.31986313E+01   5.31986313E+01  -4.86049795E+00  -7.49599123E+00   6.06946220E+01  -1.36140480E+01   5.92890129E+01  -1.46220529E+00   4.98003387E+01  -7.49599123E+00   1.36291447E+01
              857                3   5.96705780E+01   5.33689651E+01   5.33689651E+01  -5.03083324E+00  -7.49599123E+00   5.33689651E+01   5.33689651E+01  -5.03083324E+00  -7.49599123E+00   6.08649559E+01  -1.36140471E+01   5.95558472E+01  -1.94420969E+00   5.02823410E+01  -7.49599123E+00   1.30664043E+01
              857                4   5.90177269E+01   5.29232903E+01   5.29232903E+01  -4.58515739E+00  -7.49599123E+00   5.29232903E+01   5.29232903E+01  -4.58515739E+00  -7.49599123E+00   6.04192848E+01  -1.36140480E+01   5.88558960E+01  -1.42461848E+00   4.97627525E+01  -7.49599123E+00   1.31060562E+01
              858                1   2.17589859E+02   2.28772705E+02   2.28772705E+02  -2.86975503E+00   2.86800632E+01   2.28772705E+02   2.28772705E+02   2.86800632E+01  -2.86975503E+00   2.31642471E+02  -8.48610077E+01   2.12352280E+02  -2.85977173E+00   2.28762726E+02   2.86800632E+01  -1.52067173E+00
              858                2   2.17756577E+02   2.28663437E+02   2.28663437E+02  -4.26288271E+00   3.01824532E+01   2.28663437E+02   2.28663437E+02   3.01824532E+01  -4.26288271E+00   2.32926331E+02  -8.48610001E+01   2.11496765E+02  -4.08019447E+00   2.28480759E+02   3.01824532E+01  -6.52059603E+00
              858                3   2.17798386E+02   2.28601028E+02   2.28601028E+02  -4.78961229E+00   3.07716007E+01   2.28601028E+02   2.28601028E+02   3.07716007E+01  -4.78961229E+00   2.33390640E+02  -8.48610077E+01   2.11118179E+02  -4.77517939E+00   2.28586594E+02   3.07716007E+01   1.83543754E+00
              858                4   2.17953842E+02   2.28477173E+02   2.28477173E+02  -6.06312799E+00   3.21689682E+01   2.28477173E+02   2.28477173E+02   3.21689682E+01  -6.06312799E+00   2.34540298E+02  -8.48610001E+01   2.10210190E+02  -6.02122259E+00   2.28435272E+02   3.21689682E+01  -3.13468409E+00
              859                1   2.41148281E+01   1.55999527E+01   1.55999527E+01  -9.66928780E-01  -1.20659227E+01   1.55999527E+01   1.55999527E+01  -9.66928780E-01  -1.20659227E+01   2.76658764E+01  -8.55700493E-01   1.67362175E+01   1.46460462E+00   1.31684198E+01  -1.20659227E+01   5.86264181E+00
              859                2   2.37280350E+01   1.52188501E+01   1.52188501E+01  -5.85825086E-01  -1.20659227E+01   1.52188501E+01   1.52188501E+01  -5.85825086E-01  -1.20659227E+01   2.72847729E+01  -8.55700791E-01   1.53429070E+01   1.94418705E+00   1.26888380E+01  -1.20659227E+01   5.79526186E+00
              859                3   2.38578701E+01   1.53480988E+01   1.53480988E+01  -7.15073526E-01  -1.20659227E+01   1.53480988E+01   1.53480988E+01  -7.15073526E-01  -1.20659227E+01   2.74140205E+01  -8.55700791E-01   1.58356161E+01   1.34226096E+00   1.32907639E+01  -1.20659227E+01   5.36793232E+00
              859                4   2.34557438E+01   1.49430704E+01   1.49430704E+01  -3.10045779E-01  -1.20659227E+01   1.49430704E+01   1.49430704E+01  -3.10045779E-01  -1.20659227E+01   2.70089931E+01  -8.55700493E-01   1.42023954E+01   1.81895185E+00   1.28140726E+01  -1.20659227E+01   5.28594494E+00
              860                1   4.36015396E+01   3.78559990E+01   3.78559990E+01  -1.96811521E+00  -8.73234367E+00   3.78559990E+01   3.78559990E+01  -1.96811521E+00  -8.73234367E+00   4.65883408E+01  -9.05184650E+00   4.23969231E+01   9.05173969E+00   2.68361416E+01  -8.73234367E+00   1.78162498E+01
              860                2   4.38695030E+01   3.80512314E+01   3.80512314E+01  -2.16334844E+00  -8.73234367E+00   3.80512314E+01   3.80512314E+01  -2.16334844E+00  -8.73234367E+00   4.67835732E+01  -9.05184650E+00   4.27419624E+01   8.52087879E+00   2.73670025E+01  -8.73234367E+00   1.77625732E+01
              860                3   4.42496490E+01   3.83269997E+01   3.83269997E+01  -2.43911862E+00  -8.73234367E+00   3.83269997E+01   3.83269997E+01  -2.43911862E+00  -8.73234367E+00   4.70593452E+01  -9.05184650E+00   4.32256126E+01   9.05879116E+00   2.68290901E+01  -8.73234367E+00   1.83445702E+01
              860                4   4.45084534E+01   3.85139694E+01   3.85139694E+01  -2.62609005E+00  -8.73234367E+00   3.85139694E+01   3.85139694E+01  -2.62609005E+00  -8.73234367E+00   4.72463112E+01  -9.05184460E+00   4.35511208E+01   8.52829170E+00   2.73595886E+01  -8.73234367E+00   1.82885666E+01
              861                1   1.34594131E+02   1.58502518E+02   1.58502518E+02   2.34379787E+01   2.43837795E+01   1.58502518E+02   1.58502518E+02   2.43837795E+01   2.34379787E+01   1.35064529E+02  -6.87747574E+01   1.34586655E+02   2.34907017E+01   1.58449783E+02   2.43837795E+01   2.66812444E+00
              861                2   1.33758820E+02   1.57947006E+02   1.57947006E+02   2.39934654E+01   2.43837795E+01   1.57947006E+02   1.57947006E+02   2.43837795E+01   2.39934654E+01   1.33953537E+02  -6.87747498E+01   1.33757538E+02   2.40652924E+01   1.57875183E+02   2.43837795E+01   3.10099912E+00
              861                3   1.33924088E+02   1.58057007E+02   1.58057007E+02   2.38834686E+01   2.43837795E+01   1.58057007E+02   1.58057007E+02   2.43837795E+01   2.38834686E+01   1.34173538E+02  -6.87747498E+01   1.33921997E+02   2.39160061E+01   1.58024475E+02   2.43837795E+01   2.08899164E+00
              861                4   1.33085129E+02   1.57498169E+02   1.57498169E+02   2.44423103E+01   2.43837795E+01   1.57498169E+02   1.57498169E+02   2.44423103E+01   2.43837795E+01   1.33114380E+02  -6.87747498E+01   1.33085098E+02   2.44901104E+01   1.57450363E+02   2.43837795E+01   2.52150416E+00
              862                1   6.50706787E+01   5.80397530E+01   5.80397530E+01  -5.88246107E+00  -8.12159157E+00   5.80397530E+01   5.80397530E+01  -5.88246107E+00  -8.12159157E+00   6.61613464E+01  -1.46785660E+01   6.49839172E+01  -1.31084430E+00   5.34681358E+01  -8.12159157E+00   1.64720421E+01
              862                2   6.42905655E+01   5.75090981E+01   5.75090981E+01  -5.35180712E+00  -8.12159157E+00   5.75090981E+01   5.75090981E+01  -5.35180712E+00  -8.12159157E+00   6.56306915E+01  -1.46785660E+01   6.41561127E+01  -6.18069291E-01   5.27753601E+01  -8.12159157E+00   1.65879116E+01
              862                3   6.45994034E+01   5.77194748E+01   5.77194748E+01  -5.56218386E+00  -8.12159157E+00   5.77194748E+01   5.77194748E+01  -5.56218386E+00  -8.12159157E+00   6.58410645E+01  -1.46785660E+01   6.44851761E+01  -1.33727622E+00   5.34945679E+01  -8.12159157E+00   1.57958632E+01
              862                4   6.37906723E+01   5.71677322E+01   5.71677322E+01  -5.01043987E+00  -8.12159157E+00   5.71677322E+01   5.71677322E+01  -5.01043987E+00  -8.12159157E+00   6.52893219E+01  -1.46785660E+01   6.36196442E+01  -6.34329438E-01   5.27916222E+01  -8.12159157E+00   1.59043436E+01
              863                1   7.15051651E+01   6.52631073E+01   6.52631073E+01  -5.10947466E+00  -7.32323265E+00   6.52631073E+01   6.52631073E+01  -5.10947466E+00  -7.32323265E+00   7.25863419E+01  -1.76101322E+01   7.14280014E+01   6.33288324E-01   5.95203438E+01  -7.32323265E+00   1.92653522E+01
              863                2   7.09517899E+01   6.48877029E+01   6.48877029E+01  -4.73406839E+00  -7.32323265E+00   6.48877029E+01   6.48877029E+01  -4.73406839E+00  -7.32323265E+00   7.22109375E+01  -1.76101322E+01   7.08453827E+01   5.89962482E-01   5.95636711E+01  -7.32323265E+00   1.85019760E+01
              863                3   7.25780716E+01   6.59878769E+01   6.59878769E+01  -5.83424616E+00  -7.32323265E+00   6.59878769E+01   6.59878769E+01  -5.83424616E+00  -7.32323265E+00   7.33111115E+01  -1.76101322E+01   7.25437012E+01  -1.57904178E-01   6.03115387E+01  -7.32323265E+00   1.93769455E+01
              863                4   7.19855576E+01   6.55881195E+01   6.55881195E+01  -5.43448353E+00  -7.32323265E+00   6.55881195E+01   6.55881195E+01  -5.43448353E+00  -7.32323265E+00   7.29113464E+01  -1.76101322E+01   7.19297791E+01  -1.91701144E-01   6.03453331E+01  -7.32323265E+00   1.85706577E+01
              864                1   1.24484985E+02   1.52068298E+02   1.52068298E+02   2.68543339E+01   2.83253479E+01   1.52068298E+02   1.52068298E+02   2.83253479E+01   2.68543339E+01   1.25213974E+02  -6.90826645E+01   1.24465431E+02   2.73723660E+01   1.51550278E+02   2.83253479E+01   8.03718185E+00
              864                2   1.24499954E+02   1.52078232E+02   1.52078232E+02   2.68444214E+01   2.83253479E+01   1.52078232E+02   1.52078232E+02   2.83253479E+01   2.68444214E+01   1.25233810E+02  -6.90826645E+01   1.24480133E+02   2.72936363E+01   1.51629013E+02   2.83253479E+01   7.48703384E+00
              864                3   1.25316582E+02   1.52618896E+02   1.52618896E+02   2.63037415E+01   2.83253479E+01   1.52618896E+02   1.52618896E+02   2.83253479E+01   2.63037415E+01   1.26315155E+02  -6.90826645E+01   1.25279884E+02   2.68303070E+01   1.52092331E+02   2.83253479E+01   8.13854122E+00
              864                4   1.25331314E+02   1.52628632E+02   1.52628632E+02   2.62940025E+01   2.83253479E+01   1.52628632E+02   1.52628632E+02   2.83253479E+01   2.62940025E+01   1.26334633E+02  -6.90826645E+01   1.25294273E+02   2.67515163E+01   1.52171127E+02   2.83253479E+01   7.58883238E+00
              865                1   9.01988831E+01   9.75773010E+01   9.75773010E+01   2.87951231E+00   1.26772985E+01   9.75773010E+01   9.75773010E+01   1.26772985E+01   2.87951231E+00   9.46977844E+01  -3.77113686E+01   8.89898605E+01   4.76702309E+01   5.27865791E+01   1.26772985E+01   4.72797356E+01
              865                2   9.18621597E+01   9.86314697E+01   9.86314697E+01   1.82534003E+00   1.26772985E+01   9.86314697E+01   9.86314697E+01   1.26772985E+01   1.82534003E+00   9.68061295E+01  -3.77113686E+01   9.04031906E+01   4.64837341E+01   5.39730759E+01   1.26772985E+01   4.82579956E+01
              865                3   9.19382706E+01   9.86796188E+01   9.86796188E+01   1.77719033E+00   1.26772985E+01   9.86796188E+01   9.86796188E+01   1.26772985E+01   1.77719033E+00   9.69024277E+01  -3.77113686E+01   9.04674225E+01   4.86169090E+01   5.18399010E+01   1.26772985E+01   4.84244080E+01
              865                4   9.36069412E+01   9.97332001E+01   9.97332001E+01   7.23613381E-01   1.26772985E+01   9.97332001E+01   9.97332001E+01   1.26772985E+01   7.23613381E-01   9.90095825E+01  -3.77113686E+01   9.18662338E+01   4.73980141E+01   5.30587959E+01   1.26772985E+01   4.94238129E+01
              866                1   3.74627342E+01   4.50995064E+01   4.50995064E+01   7.52785873E+00   7.74664307E+00   4.50995064E+01   4.50995064E+01   7.74664307E+00   7.52785873E+00   3.75716476E+01  -2.01246700E+01   3.74612961E+01   7.86410189E+00   4.47632637E+01   7.74664307E+00   3.53837991E+00
              866                2   3.70694008E+01   4.48375893E+01   4.48375893E+01   7.78977442E+00   7.74664307E+00   4.48375893E+01   4.48375893E+01   7.78977442E+00   7.74664307E+00   3.70909462E+01  -2.01246700E+01   3.70693436E+01   8.11653233E+00   4.45108337E+01   7.74664307E+00   3.46393657E+00
              866                3   3.74960136E+01   4.51216240E+01   4.51216240E+01   7.50574112E+00   7.74664307E+00   4.51216240E+01   4.51216240E+01   7.74664307E+00   7.50574112E+00   3.76158829E+01  -2.01246700E+01   3.74942703E+01   7.79860115E+00   4.48287621E+01   7.74664307E+00   3.30612826E+00
              866                4   3.71079674E+01   4.48633118E+01   4.48633118E+01   7.76405334E+00   7.74664307E+00   4.48633118E+01   4.48633118E+01   7.76405334E+00   7.74664307E+00   3.71166687E+01  -2.01246700E+01   3.71079559E+01   8.04793549E+00   4.45794296E+01   7.74664307E+00   3.23283696E+00
              867                1   7.72707062E+01   7.14494247E+01   7.14494247E+01  -5.63593292E+00  -6.00531054E+00   7.14494247E+01   7.14494247E+01  -5.63593292E+00  -6.00531054E+00   7.74547348E+01  -1.99360600E+01   7.72687225E+01  -5.06742287E+00   7.08809128E+01  -6.00531054E+00   6.59550858E+00
              867                2   7.75486450E+01   7.16350479E+01   7.16350479E+01  -5.82155991E+00  -6.00531054E+00   7.16350479E+01   7.16350479E+01  -5.82155991E+00  -6.00531054E+00   7.76403656E+01  -1.99360600E+01   7.75481644E+01  -5.28135347E+00   7.10948486E+01  -6.00531054E+00   6.44596529E+00
              867                3   7.75460281E+01   7.16333084E+01   7.16333084E+01  -5.81980562E+00  -6.00531054E+00   7.16333084E+01   7.16333084E+01  -5.81980562E+00  -6.00531054E+00   7.76386185E+01  -1.99360638E+01   7.75455322E+01  -5.21582317E+00   7.10293198E+01  -6.00531054E+00   6.81291056E+00
              867                4   7.78227921E+01   7.18179245E+01   7.18179245E+01  -6.00443125E+00  -6.00531054E+00   7.18179245E+01   7.18179245E+01  -6.00443125E+00  -6.00531054E+00   7.78232346E+01  -1.99360600E+01   7.78227921E+01  -5.42967176E+00   7.12431641E+01  -6.00531054E+00   6.66323757E+00
              868                1   4.16534538E+01   3.62879333E+01   3.62879333E+01  -1.55326390E+00  -8.34342670E+00   3.62879333E+01   3.62879333E+01  -1.55326390E+00  -8.34342670E+00   4.46313591E+01  -8.79708099E+00   4.03800468E+01   1.06317635E+01   2.41029053E+01  -8.34342670E+00   1.76810951E+01
              868                2   4.19269562E+01   3.64882355E+01   3.64882355E+01  -1.75356650E+00  -8.34342670E+00   3.64882355E+01   3.64882355E+01  -1.75356650E+00  -8.34342670E+00   4.48316612E+01  -8.79708099E+00   4.07373276E+01   1.00884151E+01   2.46462536E+01  -8.34342670E+00   1.76812382E+01
              868                3   4.23294296E+01   3.67815666E+01   3.67815666E+01  -2.04689837E+00  -8.34342670E+00   3.67815666E+01   3.67815666E+01  -2.04689837E+00  -8.34342670E+00   4.51249924E+01  -8.79708099E+00   4.12560654E+01   1.06815825E+01   2.40530872E+01  -8.34342670E+00   1.82267151E+01
              868                4   4.25918159E+01   3.69719200E+01   3.69719200E+01  -2.23725319E+00  -8.34342670E+00   3.69719200E+01   3.69719200E+01  -2.23725319E+00  -8.34342670E+00   4.53153496E+01  -8.79708099E+00   4.15899429E+01   1.01480293E+01   2.45866394E+01  -8.34342670E+00   1.82269440E+01
              869                1   2.14553894E+02   2.20760544E+02   2.20760544E+02  -2.39482999E-01   1.32934361E+01   2.20760544E+02   2.20760544E+02   1.32934361E+01  -2.39482999E-01   2.21000031E+02  -7.79381638E+01   2.13590485E+02  -2.29424864E-01   2.20750488E+02   1.32934361E+01   1.49042189E+00
              869                2   2.14505539E+02   2.20748444E+02   2.20748444E+02   9.41913053E-02   1.29718590E+01   2.20748444E+02   2.20748444E+02   1.29718590E+01   9.41913053E-02   2.20654251E+02  -7.79381638E+01   2.13633224E+02   9.41861570E-02   2.20748444E+02   1.29718590E+01  -1.62758343E-02
              869                3   2.14629562E+02   2.20766190E+02   2.20766190E+02  -9.18860972E-01   1.39671545E+01   2.20766190E+02   2.20766190E+02   1.39671545E+01  -9.18860972E-01   2.21685059E+02  -7.79381638E+01   2.13463501E+02  -9.15905118E-01   2.20763245E+02   1.39671545E+01   8.08975875E-01
              869                4   2.14583038E+02   2.20756439E+02   2.20756439E+02  -6.00748122E-01   1.36588125E+01   2.20756439E+02   2.20756439E+02   1.36588125E+01  -6.00748122E-01   2.21357178E+02  -7.79381638E+01   2.13513153E+02  -5.98571658E-01   2.20754257E+02   1.36588125E+01  -6.94079638E-01
              870                1   2.14301651E+02   2.20107880E+02   2.20107880E+02   4.30833288E-02   1.20764341E+01   2.20107880E+02   2.20107880E+02   1.20764341E+01   4.30833288E-02   2.20064804E+02  -7.74091339E+01   2.13539566E+02   4.33421582E-02   2.20107635E+02   1.20764341E+01  -2.35319376E-01
              870                2   2.14361389E+02   2.20110107E+02   2.20110107E+02  -5.94153583E-01   1.27114582E+01   2.20110107E+02   2.20110107E+02   1.27114582E+01  -5.94153583E-01   2.20704269E+02  -7.74091415E+01   2.13429337E+02  -5.92208505E-01   2.20108170E+02   1.27114582E+01  -6.55137479E-01
              870                3   2.14336090E+02   2.20119049E+02   2.20119049E+02  -1.69087067E-01   1.22774525E+01   2.20119049E+02   2.20119049E+02   1.22774525E+01  -1.69087067E-01   2.20288147E+02  -7.74091415E+01   2.13520721E+02  -1.62986726E-01   2.20112946E+02   1.22774525E+01   1.15994346E+00
              870                4   2.14394638E+02   2.20119888E+02   2.20119888E+02  -7.95941114E-01   1.29034672E+01   2.20119888E+02   2.20119888E+02   1.29034672E+01  -7.95941114E-01   2.20915833E+02  -7.74091415E+01   2.13406555E+02  -7.93531477E-01   2.20117477E+02   1.29034672E+01   7.29328036E-01
              871                1   2.09790482E+02   2.35530273E+02   2.35530273E+02   2.66761041E+00   6.12778282E+01   2.35530273E+02   2.35530273E+02   6.12778282E+01   2.66761041E+00   2.32862671E+02  -9.98252335E+01   1.90020599E+02   7.11009932E+00   2.31087799E+02   6.12778282E+01   3.18551807E+01
              871                2   2.08292587E+02   2.35151260E+02   2.35151260E+02   5.19771099E+00   5.91267509E+01   2.35151260E+02   2.35151260E+02   5.91267509E+01   5.19771099E+00   2.29953552E+02  -9.98252335E+01   1.91618301E+02   9.02746391E+00   2.31321503E+02   5.91267509E+01   2.94278564E+01
              871                3   2.10392273E+02   2.35723099E+02   2.35723099E+02   1.81307364E+00   6.19395485E+01   2.35723099E+02   2.35723099E+02   6.19395485E+01   1.81307364E+00   2.33910034E+02  -9.98252487E+01   1.89568939E+02   4.59412766E+00   2.32942047E+02   6.19395485E+01   2.53531666E+01
              871                4   2.08918304E+02   2.35354233E+02   2.35354233E+02   4.26016855E+00   5.98613319E+01   2.35354233E+02   2.35354233E+02   5.98613319E+01   4.26016855E+00   2.31094055E+02  -9.98252487E+01   1.91180817E+02   6.51987505E+00   2.33094513E+02   5.98613319E+01   2.27398357E+01
              872                1   2.14999237E+01   1.24195557E+01   1.24195557E+01  -6.80312991E-01  -1.23935061E+01   1.24195557E+01   1.24195557E+01  -6.80312991E-01  -1.23935061E+01   2.48130608E+01   2.18087837E-01   9.86534882E+00   9.53348935E-01   1.07858934E+01  -1.23935061E+01   4.32803726E+00
              872                2   2.11248684E+01   1.19992819E+01   1.19992819E+01  -2.60039210E-01  -1.23935061E+01   1.19992819E+01  -1.23935061E+01  -2.60039210E-01  -1.23935061E+01   2.43927879E+01   2.18087837E-01   4.38376665E+00   1.43327951E+00   1.03059635E+01  -1.23935061E+01   4.22984695E+00
              872                3   2.13121872E+01   1.22117424E+01   1.22117424E+01  -4.72499430E-01  -1.23935061E+01   1.22117424E+01  -1.23935061E+01  -4.72499430E-01  -1.23935061E+01   2.46052475E+01   2.18087837E-01   8.04031849E+00   8.28416109E-01   1.09108267E+01  -1.23935061E+01   3.84821296E+00
              872                4   2.09279232E+01   1.17697945E+01   1.17697945E+01  -3.05515304E-02  -1.23935061E+01   1.17697945E+01  -1.23935061E+01  -3.05515304E-02  -1.23935061E+01   2.41632996E+01   2.18087837E-01  -7.17598915E+00   1.30505896E+00   1.04341841E+01  -1.23935061E+01   3.73855662E+00
              873                1   5.92835274E+01   5.29944992E+01   5.29944992E+01  -4.06357670E+00  -8.28844738E+00   5.29944992E+01   5.29944992E+01  -4.06357670E+00  -8.28844738E+00   6.12829475E+01  -1.35474920E+01   5.89433937E+01   4.47899055E+00   4.44519310E+01  -8.28844738E+00   2.03579731E+01
              873                2   5.85267334E+01   5.24687958E+01   5.24687958E+01  -3.53787136E+00  -8.28844738E+00   5.24687958E+01   5.24687958E+01  -3.53787136E+00  -8.28844738E+00   6.07572441E+01  -1.35474920E+01   5.80905838E+01   4.32523966E+00   4.46056824E+01  -8.28844738E+00   1.94565716E+01
              873                3   6.07011757E+01   5.39714737E+01   5.39714737E+01  -5.04055309E+00  -8.28844738E+00   5.39714737E+01   5.39714737E+01  -5.04055309E+00  -8.28844738E+00   6.22599220E+01  -1.35474901E+01   6.05052147E+01   3.48921466E+00   4.54417038E+01  -8.28844738E+00   2.07509518E+01
              873                4   5.98430252E+01   5.33812523E+01   5.33812523E+01  -4.45033264E+00  -8.28844738E+00   5.33812523E+01   5.33812523E+01  -4.45033264E+00  -8.28844738E+00   6.16697006E+01  -1.35474901E+01   5.95651588E+01   3.34663248E+00   4.55842857E+01  -8.28844738E+00   1.97514114E+01
              874                1   4.24761162E+01   4.33131371E+01   4.33131371E+01   1.06554985E+00   6.12125635E-01   4.33131371E+01   4.33131371E+01   1.06554985E+00   6.12125635E-01   4.27010117E+01  -1.49969378E+01   4.24706726E+01   2.86038613E+00   4.15183029E+01   6.12125635E-01   8.52091885E+00
              874                2   4.26287994E+01   4.34154167E+01   4.34154167E+01   9.63273883E-01   6.12125635E-01   4.34154167E+01   4.34154167E+01   9.63273883E-01   6.12125635E-01   4.28032875E+01  -1.49969378E+01   4.26255455E+01   2.70114064E+00   4.16775475E+01   6.12125635E-01   8.41165924E+00
              874                3   4.27403984E+01   4.34900894E+01   4.34900894E+01   8.88598680E-01   6.12125635E-01   4.34900894E+01   4.34900894E+01   8.88598680E-01   6.12125635E-01   4.28779640E+01  -1.49969378E+01   4.27383881E+01   2.74758887E+00   4.16310997E+01   6.12125635E-01   8.70286846E+00
              874                4   4.28963509E+01   4.35943336E+01   4.35943336E+01   7.84356117E-01   6.12125635E-01   4.35943336E+01   4.35943336E+01   7.84356117E-01   6.12125635E-01   4.29822083E+01  -1.49969378E+01   4.28955727E+01   2.58557296E+00   4.17931175E+01   6.12125635E-01   8.59451008E+00
              875                1   4.93916359E+01   4.63382568E+01   4.63382568E+01  -2.19988561E+00  -3.86477065E+00   4.63382568E+01   4.63382568E+01  -2.19988561E+00  -3.86477065E+00   5.02030258E+01  -1.34245338E+01   4.93284378E+01  -1.22907095E-01   4.42612762E+01  -3.86477065E+00   9.82338524E+00
              875                2   4.90928040E+01   4.61352959E+01   4.61352959E+01  -1.99692905E+00  -3.86477065E+00   4.61352959E+01   4.61352959E+01  -1.99692905E+00  -3.86477065E+00   5.00000648E+01  -1.34245329E+01   4.90127563E+01  -2.08280571E-02   4.41591949E+01  -3.86477065E+00   9.55034828E+00
              875                3   4.97019081E+01   4.65484924E+01   4.65484924E+01  -2.41012597E+00  -3.86477065E+00   4.65484924E+01   4.65484924E+01  -2.41012597E+00  -3.86477065E+00   5.04132614E+01  -1.34245329E+01   4.96539764E+01  -3.94433111E-01   4.45327988E+01  -3.86477065E+00   9.72741318E+00
              875                4   4.93588943E+01   4.63160400E+01   4.63160400E+01  -2.17767406E+00  -3.86477065E+00   4.63160400E+01   4.63160400E+01  -2.17767406E+00  -3.86477065E+00   5.01808128E+01  -1.34245329E+01   4.92939529E+01  -2.74205297E-01   4.44125710E+01  -3.86477065E+00   9.41717148E+00
              876                1   1.95533936E+02   1.94723251E+02   1.94723251E+02  -1.53785133E+00  -7.53177106E-02   1.94723251E+02   1.94723251E+02  -7.53177106E-02  -1.53785133E+00   1.96261093E+02  -6.43700256E+01   1.95521622E+02  -1.49984550E+00   1.94685242E+02  -7.53177106E-02   2.73079729E+00
              876                2   1.96492233E+02   1.95359253E+02   1.95359253E+02  -2.17328072E+00  -7.59045705E-02   1.95359253E+02   1.95359253E+02  -7.59045705E-02  -2.17328072E+00   1.97532532E+02  -6.43700256E+01   1.96467056E+02  -2.13986969E+00   1.95325851E+02  -7.59045705E-02   2.56849456E+00
              876                3   1.95804825E+02   1.94903137E+02   1.94903137E+02  -1.71747077E+00  -7.55795091E-02   1.94903137E+02   1.94903137E+02  -7.55795091E-02  -1.71747077E+00   1.96620605E+02  -6.43700333E+01   1.95789337E+02  -1.65699983E+00   1.94842667E+02  -7.55795091E-02   3.44769430E+00
              876                4   1.96760635E+02   1.95537216E+02   1.95537216E+02  -2.35096169E+00  -7.61669651E-02   1.95537216E+02   1.95537216E+02  -7.61669651E-02  -2.35096169E+00   1.97888168E+02  -6.43700256E+01   1.96731049E+02  -2.29607606E+00   1.95482330E+02  -7.61669651E-02   3.29501510E+00
              877                1   5.09774170E+01   4.78183784E+01   4.78183784E+01  -2.40819454E+00  -3.87809110E+00   4.78183784E+01   4.78183784E+01  -2.40819454E+00  -3.87809110E+00   5.16964684E+01  -1.38440313E+01   5.09297028E+01  -5.39100528E-01   4.59492836E+01  -3.87809110E+00   9.50708485E+00
              877                2   5.12772636E+01   4.80210419E+01   4.80210419E+01  -2.61085963E+00  -3.87809110E+00   4.80210419E+01   4.80210419E+01  -2.61085963E+00  -3.87809110E+00   5.18991318E+01  -1.38440313E+01   5.12420120E+01  -6.40498638E-01   4.60506821E+01  -3.87809110E+00   9.79187298E+00
              877                3   5.06208763E+01   4.75768127E+01   4.75768127E+01  -2.16662908E+00  -3.87809110E+00   4.75768127E+01   4.75768127E+01  -2.16662908E+00  -3.87809110E+00   5.14549026E+01  -1.38440313E+01   5.05557175E+01  -2.20848128E-01   4.56310310E+01  -3.87809110E+00   9.64384651E+00
              877                4   5.09286003E+01   4.77853394E+01   4.77853394E+01  -2.37515831E+00  -3.87809110E+00   4.77853394E+01   4.77853394E+01  -2.37515831E+00  -3.87809110E+00   5.16634331E+01  -1.38440313E+01   5.08786659E+01  -3.30548048E-01   4.57407303E+01  -3.87809110E+00   9.91858196E+00
              878                1   2.10901215E+02   1.92837204E+02   1.92837204E+02  -2.49521675E+01  -1.04246559E+01   1.92837204E+02   1.92837204E+02  -1.04246559E+01  -2.49521675E+01   2.17789383E+02  -5.24867973E+01   2.09771057E+02  -2.49159641E+01   1.92801010E+02  -1.04246559E+01  -2.80754542E+00
              878                2   2.10153763E+02   1.92436523E+02   1.92436523E+02  -2.31530399E+01  -1.18230858E+01   1.92436523E+02   1.92436523E+02  -1.18230858E+01  -2.31530399E+01   2.15589554E+02  -5.24867973E+01   2.09464951E+02  -2.29891815E+01   1.92272659E+02  -1.18230858E+01  -5.94131804E+00
              878                3   2.11533813E+02   1.93131104E+02   1.93131104E+02  -2.67742863E+01  -8.89641380E+00   1.93131104E+02   1.93131104E+02  -8.89641380E+00  -2.67742863E+01   2.19905380E+02  -5.24868011E+01   2.09824005E+02  -2.66066017E+01   1.92963409E+02  -8.89641380E+00  -6.07019949E+00
              878                4   2.10814743E+02   1.92768677E+02   1.92768677E+02  -2.50724392E+01  -1.02358522E+01   1.92768677E+02   1.92768677E+02  -1.02358522E+01  -2.50724392E+01   2.17841125E+02  -5.24867973E+01   2.09635315E+02  -2.46837883E+01   1.92380035E+02  -1.02358522E+01  -9.19305229E+00
              879                1   2.78458862E+01   1.99318867E+01   1.99318867E+01  -1.37986195E+00  -1.15746574E+01   1.99318867E+01   1.99318867E+01  -1.37986195E+00  -1.15746574E+01   3.15065441E+01  -2.32578921E+00   2.30478306E+01   1.59080100E+00   1.69612236E+01  -1.15746574E+01   7.38140821E+00
              879                2   2.74014416E+01   1.95406532E+01   1.95406532E+01  -9.88628626E-01  -1.15746574E+01   1.95406532E+01   1.95406532E+01  -9.88628626E-01  -1.15746574E+01   3.11153107E+01  -2.32578921E+00   2.20406532E+01   2.08345771E+00   1.64685669E+01  -1.15746574E+01   7.32325172E+00
              879                3   2.75586376E+01   1.96799870E+01   1.96799870E+01  -1.12796283E+00  -1.15746574E+01   1.96799870E+01   1.96799870E+01  -1.12796283E+00  -1.15746574E+01   3.12546444E+01  -2.32578921E+00   2.24054012E+01   1.46867335E+00   1.70833511E+01  -1.15746574E+01   6.87663889E+00
              879                4   2.70965633E+01   1.92672310E+01   1.92672310E+01  -7.15205789E-01  -1.15746574E+01   1.92672310E+01   1.92672310E+01  -7.15205789E-01  -1.15746574E+01   3.08418884E+01  -2.32578921E+00   2.13031025E+01   1.95870972E+00   1.65933151E+01  -1.15746574E+01   6.80305243E+00
              880                1   1.76036133E+02   1.83284775E+02   1.83284775E+02   2.56785655E+00   1.23362160E+01   1.83284775E+02   1.83284775E+02   1.23362160E+01   2.56785655E+00   1.80716919E+02  -6.60629501E+01   1.75424789E+02   2.74320674E+00   1.83109421E+02   1.23362160E+01   5.62659264E+00
              880                2   1.75108444E+02   1.82729050E+02   1.82729050E+02   4.15849972E+00   1.13013010E+01   1.82729050E+02   1.82729050E+02   1.13013010E+01   4.15849972E+00   1.78570541E+02  -6.60629501E+01   1.74780212E+02   4.58770227E+00   1.82299835E+02   1.13013010E+01   8.74412155E+00
              880                3   1.74741684E+02   1.82488907E+02   1.82488907E+02   4.39100075E+00   1.13089256E+01   1.82488907E+02   1.82488907E+02   1.13089256E+01   4.39100075E+00   1.78097916E+02  -6.60629501E+01   1.74433182E+02   4.43561268E+00   1.82444305E+02   1.13089256E+01   2.81822968E+00
              880                4   1.73755463E+02   1.81875595E+02   1.81875595E+02   6.10074234E+00   1.02125053E+01   1.81875595E+02   1.81875595E+02   1.02125053E+01   6.10074234E+00   1.75774841E+02  -6.60629501E+01   1.73645950E+02   6.30170345E+00   1.81674637E+02   1.02125053E+01   5.93989468E+00
              881                1   1.09220070E+02   1.16989441E+02   1.16989441E+02   7.75383949E+00   7.78490877E+00   1.16989441E+02   1.16989441E+02   7.78490877E+00   7.75383949E+00   1.09235596E+02  -4.41760597E+01   1.09220062E+02   7.89202547E+00   1.16851250E+02   7.78490877E+00   3.88279319E+00
              881                2   1.09352470E+02   1.17077675E+02   1.17077675E+02   7.66559362E+00   7.78490877E+00   1.17077675E+02   1.17077675E+02   7.78490877E+00   7.66559362E+00   1.09412086E+02  -4.41760597E+01   1.09352325E+02   7.80046368E+00   1.16942810E+02   7.78490877E+00   3.83899760E+00
              881                3   1.09293877E+02   1.17038635E+02   1.17038635E+02   7.70464611E+00   7.78490877E+00   1.17038635E+02   1.17038635E+02   7.78490877E+00   7.70464611E+00   1.09333984E+02  -4.41760597E+01   1.09293816E+02   7.84929419E+00   1.16893982E+02   7.78490877E+00   3.97420597E+00
              881                4   1.09426575E+02   1.17127045E+02   1.17127045E+02   7.61622524E+00   7.78490877E+00   1.17127045E+02   1.17127045E+02   7.78490877E+00   7.61622524E+00   1.09510818E+02  -4.41760597E+01   1.09426285E+02   7.75746393E+00   1.16985809E+02   7.78490877E+00   3.93026018E+00
              882                1   9.42280807E+01   9.25494385E+01   9.25494385E+01  -1.57587838E+00  -1.78108084E+00   9.25494385E+01   9.25494385E+01  -1.57587838E+00  -1.78108084E+00   9.43305130E+01  -2.97308254E+01   9.42275848E+01   1.58744395E+00   8.93861160E+01  -1.78108084E+00   1.69629536E+01
              882                2   9.49703369E+01   9.30441589E+01   9.30441589E+01  -2.07059836E+00  -1.78108084E+00   9.30441589E+01   9.30441589E+01  -1.78108084E+00  -2.07059836E+00   9.51147614E+01  -2.97308273E+01   9.49693375E+01   1.05842388E+00   8.99151382E+01  -1.78108084E+00   1.69654236E+01
              882                3   9.45339966E+01   9.27534943E+01   9.27534943E+01  -1.77993441E+00  -1.78108084E+00   9.27534943E+01   9.27534943E+01  -1.77993441E+00  -1.78108084E+00   9.45345688E+01  -2.97308254E+01   9.45340042E+01   1.58668768E+00   8.93868713E+01  -1.78108084E+00   1.75192451E+01
              882                4   9.52751617E+01   9.32469711E+01   9.32469711E+01  -2.27340436E+00  -1.78108084E+00   9.32469711E+01   9.32469711E+01  -1.78108084E+00  -2.27340436E+00   9.55203705E+01  -2.97308273E+01   9.52723083E+01   1.05684769E+00   8.99167175E+01  -1.78108084E+00   1.75218792E+01
              883                1   3.56188622E+01   4.07145653E+01   4.07145653E+01   4.59982634E+00   5.61320591E+00   4.07145653E+01   4.07145653E+01   5.61320591E+00   4.59982634E+00   3.61147385E+01  -1.69758663E+01   3.55864067E+01   6.89446497E+00   3.84199257E+01   5.61320591E+00   8.80936527E+00
              883                2   3.55924606E+01   4.06972046E+01   4.06972046E+01   4.61718750E+00   5.61320591E+00   4.06972046E+01   4.06972046E+01   5.61320591E+00   4.61718750E+00   3.60800171E+01  -1.69758663E+01   3.55610847E+01   6.81677914E+00   3.84976120E+01   5.61320591E+00   8.63267803E+00
              883                3   3.59172211E+01   4.09104996E+01   4.09104996E+01   4.40389252E+00   5.61320591E+00   4.09104996E+01   4.09104996E+01   5.61320591E+00   4.40389252E+00   3.65066071E+01  -1.69758663E+01   3.58713760E+01   6.71661091E+00   3.85977821E+01   5.61320591E+00   8.89273930E+00
              883                4   3.58911018E+01   4.08933640E+01   4.08933640E+01   4.42102861E+00   5.61320591E+00   4.08933640E+01   4.08933640E+01   5.61320591E+00   4.42102861E+00   3.64723358E+01  -1.69758663E+01   3.58465080E+01   6.63883400E+00   3.86755562E+01   5.61320591E+00   8.71607399E+00
              884                1   3.66449547E+01   4.24874496E+01   4.24874496E+01   5.62747431E+00   6.06137323E+00   4.24874496E+01   4.24874496E+01   6.06137323E+00   5.62747431E+00   3.68599777E+01  -1.80587673E+01   3.66391716E+01   7.27213192E+00   4.08427925E+01   6.06137323E+00   7.61033344E+00
              884                2   3.66795807E+01   4.25103951E+01   4.25103951E+01   5.60453224E+00   6.06137323E+00   4.25103951E+01   4.25103951E+01   6.06137323E+00   5.60453224E+00   3.69058647E+01  -1.80587673E+01   3.66731720E+01   7.15961647E+00   4.09553108E+01   6.06137323E+00   7.41441202E+00
              884                3   3.69891853E+01   4.27152634E+01   4.27152634E+01   5.39966106E+00   6.06137323E+00   4.27152634E+01   4.27152634E+01   6.06137323E+00   5.39966106E+00   3.73156013E+01  -1.80587673E+01   3.69758644E+01   7.07463789E+00   4.10402870E+01   6.06137323E+00   7.72639847E+00
              884                4   3.70232964E+01   4.27378044E+01   4.27378044E+01   5.37712240E+00   6.06137323E+00   4.27378044E+01   4.27378044E+01   6.06137323E+00   5.37712240E+00   3.73606796E+01  -1.80587673E+01   3.70090637E+01   6.96240950E+00   4.11525154E+01   6.06137323E+00   7.53088903E+00
              885                1   4.43452492E+01   4.76356087E+01   4.76356087E+01   3.36838365E+00   3.21274638E+00   4.76356087E+01   4.76356087E+01   3.36838365E+00   3.21274638E+00   4.44228630E+01  -1.80722466E+01   4.43446350E+01   4.12263060E+00   4.68813629E+01   3.21274638E+00   5.72883558E+00
              885                2   4.44570160E+01   4.77102203E+01   4.77102203E+01   3.29377222E+00   3.21274638E+00   4.77102203E+01   4.77102203E+01   3.29377222E+00   3.21274638E+00   4.44974747E+01  -1.80722466E+01   4.44568520E+01   3.99174166E+00   4.70122528E+01   3.21274638E+00   5.52396059E+00
              885                3   4.47252388E+01   4.78890190E+01   4.78890190E+01   3.11497450E+00   3.21274638E+00   4.78890190E+01   4.78890190E+01   3.21274638E+00   3.11497450E+00   4.47740440E+01  -1.80722466E+01   4.47249985E+01   3.89843655E+00   4.71055565E+01   3.21274638E+00   5.87068939E+00
              885                4   4.48344688E+01   4.79617310E+01   4.79617310E+01   3.04226089E+00   3.21274638E+00   4.79617310E+01   4.79617310E+01   3.21274638E+00   3.04226089E+00   4.49194679E+01  -1.80722446E+01   4.48337402E+01   3.76886129E+00   4.72351303E+01   3.21274638E+00   5.66661215E+00
              886                1   1.88525864E+02   1.87232895E+02   1.87232895E+02  -1.37436163E+00  -1.21146476E+00   1.87232895E+02   1.87232895E+02  -1.21146476E+00  -1.37436163E+00   1.88607254E+02  -6.15490227E+01   1.88525711E+02  -1.37051570E+00   1.87229050E+02  -1.21146476E+00   8.51878166E-01
              886                2   1.88823654E+02   1.87431290E+02   1.87431290E+02  -1.57249629E+00  -1.21172106E+00   1.87431290E+02   1.87431290E+02  -1.21172106E+00  -1.57249629E+00   1.89003784E+02  -6.15490265E+01   1.88822876E+02  -1.56621754E+00   1.87425018E+02  -1.21172106E+00   1.08886027E+00
              886                3   1.88189133E+02   1.87008438E+02   1.87008438E+02  -1.15009940E+00  -1.21125817E+00   1.87008438E+02   1.87008438E+02  -1.15009940E+00  -1.21125817E+00   1.88219696E+02  -6.15490265E+01   1.88189102E+02  -1.14438486E+00   1.87002716E+02  -1.21125817E+00   1.03748381E+00
              886                4   1.88495605E+02   1.87212738E+02   1.87212738E+02  -1.35414171E+00  -1.21152091E+00   1.87212738E+02   1.87212738E+02  -1.21152091E+00  -1.35414171E+00   1.88566879E+02  -6.15490265E+01   1.88495483E+02  -1.34548783E+00   1.87204086E+02  -1.21152091E+00   1.27727628E+00
              887                1   5.10552483E+01   4.90570755E+01   4.90570755E+01  -1.58670056E+00  -2.39993119E+00   4.90570755E+01   4.90570755E+01  -1.58670056E+00  -2.39993119E+00   5.14570084E+01  -1.50234804E+01   5.10406761E+01   1.17511392E-01   4.73528633E+01  -2.39993119E+00   9.13254642E+00
              887                2   5.07322998E+01   4.88397827E+01   4.88397827E+01  -1.36940575E+00  -2.39993119E+00   4.88397827E+01   4.88397827E+01  -1.36940575E+00  -2.39993119E+00   5.12397118E+01  -1.50234804E+01   5.07087440E+01   2.54471242E-01   4.72159042E+01  -2.39993119E+00   8.88237286E+00
              887                3   5.13016205E+01   4.92225189E+01   4.92225189E+01  -1.75214231E+00  -2.39993119E+00   4.92225189E+01   4.92225189E+01  -1.75214231E+00  -2.39993119E+00   5.16224480E+01  -1.50234804E+01   5.12924194E+01  -1.00959539E-01   4.75713348E+01  -2.39993119E+00   9.02452564E+00
              887                4   5.09898338E+01   4.90130997E+01   4.90130997E+01  -1.54272604E+00  -2.39993119E+00   4.90130997E+01   4.90130997E+01  -1.54272604E+00  -2.39993119E+00   5.14130325E+01  -1.50234804E+01   5.09736214E+01   2.90212482E-02   4.74413528E+01  -2.39993119E+00   8.77443123E+00
              888                1   4.72307777E+01   4.76072769E+01   4.76072769E+01   5.62127769E-01   1.93030223E-01   4.76072769E+01   4.76072769E+01   5.62127769E-01   1.93030223E-01   4.74142456E+01  -1.61208115E+01   4.72275314E+01   1.90164363E+00   4.62677612E+01   1.93030223E-01   7.82453442E+00
              888                2   4.75598717E+01   4.78272743E+01   4.78272743E+01   3.42131138E-01   1.93030223E-01   4.78272743E+01   4.78272743E+01   3.42131138E-01   1.93030223E-01   4.76342468E+01  -1.61208134E+01   4.75593414E+01   1.72805643E+00   4.64413490E+01   1.93030223E-01   7.99313068E+00
              888                3   4.70635910E+01   4.74953117E+01   4.74953117E+01   6.74092770E-01   1.93030223E-01   4.74953117E+01   4.74953117E+01   6.74092770E-01   1.93030223E-01   4.73022804E+01  -1.61208115E+01   4.70580597E+01   2.06626701E+00   4.61031380E+01   1.93030223E-01   7.95267630E+00
              888                4   4.73926697E+01   4.77155647E+01   4.77155647E+01   4.53837335E-01   1.93030223E-01   4.77155647E+01   4.77155647E+01   4.53837335E-01   1.93030223E-01   4.75225372E+01  -1.61208115E+01   4.73910561E+01   1.89373946E+00   4.62756653E+01   1.93030223E-01   8.12273788E+00
              889                1   3.54946404E+01   3.66862602E+01   3.66862602E+01   7.97065258E-01   1.59979260E+00   3.66862602E+01   3.66862602E+01   1.59979260E+00   7.97065258E-01   3.58891945E+01  -1.30277061E+01   3.54742088E+01   1.70832694E+00   3.57749977E+01   1.59979260E+00   5.64571476E+00
              889                2   3.55998116E+01   3.67555733E+01   3.67555733E+01   7.27750659E-01   1.59979260E+00   3.67555733E+01   3.67555733E+01   1.59979260E+00   7.27750659E-01   3.60278206E+01  -1.30277052E+01   3.55757675E+01   1.64557028E+00   3.58377533E+01   1.59979260E+00   5.67667150E+00
              889                3   3.54797401E+01   3.66764374E+01   3.66764374E+01   8.06886196E-01   1.59979260E+00   3.66764374E+01   3.66764374E+01   1.59979260E+00   8.06886196E-01   3.58695488E+01  -1.30277052E+01   3.54598007E+01   1.74021232E+00   3.57431107E+01   1.59979260E+00   5.71024179E+00
              889                4   3.55845413E+01   3.67455139E+01   3.67455139E+01   7.37813652E-01   1.59979260E+00   3.67455139E+01   3.67455139E+01   1.59979260E+00   7.37813652E-01   3.60076981E+01  -1.30277061E+01   3.55610390E+01   1.67746580E+00   3.58058586E+01   1.59979260E+00   5.74036741E+00
              890                1   3.77195282E+01   4.40031586E+01   4.40031586E+01   6.20761061E+00   6.36011362E+00   4.40031586E+01   4.40031586E+01   6.36011362E+00   6.20761061E+00   3.77955475E+01  -1.88569622E+01   3.77188339E+01   7.24529076E+00   4.29654808E+01   6.36011362E+00   6.17598915E+00
              890                2   3.77718658E+01   4.40379753E+01   4.40379753E+01   6.17279577E+00   6.36011362E+00   4.40379753E+01   4.40379753E+01   6.36011362E+00   6.17279577E+00   3.78651772E+01  -1.88569622E+01   3.77708206E+01   7.13603258E+00   4.30747375E+01   6.36011362E+00   5.96198702E+00
              890                3   3.80824814E+01   4.42442665E+01   4.42442665E+01   5.96650887E+00   6.36011362E+00   4.42442665E+01   4.42442665E+01   6.36011362E+00   5.96650887E+00   3.82777557E+01  -1.88569622E+01   3.80778999E+01   7.02910089E+00   4.31816711E+01   6.36011362E+00   6.28844929E+00
              890                4   3.81344223E+01   4.42787094E+01   4.42787094E+01   5.93206024E+00   6.36011362E+00   4.42787094E+01   4.42787094E+01   6.36011362E+00   5.93206024E+00   3.83466492E+01  -1.88569622E+01   3.81290169E+01   6.91978979E+00   4.32909813E+01   6.36011362E+00   6.07457495E+00
              891                1   1.58110687E+02   1.75074310E+02   1.75074310E+02   1.50751038E+01   1.89223518E+01   1.75074310E+02   1.75074310E+02   1.89223518E+01   1.50751038E+01   1.59999207E+02  -6.96905899E+01   1.58005325E+02   1.53391981E+01   1.74810211E+02   1.89223518E+01   6.49506569E+00
              891                2   1.56642715E+02   1.74105835E+02   1.74105835E+02   1.60435734E+01   1.89223518E+01   1.74105835E+02   1.74105835E+02   1.89223518E+01   1.60435734E+01   1.58062271E+02  -6.96905899E+01   1.56583191E+02   1.64043121E+01   1.73745102E+02   1.89223518E+01   7.54248381E+00
              891                3   1.56416138E+02   1.73956100E+02   1.73956100E+02   1.61933098E+01   1.89223518E+01   1.73956100E+02   1.73956100E+02   1.89223518E+01   1.61933098E+01   1.57762787E+02  -6.96905899E+01   1.56362549E+02   1.63780804E+01   1.73771332E+02   1.89223518E+01   5.39592743E+00
              891                4   1.54942871E+02   1.72980881E+02   1.72980881E+02   1.71685390E+01   1.89223518E+01   1.72980881E+02   1.72980881E+02   1.89223518E+01   1.71685390E+01   1.55812332E+02  -6.96905899E+01   1.54920532E+02   1.74355869E+01   1.72713821E+02   1.89223518E+01   6.44506502E+00
              892                1   3.48488121E+01   3.65009880E+01   3.65009880E+01   7.28851557E-02   3.48205113E+00   3.65009880E+01   3.65009880E+01   3.48205113E+00   7.28851557E-02   3.64281006E+01  -1.33519745E+01   3.44706459E+01   2.77487457E-01   3.62963829E+01   3.48205113E+00   2.72239900E+00
              892                2   3.44415741E+01   3.62409248E+01   3.62409248E+01   3.32942992E-01   3.48205113E+00   3.62409248E+01   3.62409248E+01   3.48205113E+00   3.32942992E-01   3.59079819E+01  -1.33519735E+01   3.41154137E+01   5.13519645E-01   3.60603485E+01   3.48205113E+00   2.53998470E+00
              892                3   3.50817604E+01   3.66494446E+01   3.66494446E+01  -7.55758733E-02   3.48205113E+00   3.66494446E+01   3.66494446E+01   3.48205113E+00  -7.55758733E-02   3.67250214E+01  -1.33519735E+01   3.46724358E+01   9.34193432E-02   3.64804497E+01   3.48205113E+00   2.48550773E+00
              892                4   3.46774178E+01   3.63916168E+01   3.63916168E+01   1.82249650E-01   3.48205113E+00   3.63916168E+01   3.63916168E+01   3.48205113E+00   1.82249650E-01   3.62093697E+01  -1.33519735E+01   3.43215294E+01   3.29278171E-01   3.62445908E+01   3.48205113E+00   2.30264020E+00
              893                1   1.97001190E+02   1.89368347E+02   1.89368347E+02  -1.16730366E+01  -3.32740355E+00   1.89368347E+02   1.89368347E+02  -3.32740355E+00  -1.16730366E+01   2.01041382E+02  -5.81226349E+01   1.96602875E+02  -1.16373587E+01   1.89332672E+02  -3.32740355E+00  -2.67790699E+00
              893                2   1.98073318E+02   1.90018799E+02   1.90018799E+02  -1.33236151E+01  -2.32728100E+00   1.90018799E+02   1.90018799E+02  -2.32728100E+00  -1.33236151E+01   2.03342422E+02  -5.81226349E+01   1.97384796E+02  -1.31816444E+01   1.89876831E+02  -2.32728100E+00  -5.37114477E+00
              893                3   1.98216965E+02   1.90117538E+02   1.90117538E+02  -1.33211737E+01  -2.42845917E+00   1.90117538E+02   1.90117538E+02  -2.42845917E+00  -1.33211737E+01   2.03438721E+02  -5.81226387E+01   1.97541870E+02  -1.33205690E+01   1.90116943E+02  -2.42845917E+00  -3.49910289E-01
              893                4   1.99248734E+02   1.90728851E+02   1.90728851E+02  -1.48921976E+01  -1.46874774E+00   1.90728851E+02   1.90728851E+02  -1.46874774E+00  -1.48921976E+01   2.05621048E+02  -5.81226349E+01   1.98227585E+02  -1.48493433E+01   1.90686005E+02  -1.46874774E+00  -2.96792197E+00
              894                1   8.37219925E+01   7.78879471E+01   7.78879471E+01  -5.66362667E+00  -6.00343275E+00   7.78879471E+01   7.78879471E+01  -5.66362667E+00  -6.00343275E+00   8.38913803E+01  -2.20736294E+01   8.37204437E+01  -4.99790287E+00   7.72222214E+01  -6.00343275E+00   7.42826891E+00
              894                2   8.40393372E+01   7.80998077E+01   7.80998077E+01  -5.87548637E+00  -6.00343275E+00   7.80998077E+01   7.80998077E+01  -5.87548637E+00  -6.00343275E+00   8.41032410E+01  -2.20736294E+01   8.40391235E+01  -5.23527193E+00   7.74595947E+01  -6.00343275E+00   7.30424929E+00
              894                3   8.39674225E+01   7.80518188E+01   7.80518188E+01  -5.82750130E+00  -6.00343275E+00   7.80518188E+01   7.80518188E+01  -5.82750130E+00  -6.00343275E+00   8.40552521E+01  -2.20736294E+01   8.39670105E+01  -5.12057543E+00   7.73448944E+01  -6.00343275E+00   7.66790390E+00
              894                4   8.42842407E+01   7.82631149E+01   7.82631149E+01  -6.03879833E+00  -6.00343275E+00   7.82631149E+01   7.82631149E+01  -6.00343275E+00  -6.03879833E+00   8.43019180E+01  -2.20736294E+01   8.42842255E+01  -5.35815525E+00   7.75824738E+01  -6.00343275E+00   7.54429054E+00
              895                1   4.76418419E+01   4.17901382E+01   4.17901382E+01  -3.60598016E+00  -7.81776237E+00   4.17901382E+01   4.17901382E+01  -3.60598016E+00  -7.81776237E+00   4.96079025E+01  -1.01221323E+01   4.72202644E+01  -4.87841040E-01   3.86720009E+01  -7.81776237E+00   1.14816618E+01
              895                2   4.70158653E+01   4.13507996E+01   4.13507996E+01  -3.16664195E+00  -7.81776237E+00   4.13507996E+01   4.13507996E+01  -3.16664195E+00  -7.81776237E+00   4.91685638E+01  -1.01221323E+01   4.64940453E+01   1.95134711E-03   3.81822052E+01  -7.81776237E+00   1.14462986E+01
              895                3   4.73521309E+01   4.15871506E+01   4.15871506E+01  -3.40299320E+00  -7.81776237E+00   4.15871506E+01   4.15871506E+01  -3.40299320E+00  -7.81776237E+00   4.94049149E+01  -1.01221323E+01   4.68857613E+01  -5.31742394E-01   3.87159004E+01  -7.81776237E+00   1.09969959E+01
              895                4   4.67208366E+01   4.11427536E+01   4.11427536E+01  -2.95859718E+00  -7.81776237E+00   4.11427536E+01   4.11427536E+01  -2.95859718E+00  -7.81776237E+00   4.89605179E+01  -1.01221323E+01   4.61472015E+01  -4.22136113E-02   3.82263718E+01  -7.81776237E+00   1.09595242E+01
              896                1   1.48034210E+02   1.74422775E+02   1.74422775E+02   2.20454483E+01   3.11521397E+01   1.74422775E+02   1.74422775E+02   3.11521397E+01   2.20454483E+01   1.52377319E+02  -7.58734512E+01   1.47402008E+02   2.71371021E+01   1.69331116E+02   3.11521397E+01   2.73848019E+01
              896                2   1.51022522E+02   1.76353271E+02   1.76353271E+02   2.01149445E+01   3.11521397E+01   1.76353271E+02   1.76353271E+02   3.11521397E+01   2.01149445E+01   1.56238327E+02  -7.58734512E+01   1.50111084E+02   2.55203266E+01   1.70947891E+02   3.11521397E+01   2.85536251E+01
              896                3   1.47202026E+02   1.73883408E+02   1.73883408E+02   2.25848274E+01   3.11521397E+01   1.73883408E+02   1.73883408E+02   3.11521397E+01   2.25848274E+01   1.51298584E+02  -7.58734589E+01   1.46639511E+02   2.84094353E+01   1.68058792E+02   3.11521397E+01   2.91089230E+01
              896                4   1.50218094E+02   1.75834549E+02   1.75834549E+02   2.06336765E+01   3.11521397E+01   1.75834549E+02   1.75834549E+02   3.11521397E+01   2.06336765E+01   1.55200882E+02  -7.58734589E+01   1.49386169E+02   2.67689743E+01   1.69699249E+02   3.11521397E+01   3.02417393E+01
              897                1   2.19910431E+02   1.99675842E+02   1.99675842E+02  -3.59180565E+01  -1.71325207E-01   1.99675842E+02   1.99675842E+02  -1.71325207E-01  -3.59180565E+01   2.35593903E+02  -5.45288200E+01   2.13226578E+02  -3.57807846E+01   1.99538574E+02  -1.71325207E-01  -5.68508005E+00
              897                2   2.20000000E+02   1.99314774E+02   1.99314774E+02  -3.81398621E+01   2.41155815E+00   1.99314774E+02   1.99314774E+02   2.41155815E+00  -3.81398621E+01   2.37454636E+02  -5.45288239E+01   2.11344818E+02  -3.81323738E+01   1.99307281E+02   2.41155815E+00  -1.33387780E+00
              897                3   2.19724609E+02   1.99913101E+02   1.99913101E+02  -3.36722984E+01  -2.65432715E+00   1.99913101E+02   1.99913101E+02  -2.65432715E+00  -3.36722984E+01   2.33585388E+02  -5.45288239E+01   2.14716019E+02  -3.36721535E+01   1.99912949E+02  -2.65432715E+00  -1.86148852E-01
              897                4   2.19868790E+02   1.99606293E+02   1.99606293E+02  -3.61342278E+01   1.14406593E-01   1.99606293E+02   1.99606293E+02   1.14406593E-01  -3.61342278E+01   2.35740509E+02  -5.45288239E+01   2.12990067E+02  -3.60608330E+01   1.99532898E+02   1.14406593E-01   4.15881681E+00
              898                1   3.27604408E+01   4.02698784E+01   4.02698784E+01   5.49004984E+00   9.99512959E+00   4.02698784E+01   4.02698784E+01   9.99512959E+00   5.49004984E+00   3.47798309E+01  -1.85850201E+01   3.20524216E+01   9.52288055E+00   3.62370491E+01   9.99512959E+00   1.11354141E+01
              898                2   3.22553329E+01   3.99522362E+01   3.99522362E+01   5.80769157E+00   9.99512959E+00   3.99522362E+01   3.99522362E+01   9.99512959E+00   5.80769157E+00   3.41445465E+01  -1.85850201E+01   3.16351433E+01   9.68345642E+00   3.60764732E+01   9.99512959E+00   1.08311901E+01
              898                3   3.29760628E+01   4.04051971E+01   4.04051971E+01   5.35472679E+00   9.99512959E+00   4.04051971E+01   4.04051971E+01   9.99512959E+00   5.35472679E+00   3.50504723E+01  -1.85850182E+01   3.22292175E+01   9.21572685E+00   3.65442009E+01   9.99512959E+00   1.09737196E+01
              898                4   3.24751434E+01   4.00905800E+01   4.00905800E+01   5.66934919E+00   9.99512959E+00   4.00905800E+01   4.00905800E+01   9.99512959E+00   5.66934919E+00   3.44212303E+01  -1.85850201E+01   3.18172798E+01   9.37595272E+00   3.63839760E+01   9.99512959E+00   1.06699095E+01
              899                1   1.56405243E+02   1.78087708E+02   1.78087708E+02   1.93754005E+01   2.40964031E+01   1.78087708E+02   1.78087708E+02   2.40964031E+01   1.93754005E+01   1.58712311E+02  -7.38531723E+01   1.56244812E+02   1.98442917E+01   1.77618820E+02   2.40964031E+01   8.61381245E+00
              899                2   1.55204575E+02   1.77297989E+02   1.77297989E+02   2.01651192E+01   2.40964031E+01   1.77297989E+02   1.77297989E+02   2.40964031E+01   2.01651192E+01   1.57132858E+02  -7.38531723E+01   1.55092484E+02   2.07776604E+01   1.76685440E+02   2.40964031E+01   9.79161167E+00
              899                3   1.54424835E+02   1.76784149E+02   1.76784149E+02   2.06789589E+01   2.40964031E+01   1.76784149E+02   1.76784149E+02   2.40964031E+01   2.06789589E+01   1.56105179E+02  -7.38531723E+01   1.54339706E+02   2.10485306E+01   1.76414566E+02   2.40964031E+01   7.58660746E+00
              899                4   1.53195404E+02   1.75972351E+02   1.75972351E+02   2.14907455E+01   2.40964031E+01   1.75972351E+02   1.75972351E+02   2.40964031E+01   2.14907455E+01   1.54481613E+02  -7.38531723E+01   1.53145538E+02   2.19912930E+01   1.75471817E+02   2.40964031E+01   8.77917385E+00
              900                1   2.87114410E+01   4.15541687E+01   4.15541687E+01   1.27496729E+01   1.29366932E+01   4.15541687E+01   4.15541687E+01   1.29366932E+01   1.27496729E+01   2.88044949E+01  -2.24135113E+01   2.87100716E+01   1.27981339E+01   4.15057068E+01   1.29366932E+01   1.18047941E+00
              900                2   2.87189617E+01   4.15591660E+01   4.15591660E+01   1.27446756E+01   1.29366932E+01   4.15591660E+01   4.15591660E+01   1.29366932E+01   1.27446756E+01   2.88144894E+01  -2.24135113E+01   2.87175198E+01   1.28186979E+01   4.14851418E+01   1.29366932E+01   1.45858335E+00
              900                3   2.82825108E+01   4.12684326E+01   4.12684326E+01   1.30354090E+01   1.29366932E+01   4.12684326E+01   4.12684326E+01   1.30354090E+01   1.29366932E+01   2.83317394E+01  -2.24135113E+01   2.82821236E+01   1.30829458E+01   4.12208939E+01   1.29366932E+01   1.15753353E+00
              900                4   2.82872715E+01   4.12716141E+01   4.12716141E+01   1.30322285E+01   1.29366932E+01   4.12716141E+01   4.12716141E+01   1.30322285E+01   1.29366932E+01   2.83349190E+01  -2.24135113E+01   2.82869091E+01   1.31055126E+01   4.11983261E+01   1.29366932E+01   1.43671811E+00
              901                1   3.04690189E+01   4.19759521E+01   4.19759521E+01   1.14926376E+01   1.15212517E+01   4.19759521E+01   4.19759521E+01   1.15212517E+01   1.14926376E+01   3.04833145E+01  -2.16632786E+01   3.04689922E+01   1.17245903E+01   4.17439995E+01   1.15212517E+01   2.64894223E+00
              901                2   3.08728161E+01   4.22444458E+01   4.22444458E+01   1.12241488E+01   1.15212517E+01   4.22444458E+01   4.22444458E+01   1.15212517E+01   1.12241488E+01   3.10202961E+01  -2.16632824E+01   3.08696003E+01   1.14601326E+01   4.20084610E+01   1.15212517E+01   2.69529152E+00
              901                3   3.04707623E+01   4.19771156E+01   4.19771156E+01   1.14914780E+01   1.15212517E+01   4.19771156E+01   4.19771156E+01   1.15212517E+01   1.14914780E+01   3.04856377E+01  -2.16632824E+01   3.04707298E+01   1.17702436E+01   4.16983490E+01   1.15212517E+01   2.90184045E+00
              901                4   3.08754120E+01   4.22461662E+01   4.22461662E+01   1.12224245E+01   1.15212517E+01   4.22461662E+01   4.22461662E+01   1.15212517E+01   1.12224245E+01   3.10237408E+01  -2.16632786E+01   3.08721638E+01   1.15048771E+01   4.19637146E+01   1.15212517E+01   2.94668055E+00
              902                1   3.30459175E+01   3.35872650E+01   3.35872650E+01   1.17281582E-02   1.09773290E+00   3.35872650E+01   3.35872650E+01   1.09773290E+00   1.17281582E-02   3.35755348E+01  -1.15655746E+01   3.30057335E+01   1.23669878E-01   3.34753227E+01   1.09773290E+00   1.93544102E+00
              902                2   3.26297112E+01   3.33136597E+01   3.33136597E+01   2.85333186E-01   1.09773290E+00   3.33136597E+01   3.33136597E+01   1.09773290E+00   2.85333186E-01   3.30283241E+01  -1.15655746E+01   3.26069450E+01   3.82971466E-01   3.32160187E+01   1.09773290E+00   1.79313588E+00
              902                3   3.32206459E+01   3.37018242E+01   3.37018242E+01  -1.02831349E-01   1.09773290E+00   3.37018242E+01   3.37018242E+01   1.09773290E+00  -1.02831349E-01   3.38046532E+01  -1.15655746E+01   3.31717834E+01  -1.95758063E-02   3.36185684E+01   1.09773290E+00   1.67554533E+00
              902                4   3.28066521E+01   3.34300995E+01   3.34300995E+01   1.68890327E-01   1.09773290E+00   3.34300995E+01   3.34300995E+01   1.09773290E+00   1.68890327E-01   3.32612114E+01  -1.15655746E+01   3.27770462E+01   2.39718065E-01   3.33592720E+01   1.09773290E+00   1.53324616E+00
              903                1   1.49704189E+01   3.62930155E+00   3.62930155E+00  -2.23987903E-02  -1.28291235E+01   3.62930155E+00  -1.28291235E+01  -2.23987903E-02  -1.28291235E+01   1.64584255E+01   3.07407355E+00  -1.39144173E+01   8.33260477E-01   2.77364230E+00  -1.28291235E+01   1.54675746E+00
              903                2   1.49225397E+01   3.49361467E+00   3.49361467E+00   1.13287985E-01  -1.28291235E+01   3.49361467E+00  -1.28291235E+01   1.13287985E-01  -1.28291235E+01   1.63227386E+01   3.07407379E+00  -1.40217543E+01   1.22287667E+00   2.38402605E+00  -1.28291235E+01   1.58732009E+00
              903                3   1.48601818E+01   3.29930735E+00   3.29930735E+00   3.07595372E-01  -1.28291235E+01   3.29930735E+00  -1.28291235E+01   3.07595372E-01  -1.28291235E+01   1.61284313E+01   3.07407379E+00  -1.41586351E+01   8.33969653E-01   2.77293301E+00  -1.28291235E+01   1.13916206E+00
              903                4   1.48089209E+01   3.11898613E+00   3.11898613E+00   4.87916797E-01  -1.28291235E+01   3.11898613E+00  -1.28291235E+01   4.87916797E-01  -1.28291235E+01   1.59481096E+01   3.07407355E+00  -1.42687883E+01   1.22321057E+00   2.38369226E+00  -1.28291235E+01   1.18065739E+00
              904                1   5.64733467E+01   4.96317482E+01   4.96317482E+01  -4.52207994E+00  -8.90563202E+00   4.96317482E+01   4.96317482E+01  -4.52207994E+00  -8.90563202E+00   5.85373802E+01  -1.20680122E+01   5.60886612E+01   1.17099226E+00   4.39386749E+01  -8.90563202E+00   1.66099567E+01
              904                2   5.59988098E+01   4.93012085E+01   4.93012085E+01  -4.19154263E+00  -8.90563202E+00   4.93012085E+01   4.93012085E+01  -4.19154263E+00  -8.90563202E+00   5.82068405E+01  -1.20680113E+01   5.55497627E+01   1.05771792E+00   4.40519485E+01  -8.90563202E+00   1.59135971E+01
              904                3   5.74937515E+01   5.03383484E+01   5.03383484E+01  -5.22867775E+00  -8.90563202E+00   5.03383484E+01   5.03383484E+01  -5.22867775E+00  -8.90563202E+00   5.92439804E+01  -1.20680122E+01   5.72283173E+01   4.55424041E-01   4.46542435E+01  -8.90563202E+00   1.68386364E+01
              904                4   5.70140762E+01   5.00068741E+01   5.00068741E+01  -4.89721060E+00  -8.90563202E+00   5.00068741E+01   5.00068741E+01  -4.89721060E+00  -8.90563202E+00   5.89125061E+01  -1.20680113E+01   5.66957512E+01   3.36804986E-01   4.47728615E+01  -8.90563202E+00   1.61237049E+01
              905                1   2.14951248E+02   2.20553452E+02   2.20553452E+02  -1.71235442E+00   1.37519960E+01   2.20553452E+02   2.20553452E+02   1.37519960E+01  -1.71235442E+00   2.22265808E+02  -7.75310287E+01   2.13694305E+02  -1.71177089E+00   2.20552872E+02   1.37519960E+01   3.58328789E-01
              905                2   2.15033905E+02   2.20571609E+02   2.20571609E+02  -2.21955419E+00   1.42410374E+01   2.20571609E+02   2.20571609E+02   1.42410374E+01  -2.21955419E+00   2.22791153E+02  -7.75310287E+01   2.13609528E+02  -2.19670224E+00   2.20548752E+02   1.42410374E+01   2.25631809E+00
              905                3   2.14757370E+02   2.20482452E+02   2.20482452E+02  -8.18130970E-01   1.29287806E+01   2.20482452E+02   2.20482452E+02   1.29287806E+01  -8.18130970E-01   2.21300583E+02  -7.75310364E+01   2.13764084E+02  -8.09759259E-01   2.20474075E+02   1.29287806E+01   1.36157298E+00
              905                4   2.14879135E+02   2.20529587E+02   2.20529587E+02  -1.35566521E+00   1.34191723E+01   2.20529587E+02   2.20529587E+02   1.34191723E+01  -1.35566521E+00   2.21885254E+02  -7.75310287E+01   2.13731812E+02  -1.30855215E+00   2.20482468E+02   1.34191723E+01   3.23301721E+00
              906                1   3.15499878E+01   2.40702934E+01   2.40702934E+01  -1.84078538E+00  -1.10632486E+01   2.40702934E+01   2.40702934E+01  -1.84078538E+00  -1.10632486E+01   3.51335411E+01  -3.72208619E+00   2.82702751E+01   1.54296982E+00   2.06865368E+01  -1.10632486E+01   8.73080540E+00
              906                2   3.09881325E+01   2.36100941E+01   2.36100941E+01  -1.38058662E+00  -1.10632486E+01   2.36100941E+01   2.36100941E+01  -1.38058662E+00  -1.10632486E+01   3.46733437E+01  -3.72208619E+00   2.72595062E+01   2.07673311E+00   2.01527748E+01  -1.10632486E+01   8.62830830E+00
              906                3   3.12403908E+01   2.38177490E+01   2.38177490E+01  -1.58824074E+00  -1.10632486E+01   2.38177490E+01   2.38177490E+01  -1.58824074E+00  -1.10632486E+01   3.48809967E+01  -3.72208619E+00   2.77201881E+01   1.39447880E+00   2.08350277E+01  -1.10632486E+01   8.17816257E+00
              906                4   3.06676979E+01   2.33437347E+01   2.33437347E+01  -1.11422718E+00  -1.10632486E+01   2.33437347E+01   2.33437347E+01  -1.11422718E+00  -1.10632486E+01   3.44069824E+01  -3.72208619E+00   2.66566124E+01   1.92689943E+00   2.03026085E+01  -1.10632486E+01   8.07039642E+00
              907                1   3.31408806E+01   4.34589844E+01   4.34589844E+01   1.03804007E+01   1.02561636E+01   4.34589844E+01   4.34589844E+01   1.03804007E+01   1.02561636E+01   3.32028236E+01  -2.13651829E+01   3.31403542E+01   1.04059973E+01   4.34333878E+01   1.02561636E+01   9.19829607E-01
              907                2   3.31466904E+01   4.34628677E+01   4.34628677E+01   1.03765182E+01   1.02561636E+01   4.34628677E+01   4.34628677E+01   1.03765182E+01   1.02561636E+01   3.32067032E+01  -2.13651829E+01   3.31461983E+01   1.03893681E+01   4.34500160E+01   1.02561636E+01   6.51956439E-01
              907                3   3.35453987E+01   4.37286224E+01   4.37286224E+01   1.01107626E+01   1.02561636E+01   4.37286224E+01   4.37286224E+01   1.02561636E+01   1.01107626E+01   3.36178589E+01  -2.13651829E+01   3.35446854E+01   1.01370573E+01   4.37023277E+01   1.02561636E+01   9.39843595E-01
              907                4   3.35517960E+01   4.37328796E+01   4.37328796E+01   1.01065073E+01   1.02561636E+01   4.37328796E+01   4.37328796E+01   1.02561636E+01   1.01065073E+01   3.36263733E+01  -2.13651829E+01   3.35510406E+01   1.01199589E+01   4.37194252E+01   1.02561636E+01   6.72473073E-01
              908                1   2.08869751E+02   1.95369217E+02   1.95369217E+02  -1.91164379E+01  -7.39064217E+00   1.95369217E+02   1.95369217E+02  -7.39064217E+00  -1.91164379E+01   2.14485657E+02  -5.62873802E+01   2.08127289E+02  -1.90540657E+01   1.95306839E+02  -7.39064217E+00   3.65716910E+00
              908                2   2.09587570E+02   1.95776505E+02   1.95776505E+02  -2.04859467E+01  -6.42841911E+00   1.95776505E+02   1.95776505E+02  -6.42841911E+00  -2.04859467E+01   2.16262451E+02  -5.62873802E+01   2.08522919E+02  -2.02885818E+01   1.95579132E+02  -6.42841911E+00   6.53034735E+00
              908                3   2.07802597E+02   1.94723557E+02   1.94723557E+02  -1.74629040E+01  -8.39851665E+00   1.94723557E+02   1.94723557E+02  -8.39851665E+00  -1.74629040E+01   2.12186462E+02  -5.62873802E+01   2.07357071E+02  -1.72959805E+01   1.94556625E+02  -8.39851665E+00   5.94912529E+00
              908                4   2.08650772E+02   1.95228989E+02   1.95228989E+02  -1.89398117E+01  -7.42705345E+00   1.95228989E+02   1.95228989E+02  -7.42705345E+00  -1.89398117E+01   2.14168808E+02  -5.62873802E+01   2.07934357E+02  -1.85729313E+01   1.94862122E+02  -7.42705345E+00   8.85654545E+00
              909                1   4.87822495E+01   4.83387680E+01   4.83387680E+01  -1.91591218E-01  -6.91523612E-01   4.83387680E+01   4.83387680E+01  -1.91591218E-01  -6.91523612E-01   4.90302925E+01  -1.58185511E+01   4.87764854E+01   1.18325007E+00   4.69639282E+01  -6.91523612E-01   8.05179310E+00
              909                2   4.91082573E+01   4.85569839E+01   4.85569839E+01  -4.09806818E-01  -6.91523612E-01   4.85569839E+01   4.85569839E+01  -4.09806818E-01  -6.91523612E-01   4.92485085E+01  -1.58185511E+01   4.91064377E+01   1.02188063E+00   4.71252975E+01  -6.91523612E-01   8.24957180E+00
              909                3   4.85844116E+01   4.82061005E+01   4.82061005E+01  -5.89185208E-02  -6.91523612E-01   4.82061005E+01   4.82061005E+01  -5.89185208E-02  -6.91523612E-01   4.88976250E+01  -1.58185530E+01   4.85751419E+01   1.36968458E+00   4.67774963E+01  -6.91523612E-01   8.17989731E+00
              909                4   4.89181862E+01   4.84298210E+01   4.84298210E+01  -2.82643050E-01  -6.91523612E-01   4.84298210E+01   4.84298210E+01  -2.82643050E-01  -6.91523612E-01   4.91213455E+01  -1.58185511E+01   4.89143410E+01   1.20275164E+00   4.69444275E+01  -6.91523612E-01   8.37560844E+00
              910                1   1.87172623E+02   1.89407104E+02   1.89407104E+02   2.23574185E+00   2.23321366E+00   1.89407104E+02   1.89407104E+02   2.23574185E+00   2.23321366E+00   1.87173904E+02  -6.46253586E+01   1.87172638E+02   2.23580098E+00   1.89407059E+02   2.23321366E+00   9.87516195E-02
              910                2   1.87247330E+02   1.89456909E+02   1.89456909E+02   2.18601084E+00   2.23315120E+00   1.89456909E+02   1.89456909E+02   2.23315120E+00   2.18601084E+00   1.87270889E+02  -6.46253586E+01   1.87247314E+02   2.18618703E+00   1.89456726E+02   2.23315120E+00   1.81974307E-01
              910                3   1.87053040E+02   1.89327377E+02   1.89327377E+02   2.31542826E+00   2.23327374E+00   1.89327377E+02   1.89327377E+02   2.31542826E+00   2.23327374E+00   1.87094101E+02  -6.46253586E+01   1.87052994E+02   2.31553173E+00   1.89327271E+02   2.23327374E+00   1.42209440E-01
              910                4   1.87127533E+02   1.89377045E+02   1.89377045E+02   2.26581383E+00   2.23321176E+00   1.89377045E+02   1.89377045E+02   2.26581383E+00   2.23321176E+00   1.87143829E+02  -6.46253586E+01   1.87127518E+02   2.26608825E+00   1.89376770E+02   2.23321176E+00   2.24331960E-01
              911                1   1.16612465E+02   1.37025146E+02   1.37025146E+02   2.00160923E+01   2.08133640E+01   1.37025146E+02   1.37025146E+02   2.08133640E+01   2.00160923E+01   1.17009056E+02  -5.92848701E+01   1.16606323E+02   2.04060459E+01   1.36635193E+02   2.08133640E+01   6.74360752E+00
              911                2   1.16767723E+02   1.37128281E+02   1.37128281E+02   1.99129601E+01   2.08133640E+01   1.37128281E+02   1.37128281E+02   2.08133640E+01   1.99129601E+01   1.17215324E+02  -5.92848701E+01   1.16759911E+02   2.03204937E+01   1.36720749E+02   2.08133640E+01   6.89951277E+00
              911                3   1.16391808E+02   1.36878494E+02   1.36878494E+02   2.01627350E+01   2.08133640E+01   1.36878494E+02   1.36878494E+02   2.08133640E+01   2.01627350E+01   1.16715759E+02  -5.92848663E+01   1.16387718E+02   2.05630112E+01   1.36478226E+02   2.08133640E+01   6.82332706E+00
              911                4   1.16547523E+02   1.36981995E+02   1.36981995E+02   2.00592442E+01   2.08133640E+01   1.36981995E+02   1.36981995E+02   2.08133640E+01   2.00592442E+01   1.16922752E+02  -5.92848701E+01   1.16542030E+02   2.04773579E+01   1.36563889E+02   2.08133640E+01   6.97938919E+00
              912                1   4.60716095E+01   3.97961617E+01   3.97961617E+01  -2.50054073E+00  -9.29561424E+00   3.97961617E+01   3.97961617E+01  -2.50054073E+00  -9.29561424E+00   4.90917740E+01  -9.33333492E+00   4.49234505E+01   6.46642208E+00   3.08291988E+01  -9.29561424E+00   1.72877560E+01
              912                2   4.66199875E+01   4.01930199E+01   4.01930199E+01  -2.89739990E+00  -9.29561424E+00   4.01930199E+01   4.01930199E+01  -2.89739990E+00  -9.29561424E+00   4.94886360E+01  -9.33333492E+00   4.56165123E+01   5.81449413E+00   3.14811268E+01  -9.29561424E+00   1.73061275E+01
              912                3   4.67880898E+01   4.03141479E+01   4.03141479E+01  -3.01852751E+00  -9.29561424E+00   4.03141479E+01   4.03141479E+01  -3.01852751E+00  -9.29561424E+00   4.96097603E+01  -9.33333492E+00   4.58264084E+01   6.52596951E+00   3.07696514E+01  -9.29561424E+00   1.79580383E+01
              912                4   4.73198624E+01   4.06957474E+01   4.06957474E+01  -3.40012717E+00  -9.29561424E+00   4.06957474E+01   4.06957474E+01  -3.40012717E+00  -9.29561424E+00   4.99913597E+01  -9.33333492E+00   4.64828453E+01   5.88190889E+00   3.14137115E+01  -9.29561424E+00   1.79761868E+01
              913                1   1.93644287E+02   2.11605621E+02   2.11605621E+02   1.94951820E+00   3.94622879E+01   2.11605621E+02   2.11605621E+02   3.94622879E+01   1.94951820E+00   2.09656113E+02  -8.43391418E+01   1.85202820E+02   2.72529545E+01   1.86302185E+02   3.94622879E+01   6.82990265E+01
              913                2   1.93051468E+02   2.11446350E+02   2.11446350E+02   3.29912877E+00   3.82719460E+01   2.11446350E+02   2.11446350E+02   3.82719460E+01   3.29912877E+00   2.08147232E+02  -8.43391418E+01   1.85722748E+02   3.22408562E+01   1.82504623E+02   3.82719460E+01   7.20174789E+01
              913                3   1.93083694E+02   2.11604263E+02   2.11604263E+02   3.97942090E+00   3.74337463E+01   2.11604263E+02   2.11604263E+02   3.74337463E+01   3.97942090E+00   2.07624832E+02  -8.43391418E+01   1.86395233E+02   2.71958961E+01   1.88387787E+02   3.74337463E+01   6.54317322E+01
              913                4   1.92485153E+02   2.11433411E+02   2.11433411E+02   5.44724417E+00   3.61367683E+01   2.11433411E+02   2.11433411E+02   3.61367683E+01   5.44724417E+00   2.05986176E+02  -8.43391418E+01   1.86861664E+02   3.21899872E+01   1.84690674E+02   3.61367683E+01   6.92348251E+01
              914                1   3.38456612E+01   4.22728271E+01   4.22728271E+01   8.24041748E+00   8.61705399E+00   4.22728271E+01   4.22728271E+01   8.61705399E+00   8.24041748E+00   3.40324097E+01  -1.97101002E+01   3.38409462E+01   9.35880089E+00   4.11544418E+01   8.61705399E+00   6.06716776E+00
              914                2   3.38644791E+01   4.22853012E+01   4.22853012E+01   8.22794342E+00   8.61705399E+00   4.22853012E+01   4.22853012E+01   8.61705399E+00   8.22794342E+00   3.40573578E+01  -1.97101002E+01   3.38594475E+01   9.26277828E+00   4.12504654E+01   8.61705399E+00   5.84575748E+00
              914                3   3.42151108E+01   4.25173531E+01   4.25173531E+01   7.99588823E+00   8.61705399E+00   4.25173531E+01   4.25173531E+01   8.61705399E+00   7.99588823E+00   3.45214653E+01  -1.97100983E+01   3.42024193E+01   9.13529587E+00   4.13779449E+01   8.61705399E+00   6.16731405E+00
              914                4   3.42336502E+01   4.25296021E+01   4.25296021E+01   7.98364353E+00   8.61705399E+00   4.25296021E+01   4.25296021E+01   8.61705399E+00   7.98364353E+00   3.45459595E+01  -1.97101002E+01   3.42204590E+01   9.03923988E+00   4.14740028E+01   8.61705399E+00   5.94578600E+00
              915                1   3.33190651E+01   3.95133476E+01   3.95133476E+01   4.98799086E+00   7.54829407E+00   3.95133476E+01   3.95133476E+01   7.54829407E+00   4.98799086E+00   3.45253563E+01  -1.73498783E+01   3.30966606E+01   8.02912426E+00   3.64722137E+01   7.54829407E+00   9.78507805E+00
              915                2   3.31061058E+01   3.93762283E+01   3.93762283E+01   5.12510824E+00   7.54829407E+00   3.93762283E+01   3.93762283E+01   7.54829407E+00   5.12510824E+00   3.42511177E+01  -1.73498764E+01   3.29056969E+01   8.05290794E+00   3.64484291E+01   7.54829407E+00   9.57644939E+00
              915                3   3.35705872E+01   3.96750259E+01   3.96750259E+01   4.82631397E+00   7.54829407E+00   3.96750259E+01   3.96750259E+01   7.54829407E+00   4.82631397E+00   3.48487129E+01  -1.73498783E+01   3.33209534E+01   7.81779099E+00   3.66835480E+01   7.54829407E+00   9.76218128E+00
              915                4   3.33592186E+01   3.95391769E+01   3.95391769E+01   4.96216059E+00   7.54829407E+00   3.95391769E+01   3.95391769E+01   7.54829407E+00   4.96216059E+00   3.45770187E+01  -1.73498783E+01   3.31325569E+01   7.84179211E+00   3.66595459E+01   7.54829407E+00   9.55389023E+00
              916                1   1.14447830E+02   1.27087769E+02   1.27087769E+02   1.14809132E+01   1.38352985E+01   1.27087769E+02   1.27087769E+02   1.38352985E+01   1.14809132E+01   1.15606857E+02  -5.08013268E+01   1.14393318E+02   1.52782412E+01   1.23290436E+02   1.38352985E+01   2.06052856E+01
              916                2   1.14199203E+02   1.26923630E+02   1.26923630E+02   1.16450491E+01   1.38352985E+01   1.26923630E+02   1.26923630E+02   1.38352985E+01   1.16450491E+01   1.15278580E+02  -5.08013268E+01   1.14151932E+02   1.53069258E+01   1.23261749E+02   1.38352985E+01   2.02169895E+01
              916                3   1.14984856E+02   1.27441948E+02   1.27441948E+02   1.11267319E+01   1.38352985E+01   1.27441948E+02   1.27441948E+02   1.38352985E+01   1.11267319E+01   1.16315216E+02  -5.08013268E+01   1.14913040E+02   1.48841791E+01   1.23684494E+02   1.38352985E+01   2.05652657E+01
              916                4   1.14728249E+02   1.27272774E+02   1.27272774E+02   1.12959051E+01   1.38352985E+01   1.27272774E+02   1.27272774E+02   1.38352985E+01   1.12959051E+01   1.15976868E+02  -5.08013268E+01   1.14664986E+02   1.49143534E+01   1.23654320E+02   1.38352985E+01   2.01634178E+01
              917                1   4.58218117E+01   4.81300850E+01   4.81300850E+01   2.42216325E+00   2.19522548E+00   4.81300850E+01   4.81300850E+01   2.42216325E+00   2.19522548E+00   4.59348602E+01  -1.75824909E+01   4.58205490E+01   3.30719161E+00   4.72450600E+01   2.19522548E+00   6.29836941E+00
              917                2   4.59505463E+01   4.82160797E+01   4.82160797E+01   2.33616853E+00   2.19522548E+00   4.82160797E+01   4.82160797E+01   2.33616853E+00   2.19522548E+00   4.60208549E+01  -1.75824909E+01   4.59500618E+01   3.16194057E+00   4.73903084E+01   2.19522548E+00   6.09954882E+00
              917                3   4.62145081E+01   4.83921547E+01   4.83921547E+01   2.16009355E+00   2.19522548E+00   4.83921547E+01   4.83921547E+01   2.19522548E+00   2.16009355E+00   4.62320633E+01  -1.75824909E+01   4.62144775E+01   3.08592510E+00   4.74663239E+01   2.19522548E+00   6.47657204E+00
              917                4   4.63463516E+01   4.84799767E+01   4.84799767E+01   2.07227206E+00   2.19522548E+00   4.84799767E+01   4.84799767E+01   2.19522548E+00   2.07227206E+00   4.64077072E+01  -1.75824909E+01   4.63459854E+01   2.93743992E+00   4.76148109E+01   2.19522548E+00   6.27709341E+00
              918                1   1.31943314E+02   1.59275253E+02   1.59275253E+02   2.54163818E+01   2.93348045E+01   1.59275253E+02   1.59275253E+02   2.93348045E+01   2.54163818E+01   1.33858871E+02  -7.13421478E+01   1.31812286E+02   2.65666752E+01   1.58124954E+02   2.93348045E+01   1.23553429E+01
              918                2   1.31748367E+02   1.59147125E+02   1.59147125E+02   2.55445023E+01   2.93348045E+01   1.59147125E+02   1.59147125E+02   2.93348045E+01   2.55445023E+01   1.33602615E+02  -7.13421402E+01   1.31625610E+02   2.68393898E+01   1.57852234E+02   2.93348045E+01   1.30890503E+01
              918                3   1.30876160E+02   1.58573151E+02   1.58573151E+02   2.61184692E+01   2.93348045E+01   1.58573151E+02   1.58573151E+02   2.93348045E+01   2.61184692E+01   1.32454681E+02  -7.13421402E+01   1.30787186E+02   2.72247047E+01   1.57466919E+02   2.93348045E+01   1.20541191E+01
              918                4   1.30707947E+02   1.58462326E+02   1.58462326E+02   2.62292957E+01   2.93348045E+01   1.58462326E+02   1.58462326E+02   2.93348045E+01   2.62292957E+01   1.32233032E+02  -7.13421402E+01   1.30624893E+02   2.74809437E+01   1.57210678E+02   2.93348045E+01   1.28039923E+01
              919                1   1.28615814E+02   1.54484604E+02   1.54484604E+02   2.41687965E+01   2.76390057E+01   1.54484604E+02   1.54484604E+02   2.76390057E+01   2.41687965E+01   1.30315796E+02  -6.87641373E+01   1.28510422E+02   2.54250965E+01   1.53228302E+02   2.76390057E+01   1.27333088E+01
              919                2   1.28541611E+02   1.54435776E+02   1.54435776E+02   2.42176399E+01   2.76390057E+01   1.54435776E+02   1.54435776E+02   2.76390057E+01   2.42176399E+01   1.30218140E+02  -6.87641373E+01   1.28439087E+02   2.55693932E+01   1.53084015E+02   2.76390057E+01   1.31983356E+01
              919                3   1.27880447E+02   1.54000336E+02   1.54000336E+02   2.46530628E+01   2.76390057E+01   1.54000336E+02   1.54000336E+02   2.76390057E+01   2.46530628E+01   1.29347275E+02  -6.87641373E+01   1.27801979E+02   2.58877277E+01   1.52765671E+02   2.76390057E+01   1.25767965E+01
              919                4   1.27837463E+02   1.53972000E+02   1.53972000E+02   2.46813965E+01   2.76390057E+01   1.53972000E+02   1.53972000E+02   2.76390057E+01   2.46813965E+01   1.29290604E+02  -6.87641373E+01   1.27760452E+02   2.60149250E+01   1.52638474E+02   2.76390057E+01   1.30627050E+01
              920                1   1.35302849E+01   4.47145432E-01   4.47145432E-01  -3.06535009E-02  -1.33157101E+01   4.47145432E-01  -1.33157101E+01  -3.06535009E-02  -1.33157101E+01   1.37628555E+01   4.29973936E+00  -1.35112829E+01   1.24044279E-02   4.04087484E-01  -1.33157101E+01   1.36817589E-01
              920                2   1.35789547E+01   9.13137317E-01   9.13137317E-01  -4.96645451E-01  -1.33157101E+01   9.13137317E-01  -1.33157101E+01  -4.96645451E-01  -1.33157101E+01   1.42288475E+01   4.29973936E+00  -1.34128246E+01   1.29502481E-02   4.03541654E-01  -1.33157101E+01   6.77297175E-01
              920                3   1.35392694E+01   5.79922020E-01   5.79922020E-01  -1.63430125E-01  -1.33157101E+01   5.79922020E-01  -1.33157101E+01  -1.63430125E-01  -1.33157101E+01   1.38956318E+01   4.29973936E+00  -1.34932423E+01   5.42852342E-01  -1.26360402E-01  -1.33157101E+01   1.61807552E-01
              920                4   1.35923452E+01   9.94473040E-01   9.94473040E-01  -5.77981114E-01  -1.33157101E+01   9.94473040E-01  -1.33157101E+01  -5.77981114E-01  -1.33157101E+01   1.43101835E+01   4.29973936E+00  -1.33854170E+01   5.44712007E-01  -1.28220096E-01  -1.33157101E+01   7.10593879E-01
              921                1   1.23150787E+02   1.49089081E+02   1.49089081E+02   2.50201721E+01   2.68774128E+01   1.49089081E+02   1.49089081E+02   2.68774128E+01   2.50201721E+01   1.24068909E+02  -6.69955521E+01   1.23119270E+02   2.55283890E+01   1.48580856E+02   2.68774128E+01   7.92439938E+00
              921                2   1.23186905E+02   1.49112976E+02   1.49112976E+02   2.49962788E+01   2.68774128E+01   1.49112976E+02   1.49112976E+02   2.68774128E+01   2.49962788E+01   1.24116692E+02  -6.69955521E+01   1.23154579E+02   2.55630169E+01   1.48546234E+02   2.68774128E+01   8.36783504E+00
              921                3   1.22486191E+02   1.48648911E+02   1.48648911E+02   2.54603348E+01   2.68774128E+01   1.48648911E+02   1.48648911E+02   2.68774128E+01   2.54603348E+01   1.23188583E+02  -6.69955521E+01   1.22467751E+02   2.59654369E+01   1.48143814E+02   2.68774128E+01   7.87196970E+00
              921                4   1.22522430E+02   1.48672928E+02   1.48672928E+02   2.54363041E+01   2.68774128E+01   1.48672928E+02   1.48672928E+02   2.68774128E+01   2.54363041E+01   1.23236626E+02  -6.69955521E+01   1.22503372E+02   2.59998684E+01   1.48109375E+02   2.68774128E+01   8.31467533E+00
              922                1   1.40472336E+02   1.69336914E+02   1.69336914E+02   2.64008865E+01   3.14652462E+01   1.69336914E+02   1.69336914E+02   3.14652462E+01   2.64008865E+01   1.42936035E+02  -7.57343521E+01   1.40266724E+02   2.73396568E+01   1.68398148E+02   3.14652462E+01   1.15457020E+01
              922                2   1.39214035E+02   1.68511429E+02   1.68511429E+02   2.72263737E+01   3.14652462E+01   1.68511429E+02   1.68511429E+02   3.14652462E+01   2.72263737E+01   1.41285065E+02  -7.57343521E+01   1.39068726E+02   2.83796711E+01   1.67358139E+02   3.14652462E+01   1.27127228E+01
              922                3   1.37898895E+02   1.67646317E+02   1.67646317E+02   2.80914955E+01   3.14652462E+01   1.67646317E+02   1.67646317E+02   3.14652462E+01   2.80914955E+01   1.39554825E+02  -7.57343521E+01   1.37806000E+02   2.89433384E+01   1.66794464E+02   3.14652462E+01   1.08698673E+01
              922                4   1.37274490E+02   1.67234695E+02   1.67234695E+02   2.85031147E+01   3.14652462E+01   1.67234695E+02   1.67234695E+02   3.14652462E+01   2.85031147E+01   1.38731583E+02  -7.57343521E+01   1.37202560E+02   2.95727997E+01   1.66165009E+02   3.14652462E+01   1.21348600E+01
              923                1   1.10615509E+02   1.20247856E+02   1.20247856E+02   9.48617077E+00   9.77910423E+00   1.20247856E+02   1.20247856E+02   9.77910423E+00   9.48617077E+00   1.10761681E+02  -4.65043755E+01   1.10614639E+02   9.76294327E+00   1.19971085E+02   9.77910423E+00   5.52981138E+00
              923                2   1.10473885E+02   1.20153542E+02   1.20153542E+02   9.58048344E+00   9.77910423E+00   1.20153542E+02   1.20153542E+02   9.77910423E+00   9.58048344E+00   1.10573059E+02  -4.65043755E+01   1.10473480E+02   9.86186886E+00   1.19872154E+02   9.77910423E+00   5.57086611E+00
              923                3   1.10542854E+02   1.20199478E+02   1.20199478E+02   9.53454685E+00   9.77910423E+00   1.20199478E+02   1.20199478E+02   9.77910423E+00   9.53454685E+00   1.10664932E+02  -4.65043755E+01   1.10542252E+02   9.80172729E+00   1.19932297E+02   9.77910423E+00   5.43103552E+00
              923                4   1.10401344E+02   1.20105225E+02   1.20105225E+02   9.62880135E+00   9.77910423E+00   1.20105225E+02   1.20105225E+02   9.77910423E+00   9.62880135E+00   1.10476425E+02  -4.65043755E+01   1.10401123E+02   9.90050697E+00   1.19833519E+02   9.77910423E+00   5.47202396E+00
              924                1   3.82422638E+01   4.46943588E+01   4.46943588E+01   6.42824793E+00   6.47598982E+00   4.46943588E+01   4.46943588E+01   6.47598982E+00   6.42824793E+00   3.82661133E+01  -1.91995335E+01   3.82421951E+01   7.18966722E+00   4.39329414E+01   6.47598982E+00   5.34385443E+00
              924                2   3.83013496E+01   4.47337151E+01   4.47337151E+01   6.38889122E+00   6.47598982E+00   4.47337151E+01   4.47337151E+01   6.47598982E+00   6.38889122E+00   3.83448257E+01  -1.91995335E+01   3.83011246E+01   7.08672953E+00   4.40358772E+01   6.47598982E+00   5.12557840E+00
              924                3   3.86220970E+01   4.49470139E+01   4.49470139E+01   6.17559195E+00   6.47598982E+00   4.49470139E+01   4.49470139E+01   6.47598982E+00   6.17559195E+00   3.87714195E+01  -1.91995316E+01   3.86194687E+01   6.95719671E+00   4.41654091E+01   6.47598982E+00   5.44912481E+00
              924                4   3.86757889E+01   4.49826622E+01   4.49826622E+01   6.13994598E+00   6.47598982E+00   4.49826622E+01   4.49826622E+01   6.47598982E+00   6.13994598E+00   3.88427162E+01  -1.91995335E+01   3.86725044E+01   6.85669708E+00   4.42659111E+01   6.47598982E+00   5.22750616E+00
              925                1   1.22104797E+02   1.50285156E+02   1.50285156E+02   2.79465847E+01   2.84154682E+01   1.50285156E+02   1.50285156E+02   2.84154682E+01   2.79465847E+01   1.22338570E+02  -6.88824005E+01   1.22102776E+02   2.81035442E+01   1.50128189E+02   2.84154682E+01   4.37925148E+00
              925                2   1.22220421E+02   1.50362076E+02   1.50362076E+02   2.78696613E+01   2.84154682E+01   1.50362076E+02   1.50362076E+02   2.84154682E+01   2.78696613E+01   1.22492409E+02  -6.88824005E+01   1.22217682E+02   2.79996643E+01   1.50232071E+02   2.84154682E+01   3.98840666E+00
              925                3   1.22698196E+02   1.50679672E+02   1.50679672E+02   2.75520439E+01   2.84154682E+01   1.50679672E+02   1.50679672E+02   2.84154682E+01   2.75520439E+01   1.23127632E+02  -6.88823929E+01   1.22691376E+02   2.77161770E+01   1.50515549E+02   2.84154682E+01   4.49244308E+00
              925                4   1.22813019E+02   1.50755951E+02   1.50755951E+02   2.74757710E+01   2.84154682E+01   1.50755951E+02   1.50755951E+02   2.84154682E+01   2.74757710E+01   1.23280174E+02  -6.88823929E+01   1.22804939E+02   2.76123848E+01   1.50619339E+02   2.84154682E+01   4.10152817E+00
              926                1   7.79707108E+01   7.21802444E+01   7.21802444E+01  -5.64328194E+00  -5.93682051E+00   7.21802444E+01   7.21802444E+01  -5.64328194E+00  -5.93682051E+00   7.81170654E+01  -2.02000484E+01   7.79694672E+01  -5.23047686E+00   7.17674408E+01  -5.93682051E+00   5.65292597E+00
              926                2   7.82062378E+01   7.23374786E+01   7.23374786E+01  -5.80051374E+00  -5.93682051E+00   7.23374786E+01   7.23374786E+01  -5.80051374E+00  -5.93682051E+00   7.82742996E+01  -2.02000484E+01   7.82059708E+01  -5.41135502E+00   7.19483185E+01  -5.93682051E+00   5.50060940E+00
              926                3   7.82357941E+01   7.23572006E+01   7.23572006E+01  -5.82023001E+00  -5.93682051E+00   7.23572006E+01   7.23572006E+01  -5.82023001E+00  -5.93682051E+00   7.82940216E+01  -2.02000504E+01   7.82355957E+01  -5.38202858E+00   7.19189987E+01  -5.93682051E+00   5.83657408E+00
              926                4   7.84708176E+01   7.25139236E+01   7.25139236E+01  -5.97695112E+00  -5.93682051E+00   7.25139236E+01   7.25139236E+01  -5.93682051E+00  -5.97695112E+00   7.84908752E+01  -2.02000504E+01   7.84707947E+01  -5.56309080E+00   7.21000595E+01  -5.93682051E+00   5.68447256E+00
              927                1   3.49084091E+01   4.17661133E+01   4.17661133E+01   6.55798101E+00   7.16534853E+00   4.17661133E+01   4.17661133E+01   7.16534853E+00   6.55798101E+00   3.52081299E+01  -1.84964809E+01   3.48965187E+01   8.27279758E+00   4.00512962E+01   7.16534853E+00   7.57857943E+00
              927                2   3.49224815E+01   4.17754097E+01   4.17754097E+01   6.54868174E+00   7.16534853E+00   4.17754097E+01   4.17754097E+01   7.16534853E+00   6.54868174E+00   3.52267303E+01  -1.84964809E+01   3.49102249E+01   8.16816616E+00   4.01559258E+01   7.16534853E+00   7.37742805E+00
              927                3   3.52561150E+01   4.19955902E+01   4.19955902E+01   6.32850313E+00   7.16534853E+00   4.19955902E+01   4.19955902E+01   7.16534853E+00   6.32850313E+00   3.56670876E+01  -1.84964809E+01   3.52337570E+01   8.07014465E+00   4.02539482E+01   7.16534853E+00   7.68673897E+00
              927                4   3.52702255E+01   4.20048904E+01   4.20048904E+01   6.31920338E+00   7.16534853E+00   4.20048904E+01   4.20048904E+01   7.16534853E+00   6.31920338E+00   3.56856842E+01  -1.84964809E+01   3.52473793E+01   7.96510220E+00   4.03589897E+01   7.16534853E+00   7.48505640E+00
              928                1   3.67794342E+01   3.01039715E+01   3.01039715E+01  -1.59910011E+00  -1.02202663E+01   3.01039715E+01   3.01039715E+01  -1.59910011E+00  -1.02202663E+01   4.03242378E+01  -6.09486818E+00   3.43940697E+01   6.45216703E+00   2.20527039E+01  -1.02202663E+01   1.37995291E+01
              928                2   3.70442390E+01   3.03081989E+01   3.03081989E+01  -1.80332685E+00  -1.02202663E+01   3.03081989E+01   3.03081989E+01  -1.80332685E+00  -1.02202663E+01   4.05284653E+01  -6.09486818E+00   3.47938347E+01   5.97330475E+00   2.25315666E+01  -1.02202663E+01   1.37565804E+01
              928                3   3.73220825E+01   3.05212688E+01   3.05212688E+01  -2.01639795E+00  -1.02202663E+01   3.05212688E+01   3.05212688E+01  -2.01639795E+00  -1.02202663E+01   4.07415352E+01  -6.09486818E+00   3.52066078E+01   6.51208639E+00   2.19927845E+01  -1.02202663E+01   1.43095055E+01
              928                4   3.76067772E+01   3.07383537E+01   3.07383537E+01  -2.23348308E+00  -1.02202663E+01   3.07383537E+01   3.07383537E+01  -2.23348308E+00  -1.02202663E+01   4.09586220E+01  -6.09486818E+00   3.56228409E+01   6.03519297E+00   2.24696789E+01  -1.02202663E+01   1.42920408E+01
              929                1   2.16380280E+02   2.21966949E+02   2.21966949E+02  -5.12769127E+00   1.81896935E+01   2.21966949E+02   2.21966949E+02   1.81896935E+01  -5.12769127E+00   2.27094650E+02  -7.83429871E+01   2.13526276E+02  -4.91356373E+00   2.21752823E+02   1.81896935E+01   6.97011280E+00
              929                2   2.16205750E+02   2.21969147E+02   2.21969147E+02  -3.97177792E+00   1.70315819E+01   2.21969147E+02   2.21969147E+02   1.70315819E+01  -3.97177792E+00   2.25940933E+02  -7.83429871E+01   2.13892441E+02  -3.91929913E+00   2.21916672E+02   1.70315819E+01   3.44311237E+00
              929                3   2.16648987E+02   2.21973862E+02   2.21973862E+02  -6.63382006E+00   1.96889133E+01   2.21973862E+02   2.21973862E+02   1.96889133E+01  -6.63382006E+00   2.28607681E+02  -7.83429871E+01   2.13006744E+02  -6.54483461E+00   2.21884872E+02   1.96889133E+01   4.50952864E+00
              929                4   2.16483719E+02   2.21991409E+02   2.21991409E+02  -5.54693747E+00   1.85844879E+01   2.21991409E+02   2.21991409E+02   1.85844879E+01  -5.54693747E+00   2.27538345E+02  -7.83429871E+01   2.13426346E+02  -5.54269600E+00   2.21987167E+02   1.85844879E+01   9.82584119E-01
              930                1   1.18918076E+02   1.39261856E+02   1.39261856E+02   1.95518780E+01   2.11518288E+01   1.39261856E+02   1.39261856E+02   2.11518288E+01   1.95518780E+01   1.19709976E+02  -5.99885216E+01   1.18893852E+02   2.05806370E+01   1.38233093E+02   2.11518288E+01   1.10496397E+01
              930                2   1.18848755E+02   1.39215942E+02   1.39215942E+02   1.95977898E+01   2.11518288E+01   1.39215942E+02   1.39215942E+02   2.11518288E+01   1.95977898E+01   1.19618156E+02  -5.99885216E+01   1.18825897E+02   2.06015015E+01   1.38212234E+02   2.11518288E+01   1.09112234E+01
              930                3   1.19119125E+02   1.39394974E+02   1.39394974E+02   1.94187660E+01   2.11518288E+01   1.39394974E+02   1.39394974E+02   2.11518288E+01   1.94187660E+01   1.19976204E+02  -5.99885216E+01   1.19090759E+02   2.04427376E+01   1.38371002E+02   2.11518288E+01   1.10364504E+01
              930                4   1.19049706E+02   1.39349030E+02   1.39349030E+02   1.94647293E+01   2.11518288E+01   1.39349030E+02   1.39349030E+02   2.11518288E+01   1.94647293E+01   1.19884293E+02  -5.99885254E+01   1.19022804E+02   2.04637070E+01   1.38350037E+02   2.11518288E+01   1.08979044E+01
              931                1   4.02852821E+01   4.56560211E+01   4.56560211E+01   5.38411665E+00   5.35737848E+00   4.56560211E+01   4.56560211E+01   5.38411665E+00   5.35737848E+00   4.02986412E+01  -1.87991734E+01   4.02852592E+01   6.13454342E+00   4.49055939E+01   5.35737848E+00   5.44591618E+00
              931                2   4.03643227E+01   4.57087173E+01   4.57087173E+01   5.33142424E+00   5.35737848E+00   4.57087173E+01   4.57087173E+01   5.35737848E+00   5.33142424E+00   4.03772926E+01  -1.87991734E+01   4.03642998E+01   6.02155542E+00   4.50185852E+01   5.35737848E+00   5.23348808E+00
              931                3   4.06702385E+01   4.59123421E+01   4.59123421E+01   5.12779713E+00   5.35737848E+00   4.59123421E+01   4.59123421E+01   5.35737848E+00   5.12779713E+00   4.07845421E+01  -1.87991734E+01   4.06687813E+01   5.90149021E+00   4.51386490E+01   5.35737848E+00   5.56381845E+00
              931                4   4.07424545E+01   4.59603348E+01   4.59603348E+01   5.07980251E+00   5.35737848E+00   4.59603348E+01   4.59603348E+01   5.35737848E+00   5.07980251E+00   4.08805351E+01  -1.87991734E+01   4.07403259E+01   5.79193687E+00   4.52482033E+01   5.35737848E+00   5.34838533E+00
              932                1   3.57680359E+01   4.10318794E+01   4.10318794E+01   4.83395624E+00   5.70982122E+00   4.10318794E+01   4.10318794E+01   5.70982122E+00   4.83395624E+00   3.61979256E+01  -1.71918850E+01   3.57439003E+01   7.02636909E+00   3.88394699E+01   5.70982122E+00   8.63447094E+00
              932                2   3.57572136E+01   4.10247498E+01   4.10247498E+01   4.84108591E+00   5.70982122E+00   4.10247498E+01   4.10247498E+01   5.70982122E+00   4.84108591E+00   3.61836662E+01  -1.71918850E+01   3.57334595E+01   6.93998861E+00   3.89258499E+01   5.70982122E+00   8.45816708E+00
              932                3   3.60771790E+01   4.12352638E+01   4.12352638E+01   4.63057184E+00   5.70982122E+00   4.12352638E+01   4.12352638E+01   5.70982122E+00   4.63057184E+00   3.66046944E+01  -1.71918850E+01   3.60408287E+01   6.84571314E+00   3.90201225E+01   5.70982122E+00   8.72798729E+00
              932                4   3.60664482E+01   4.12282143E+01   4.12282143E+01   4.63762283E+00   5.70982122E+00   4.12282143E+01   4.12282143E+01   5.70982122E+00   4.63762283E+00   3.65905914E+01  -1.71918850E+01   3.60305634E+01   6.75921059E+00   3.91066284E+01   5.70982122E+00   8.55154705E+00
              933                1   1.03677406E+02   1.04715439E+02   1.04715439E+02   1.03827775E+00   1.03777647E+00   1.04715439E+02   1.04715439E+02   1.03827775E+00   1.03777647E+00   1.03677658E+02  -3.55971642E+01   1.03677414E+02   1.17817867E+00   1.04575539E+02   1.03777647E+00   3.80588698E+00
              933                2   1.03692566E+02   1.04725540E+02   1.04725540E+02   1.02818060E+00   1.03777647E+00   1.04725540E+02   1.04725540E+02   1.03777647E+00   1.02818060E+00   1.03697365E+02  -3.55971642E+01   1.03692566E+02   1.16210866E+00   1.04591614E+02   1.03777647E+00   3.72426200E+00
              933                3   1.03800781E+02   1.04797668E+02   1.04797668E+02   9.56046164E-01   1.03777647E+00   1.04797668E+02   1.04797668E+02   1.03777647E+00   9.56046164E-01   1.03841621E+02  -3.55971642E+01   1.03800713E+02   1.09693229E+00   1.04656784E+02   1.03777647E+00   3.82229137E+00
              933                4   1.03815918E+02   1.04807755E+02   1.04807755E+02   9.45965767E-01   1.03777647E+00   1.04807755E+02   1.04807755E+02   1.03777647E+00   9.45965767E-01   1.03861794E+02  -3.55971642E+01   1.03815826E+02   1.08085585E+00   1.04672867E+02   1.03777647E+00   3.74055862E+00
              934                1   3.89999428E+01   4.40700645E+01   4.40700645E+01   4.99665117E+00   5.14400864E+00   4.40700645E+01   4.40700645E+01   5.14400864E+00   4.99665117E+00   3.90734138E+01  -1.80702419E+01   3.89993172E+01   6.29594660E+00   4.27707672E+01   5.14400864E+00   7.00569677E+00
              934                2   3.90673485E+01   4.41149025E+01   4.41149025E+01   4.95180798E+00   5.14400864E+00   4.41149025E+01   4.41149025E+01   5.14400864E+00   4.95180798E+00   3.91630936E+01  -1.80702400E+01   3.90662880E+01   6.17282534E+00   4.28938866E+01   5.14400864E+00   6.80646133E+00
              934                3   3.93496742E+01   4.43024406E+01   4.43024406E+01   4.76427507E+00   5.14400864E+00   4.43024406E+01   4.43024406E+01   5.14400864E+00   4.76427507E+00   3.95381660E+01  -1.80702419E+01   3.93455505E+01   6.09553051E+00   4.29711838E+01   5.14400864E+00   7.13184357E+00
              934                4   3.94161148E+01   4.43465118E+01   4.43465118E+01   4.72020149E+00   5.14400864E+00   4.43465118E+01   4.43465118E+01   5.14400864E+00   4.72020149E+00   3.96263084E+01  -1.80702400E+01   3.94109879E+01   5.97282457E+00   4.30938873E+01   5.14400864E+00   6.93309116E+00
              935                1   2.14695923E+02   2.18889786E+02   2.18889786E+02  -2.97153997E+00   1.21598358E+01   2.18889786E+02   2.18889786E+02   1.21598358E+01  -2.97153997E+00   2.21861328E+02  -7.60260239E+01   2.13491302E+02  -2.95952249E+00   2.18877762E+02   1.21598358E+01   1.63308358E+00
              935                2   2.14828079E+02   2.18940979E+02   2.18940979E+02  -3.50527143E+00   1.26423645E+01   2.18940979E+02   2.18940979E+02   1.26423645E+01  -3.50527143E+00   2.22446259E+02  -7.60260239E+01   2.13456284E+02  -3.44690466E+00   2.18882614E+02   1.26423645E+01   3.60294533E+00
              935                3   2.14321014E+02   2.18700943E+02   2.18700943E+02  -1.94972456E+00   1.13268518E+01   2.18700943E+02   2.18700943E+02   1.13268518E+01  -1.94972456E+00   2.20650665E+02  -7.60260239E+01   2.13392868E+02  -1.91822112E+00   2.18669449E+02   1.13268518E+01   2.63604307E+00
              935                4   2.14459824E+02   2.18759537E+02   2.18759537E+02  -2.50772977E+00   1.18262844E+01   2.18759537E+02   2.18759537E+02   1.18262844E+01  -2.50772977E+00   2.21267258E+02  -7.60260239E+01   2.13378082E+02  -2.41194081E+00   2.18663742E+02   1.18262844E+01   4.60278511E+00
              936                1   3.45396919E+01   3.48940315E+01   3.48940315E+01   4.59359884E-01   2.50268817E-01   3.48940315E+01   3.48940315E+01   4.59359884E-01   2.50268817E-01   3.46437607E+01  -1.18678856E+01   3.45382690E+01   9.93568182E-01   3.43598213E+01   2.50268817E-01   4.25557470E+00
              936                2   3.47530899E+01   3.50365791E+01   3.50365791E+01   3.16809684E-01   2.50268817E-01   3.50365791E+01   3.50365791E+01   3.16809684E-01   2.50268817E-01   3.47863121E+01  -1.18678856E+01   3.47529488E+01   8.64388108E-01   3.44890022E+01   2.50268817E-01   4.32572937E+00
              936                3   3.44840775E+01   3.48568306E+01   3.48568306E+01   4.96559799E-01   2.50268817E-01   3.48568306E+01   3.48568306E+01   4.96559799E-01   2.50268817E-01   3.46065598E+01  -1.18678856E+01   3.44820976E+01   1.06554735E+00   3.42878418E+01   2.50268817E-01   4.38484192E+00
              936                4   3.46978531E+01   3.49997139E+01   3.49997139E+01   3.53677183E-01   2.50268817E-01   3.49997139E+01   3.49997139E+01   3.53677183E-01   2.50268817E-01   3.47494431E+01  -1.18678856E+01   3.46975098E+01   9.36325610E-01   3.44170647E+01   2.50268817E-01   4.45499277E+00
              937                1   1.64468552E+02   1.89442596E+02   1.89442596E+02   1.78912010E+01   3.31155472E+01   1.89442596E+02   1.89442596E+02   3.31155472E+01   1.78912010E+01   1.71551407E+02  -8.01497803E+01   1.62871933E+02   2.83754177E+01   1.78958389E+02   3.31155472E+01   4.10933380E+01
              937                2   1.68113007E+02   1.91766251E+02   1.91766251E+02   1.55675449E+01   3.31155472E+01   1.91766251E+02   1.91766251E+02   3.31155472E+01   1.55675449E+01   1.76198715E+02  -8.01497803E+01   1.66033768E+02   2.64847260E+01   1.80849075E+02   3.31155472E+01   4.24783287E+01
              937                3   1.63424042E+02   1.88774536E+02   1.88774536E+02   1.85592880E+01   3.31155472E+01   1.88774536E+02   1.88774536E+02   3.31155472E+01   1.85592880E+01   1.70215240E+02  -8.01497879E+01   1.61955902E+02   3.01531963E+01   1.77180618E+02   3.31155472E+01   4.28840485E+01
              937                4   1.67085480E+02   1.91112244E+02   1.91112244E+02   1.62215576E+01   3.31155472E+01   1.91112244E+02   1.91112244E+02   3.31155472E+01   1.62215576E+01   1.74890686E+02  -8.01497803E+01   1.65147583E+02   2.82274361E+01   1.79106369E+02   3.31155472E+01   4.42218781E+01
              938                1   2.42943935E+01   1.67902184E+01   1.67902184E+01   1.28544522E-02  -1.10691500E+01   1.67902184E+01   1.67902184E+01   1.28544522E-02  -1.10691500E+01   2.78593674E+01  -1.91130733E+00   1.70424328E+01   8.15803409E-01   1.59872694E+01  -1.10691500E+01   3.58142900E+00
              938                2   2.47465668E+01   1.72197933E+01   1.72197933E+01  -4.16720778E-01  -1.10691500E+01   1.72197933E+01   1.72197933E+01  -4.16720778E-01  -1.10691500E+01   2.82889423E+01  -1.91130733E+00   1.84154110E+01   3.96889299E-01   1.64061832E+01  -1.10691500E+01   3.69963169E+00
              938                3   2.43720627E+01   1.68649845E+01   1.68649845E+01  -6.19102120E-02  -1.10691500E+01   1.68649845E+01   1.68649845E+01  -6.19102120E-02  -1.10691500E+01   2.79341335E+01  -1.91130793E+00   1.72921467E+01   9.42759693E-01   1.58603134E+01  -1.10691500E+01   3.99957299E+00
              938                4   2.48224487E+01   1.72905998E+01   1.72905998E+01  -4.87525612E-01  -1.10691500E+01   1.72905998E+01   1.72905998E+01  -4.87525612E-01  -1.10691500E+01   2.83597488E+01  -1.91130793E+00   1.86288795E+01   5.23751915E-01   1.62793217E+01  -1.10691500E+01   4.11775923E+00
              939                1   3.74646225E+01   4.19249191E+01   4.19249191E+01   4.20302391E+00   4.72298527E+00   4.19249191E+01   4.19249191E+01   4.72298527E+00   4.20302391E+00   3.77218971E+01  -1.69503098E+01   3.74565048E+01   6.17864466E+00   3.99492989E+01   4.72298527E+00   8.40363789E+00
              939                2   3.74938736E+01   4.19442863E+01   4.19442863E+01   4.18365812E+00   4.72298527E+00   4.19442863E+01   4.19442863E+01   4.72298527E+00   4.18365812E+00   3.77606277E+01  -1.69503098E+01   3.74851456E+01   6.07230949E+00   4.00556335E+01   4.72298527E+00   8.23102188E+00
              939                3   3.77761230E+01   4.21309052E+01   4.21309052E+01   3.99704075E+00   4.72298527E+00   4.21309052E+01   4.21309052E+01   4.72298527E+00   3.99704075E+00   3.81338654E+01  -1.69503098E+01   3.77604256E+01   6.00249338E+00   4.01254501E+01   4.72298527E+00   8.51198387E+00
              939                4   3.78048134E+01   4.21498489E+01   4.21498489E+01   3.97809243E+00   4.72298527E+00   4.21498489E+01   4.21498489E+01   4.72298527E+00   3.97809243E+00   3.81717567E+01  -1.69503078E+01   3.77882996E+01   5.89672422E+00   4.02312164E+01   4.72298527E+00   8.34004879E+00
              940                1   6.14825935E+01   6.13229828E+01   6.13229828E+01   1.19218469E+00  -1.42765152E+00   6.13229828E+01   6.13229828E+01   1.19218469E+00  -1.42765152E+00   6.27506332E+01  -2.03625050E+01   6.13568192E+01   2.05953541E+01   4.19198151E+01  -1.42765152E+00   2.81112976E+01
              940                2   6.24441032E+01   6.19764252E+01   6.19764252E+01   5.38743436E-01  -1.42765152E+00   6.19764252E+01   6.19764252E+01   5.38743436E-01  -1.42765152E+00   6.34040756E+01  -2.03625050E+01   6.23743858E+01   1.90459232E+01   4.34692459E+01  -1.42765152E+00   2.81872749E+01
              940                3   6.33058205E+01   6.25588226E+01   6.25588226E+01  -4.36498374E-02  -1.42765152E+00   6.25588226E+01   6.25588226E+01  -4.36498374E-02  -1.42765152E+00   6.39864731E+01  -2.03625069E+01   6.32717667E+01   2.08966637E+01   4.16185074E+01  -1.42765152E+00   2.95367336E+01
              940                4   6.43761826E+01   6.32782440E+01   6.32782440E+01  -7.63074338E-01  -1.42765152E+00   6.32782440E+01   6.32782440E+01  -7.63074338E-01  -1.42765152E+00   6.47058945E+01  -2.03625069E+01   6.43684616E+01   1.92733803E+01   4.32417908E+01  -1.42765152E+00   2.96934586E+01
              941                1   1.36105515E+02   1.64706650E+02   1.64706650E+02   2.65141220E+01   3.07888393E+01   1.64706650E+02   1.64706650E+02   3.07888393E+01   2.65141220E+01   1.38192520E+02  -7.40031967E+01   1.35954361E+02   2.75566711E+01   1.63664093E+02   3.07888393E+01   1.19576588E+01
              941                2   1.36194626E+02   1.64765137E+02   1.64765137E+02   2.64556217E+01   3.07888393E+01   1.64765137E+02   1.64765137E+02   3.07888393E+01   2.64556217E+01   1.38309525E+02  -7.40031967E+01   1.36039398E+02   2.76975784E+01   1.63523178E+02   3.07888393E+01   1.30473413E+01
              941                3   1.34734100E+02   1.63804810E+02   1.63804810E+02   2.74159489E+01   3.07888393E+01   1.63804810E+02   1.63804810E+02   3.07888393E+01   2.74159489E+01   1.36388870E+02  -7.40031967E+01   1.34639053E+02   2.83922043E+01   1.62828552E+02   3.07888393E+01   1.14977570E+01
              941                4   1.34624466E+02   1.63732620E+02   1.63732620E+02   2.74881477E+01   3.07888393E+01   1.63732620E+02   1.63732620E+02   3.07888393E+01   2.74881477E+01   1.36244461E+02  -7.40031967E+01   1.34533386E+02   2.86568737E+01   1.62563889E+02   3.07888393E+01   1.25644999E+01
              942                1   2.51832695E+01   1.72609844E+01   1.72609844E+01  -3.71004850E-01  -1.15807886E+01   1.72609844E+01   1.72609844E+01  -3.71004850E-01  -1.15807886E+01   2.88417740E+01  -1.76973057E+00   1.81479321E+01   1.35209942E+00   1.55378799E+01  -1.15807886E+01   5.23571157E+00
              942                2   2.56744976E+01   1.77212677E+01   1.77212677E+01  -8.31288993E-01  -1.15807886E+01   1.77212677E+01   1.77212677E+01  -8.31288993E-01  -1.15807886E+01   2.93020554E+01  -1.76972997E+00   1.95550671E+01   8.75280559E-01   1.60146980E+01  -1.15807886E+01   5.36179495E+00
              942                3   2.53780384E+01   1.74452305E+01   1.74452305E+01  -5.55250108E-01  -1.15807886E+01   1.74452305E+01   1.74452305E+01  -5.55250108E-01  -1.15807886E+01   2.90260181E+01  -1.76973057E+00   1.87279778E+01   1.48932707E+00   1.54006529E+01  -1.15807886E+01   5.71166182E+00
              942                4   2.58645706E+01   1.78956375E+01   1.78956375E+01  -1.00565779E+00  -1.15807886E+01   1.78956375E+01   1.78956375E+01  -1.00565779E+00  -1.15807886E+01   2.94764271E+01  -1.76973057E+00   2.00551815E+01   1.01211166E+00   1.58778677E+01  -1.15807886E+01   5.83670044E+00
              943                1   2.61711044E+01   1.81468277E+01   1.81468277E+01  -6.05505824E-01  -1.17522326E+01   1.81468277E+01   1.81468277E+01  -6.05505824E-01  -1.17522326E+01   2.98990612E+01  -1.92969668E+00   1.96557331E+01   2.36208487E+00   1.51792374E+01  -1.17522326E+01   6.84417009E+00
              943                2   2.65951824E+01   1.85364952E+01   1.85364952E+01  -9.95172322E-01  -1.17522326E+01   1.85364952E+01   1.85364952E+01  -9.95172322E-01  -1.17522326E+01   3.02887268E+01  -1.92969668E+00   2.07789917E+01   1.86084151E+00   1.56804810E+01  -1.17522326E+01   6.90115213E+00
              943                3   2.65054035E+01   1.84547920E+01   1.84547920E+01  -9.13470149E-01  -1.17522326E+01   1.84547920E+01   1.84547920E+01  -9.13470149E-01  -1.17522326E+01   3.02070255E+01  -1.92969668E+00   2.05498734E+01   2.49254298E+00   1.50487795E+01  -1.17522326E+01   7.37344122E+00
              943                4   2.69209061E+01   1.88295879E+01   1.88295879E+01  -1.28826439E+00  -1.17522326E+01   1.88295879E+01   1.88295879E+01  -1.28826439E+00  -1.17522326E+01   3.05818195E+01  -1.92969668E+00   2.15765457E+01   1.99303722E+00   1.55482855E+01  -1.17522326E+01   7.43275166E+00
              944                1   2.03675064E+02   1.93752777E+02   1.93752777E+02  -1.32545853E+01  -6.41784430E+00   1.93752777E+02   1.93752777E+02  -6.41784430E+00  -1.32545853E+01   2.07007355E+02  -5.80267792E+01   2.03416656E+02  -1.31806431E+01   1.93678833E+02  -6.41784430E+00   3.91152310E+00
              944                2   2.04056335E+02   1.93979828E+02   1.93979828E+02  -1.41015539E+01  -5.79793692E+00   1.93979828E+02   1.93979828E+02  -5.79793692E+00  -1.41015539E+01   2.08081390E+02  -5.80267792E+01   2.03675690E+02  -1.39302988E+01   1.93808578E+02  -5.79793692E+00   5.96706724E+00
              944                3   2.02928055E+02   1.93282318E+02   1.93282318E+02  -1.20615187E+01  -7.14043713E+00   1.93282318E+02   1.93282318E+02  -7.14043713E+00  -1.20615187E+01   2.05343826E+02  -5.80267830E+01   2.02793732E+02  -1.19230862E+01   1.93143875E+02  -7.14043713E+00   5.32994747E+00
              944                4   2.03327530E+02   1.93527390E+02   1.93527390E+02  -1.29459791E+01  -6.50105381E+00   1.93527390E+02   1.93527390E+02  -6.50105381E+00  -1.29459791E+01   2.06473358E+02  -5.80267830E+01   2.03097504E+02  -1.26808062E+01   1.93262207E+02  -6.50105381E+00   7.39471340E+00
              945                1   1.40300537E+02   1.64640411E+02   1.64640411E+02   2.32468357E+01   2.54590778E+01   1.64640411E+02   1.64640411E+02   2.54590778E+01   2.32468357E+01   1.41393585E+02  -7.11154404E+01   1.40261292E+02   2.34361420E+01   1.64451111E+02   2.54590778E+01   5.17018127E+00
              945                2   1.39443253E+02   1.64072754E+02   1.64072754E+02   2.38145065E+01   2.54590778E+01   1.64072754E+02   1.64072754E+02   2.54590778E+01   2.38145065E+01   1.40258255E+02  -7.11154480E+01   1.39421417E+02   2.40687180E+01   1.63818542E+02   2.54590778E+01   5.96586990E+00
              945                3   1.39054672E+02   1.63815094E+02   1.63815094E+02   2.40721569E+01   2.54590778E+01   1.63815094E+02   1.63815094E+02   2.54590778E+01   2.40721569E+01   1.39742935E+02  -7.11154404E+01   1.39039108E+02   2.42183418E+01   1.63668915E+02   2.54590778E+01   4.51735401E+00
              945                4   1.38190796E+02   1.63241440E+02   1.63241440E+02   2.46458073E+01   2.54590778E+01   1.63241440E+02   1.63241440E+02   2.54590778E+01   2.46458073E+01   1.38595642E+02  -7.11154404E+01   1.38185425E+02   2.48496437E+01   1.63037613E+02   2.54590778E+01   5.31119490E+00
              946                1   3.01211796E+01   2.52947216E+01   2.52947216E+01  -3.34065467E-01  -7.88286066E+00   2.52947216E+01   2.52947216E+01  -3.34065467E-01  -7.88286066E+00   3.31775818E+01  -5.69259834E+00   2.78712273E+01   3.23249519E-01   2.46374054E+01  -7.88286066E+00   4.05143547E+00
              946                2   2.96883507E+01   2.49534817E+01   2.49534817E+01   7.17368582E-03  -7.88286066E+00   2.49534817E+01   2.49534817E+01   7.17368582E-03  -7.88286066E+00   3.28363419E+01  -5.69259834E+00   2.71753902E+01   6.48852825E-01   2.43118019E+01  -7.88286066E+00   3.94914985E+00
              946                3   3.01227703E+01   2.52959671E+01   2.52959671E+01  -3.35312665E-01  -7.88286066E+00   2.52959671E+01   2.52959671E+01  -3.35312665E-01  -7.88286066E+00   3.31788292E+01  -5.69259834E+00   2.78737411E+01   2.18189076E-01   2.47424660E+01  -7.88286066E+00   3.72566748E+00
              946                4   2.96897125E+01   2.49545631E+01   2.49545631E+01   6.09299354E-03  -7.88286066E+00   2.49545631E+01   2.49545631E+01   6.09299354E-03  -7.88286066E+00   3.28374214E+01  -5.69259834E+00   2.71776199E+01   5.43902695E-01   2.44167519E+01  -7.88286066E+00   3.62330031E+00
              947                1   1.87245148E+02   1.88748169E+02   1.88748169E+02   1.51019192E+00   1.49584484E+00   1.88748169E+02   1.88748169E+02   1.51019192E+00   1.49584484E+00   1.87252319E+02  -6.39180717E+01   1.87245148E+02   1.51037419E+00   1.88747986E+02   1.49584484E+00   1.85632348E-01
              947                2   1.87381332E+02   1.88838943E+02   1.88838943E+02   1.41953707E+00   1.49573159E+00   1.88838943E+02   1.88838943E+02   1.49573159E+00   1.41953707E+00   1.87419403E+02  -6.39180717E+01   1.87381287E+02   1.41994858E+00   1.88838531E+02   1.49573159E+00   2.79007822E-01
              947                3   1.87106415E+02   1.88655655E+02   1.88655655E+02   1.60262752E+00   1.49591517E+00   1.88655655E+02   1.88655655E+02   1.60262752E+00   1.49591517E+00   1.87159744E+02  -6.39180641E+01   1.87106354E+02   1.60301340E+00   1.88655273E+02   1.49591517E+00   2.68196225E-01
              947                4   1.87244736E+02   1.88747879E+02   1.88747879E+02   1.51050615E+00   1.49580097E+00   1.88747879E+02   1.88747879E+02   1.51050615E+00   1.49580097E+00   1.87252090E+02  -6.39180641E+01   1.87244736E+02   1.51120639E+00   1.88747192E+02   1.49580097E+00   3.60421449E-01
              948                1   1.42795715E+02   1.71502289E+02   1.71502289E+02   2.65391922E+01   3.09774094E+01   1.71502289E+02   1.71502289E+02   3.09774094E+01   2.65391922E+01   1.44963089E+02  -7.63396301E+01   1.42640411E+02   2.73592854E+01   1.70682190E+02   3.09774094E+01   1.08724642E+01
              948                2   1.42776505E+02   1.71489670E+02   1.71489670E+02   2.65518093E+01   3.09774094E+01   1.71489670E+02   1.71489670E+02   3.09774094E+01   2.65518093E+01   1.44937851E+02  -7.63396301E+01   1.42622055E+02   2.75129871E+01   1.70528488E+02   3.09774094E+01   1.17638025E+01
              948                3   1.41741577E+02   1.70809265E+02   1.70809265E+02   2.72322044E+01   3.09774094E+01   1.70809265E+02   1.70809265E+02   3.09774094E+01   2.72322044E+01   1.43577057E+02  -7.63396301E+01   1.41630173E+02   2.80192127E+01   1.70022263E+02   3.09774094E+01   1.06007862E+01
              948                4   1.41553131E+02   1.70685226E+02   1.70685226E+02   2.73562527E+01   3.09774094E+01   1.70685226E+02   1.70685226E+02   3.09774094E+01   2.73562527E+01   1.43328964E+02  -7.63396301E+01   1.41448853E+02   2.82662716E+01   1.69775208E+02   3.09774094E+01   1.13843327E+01
              949                1   2.61853523E+01   1.95382595E+01   1.95382595E+01  -3.32424670E-01  -1.01338387E+01   1.95382595E+01   1.95382595E+01  -3.32424670E-01  -1.01338387E+01   2.96720982E+01  -3.02399898E+00   2.14330883E+01   4.09921855E-01   1.87959137E+01  -1.01338387E+01   3.76826906E+00
              949                2   2.57461700E+01   1.91479988E+01   1.91479988E+01   5.78366853E-02  -1.01338387E+01   1.91479988E+01   1.91479988E+01   5.78366853E-02  -1.01338387E+01   2.92818375E+01  -3.02399898E+00   2.04046268E+01   7.84923851E-01   1.84209118E+01  -1.01338387E+01   3.65397739E+00
              949                3   2.61596146E+01   1.95156345E+01   1.95156345E+01  -3.09799343E-01  -1.01338387E+01   1.95156345E+01   1.95156345E+01  -3.09799343E-01  -1.01338387E+01   2.96494732E+01  -3.02399898E+00   2.13750496E+01   2.88292080E-01   1.89175434E+01  -1.01338387E+01   3.39112163E+00
              949                4   2.57197609E+01   1.91242371E+01   1.91242371E+01   8.15991312E-02  -1.01338387E+01   1.91242371E+01   1.91242371E+01   8.15991312E-02  -1.01338387E+01   2.92580757E+01  -3.02399898E+00   2.03399906E+01   6.62944436E-01   1.85428905E+01  -1.01338387E+01   3.27603292E+00
              950                1   3.44080124E+01   3.41581688E+01   3.41581688E+01   2.24435166E-01  -7.05283225E-01   3.41581688E+01   3.41581688E+01   2.24435166E-01  -7.05283225E-01   3.48634491E+01  -1.12257729E+01   3.43797340E+01   7.47027576E-01   3.36355743E+01  -7.05283225E-01   4.17856836E+00
              950                2   3.41515732E+01   3.39845734E+01   3.39845734E+01   3.98024708E-01  -7.05283225E-01   3.39845734E+01   3.39845734E+01   3.98024708E-01  -7.05283225E-01   3.46898575E+01  -1.12257719E+01   3.41114426E+01   9.07136738E-01   3.34754639E+01  -7.05283225E-01   4.10366488E+00
              950                3   3.44615631E+01   3.41943550E+01   3.41943550E+01   1.88246414E-01  -7.05283225E-01   3.41943550E+01   3.41943550E+01   1.88246414E-01  -7.05283225E-01   3.48996391E+01  -1.12257729E+01   3.44354858E+01   6.69859886E-01   3.37127419E+01  -7.05283225E-01   4.01819372E+00
              950                4   3.42054634E+01   3.40210953E+01   3.40210953E+01   3.61504823E-01  -7.05283225E-01   3.40210953E+01   3.40210953E+01   3.61504823E-01  -7.05283225E-01   3.47263756E+01  -1.12257719E+01   3.41680031E+01   8.29980016E-01   3.35526199E+01  -7.05283225E-01   3.94324470E+00
              951                1   9.57177429E+01   9.22214432E+01   9.22214432E+01  -3.48290205E+00  -3.50969934E+00   9.22214432E+01   9.22214432E+01  -3.48290205E+00  -3.50969934E+00   9.57311401E+01  -2.84096146E+01   9.57177353E+01  -3.06432056E+00   9.18028641E+01  -3.50969934E+00   6.31542397E+00
              951                2   9.55926666E+01   9.21380310E+01   9.21380310E+01  -3.39948726E+00  -3.50969934E+00   9.21380310E+01   9.21380310E+01  -3.39948726E+00  -3.50969934E+00   9.56477280E+01  -2.84096146E+01   9.55925217E+01  -3.00328898E+00   9.17418289E+01  -3.50969934E+00   6.13961744E+00
              951                3   9.59650726E+01   9.23862762E+01   9.23862762E+01  -3.64773846E+00  -3.50969934E+00   9.23862762E+01   9.23862762E+01  -3.50969934E+00  -3.64773846E+00   9.60340195E+01  -2.84096146E+01   9.59648438E+01  -3.23850274E+00   9.19770432E+01  -3.50969934E+00   6.25564528E+00
              951                4   9.58397980E+01   9.23028030E+01   9.23028030E+01  -3.56426311E+00  -3.50969934E+00   9.23028030E+01   9.23028030E+01  -3.50969934E+00  -3.56426311E+00   9.58670654E+01  -2.84096146E+01   9.58397598E+01  -3.17720866E+00   9.19157486E+01  -3.50969934E+00   6.07914734E+00
              952                1   2.07475677E+02   2.09164642E+02   2.09164642E+02  -6.38577998E-01   4.09761477E+00   2.09164642E+02   2.09164642E+02   4.09761477E+00  -6.38577998E-01   2.09803223E+02  -7.08745575E+01   2.07353989E+02  -6.35699093E-01   2.09161758E+02   4.09761477E+00   7.77535856E-01
              952                2   2.07539383E+02   2.09206100E+02   2.09206100E+02  -7.03884959E-01   4.12147284E+00   2.09206100E+02   2.09206100E+02   4.12147284E+00  -7.03884959E-01   2.09909988E+02  -7.08745651E+01   2.07413101E+02  -6.92007482E-01   2.09194214E+02   4.12147284E+00   1.57935238E+00
              952                3   2.06454407E+02   2.08491867E+02   2.08491867E+02   8.76753107E-02   4.04412365E+00   2.08491867E+02   2.08491867E+02   4.04412365E+00   8.76753107E-02   2.08404190E+02  -7.08745575E+01   2.06369080E+02   9.11169425E-02   2.08488434E+02   4.04412365E+00   8.46072674E-01
              952                4   2.06582016E+02   2.08576141E+02   2.08576141E+02   3.52259609E-03   4.04401636E+00   2.08576141E+02   2.08576141E+02   4.04401636E+00   3.52259609E-03   2.08572617E+02  -7.08745651E+01   2.06493073E+02   1.65499467E-02   2.08563110E+02   4.04401636E+00   1.64869547E+00
              953                1   2.68076954E+01   2.06086121E+01   2.06086121E+01  -2.63442934E-01  -9.62439728E+00   2.06086121E+01   2.06086121E+01  -2.63442934E-01  -9.62439728E+00   3.02330093E+01  -3.57359052E+00   2.26669598E+01   3.67149949E-01   1.99780197E+01  -9.62439728E+00   3.57268953E+00
              953                2   2.63772545E+01   2.02363644E+01   2.02363644E+01   1.08804077E-01  -9.62439728E+00   2.02363644E+01   2.02363644E+01   1.08804077E-01  -9.62439728E+00   2.98607616E+01  -3.57359052E+00   2.17481213E+01   7.21533298E-01   1.96236362E+01  -9.62439728E+00   3.45793271E+00
              953                3   2.68046379E+01   2.06059952E+01   2.06059952E+01  -2.60826111E-01  -9.62439728E+00   2.06059952E+01   2.06059952E+01  -2.60826111E-01  -9.62439728E+00   3.02303925E+01  -3.57359052E+00   2.26606445E+01   2.47777775E-01   2.00973911E+01  -9.62439728E+00   3.21780539E+00
              953                4   2.63741932E+01   2.02336903E+01   2.02336903E+01   1.11479074E-01  -9.62439728E+00   2.02336903E+01   2.02336903E+01   1.11479074E-01  -9.62439728E+00   2.98580875E+01  -3.57359052E+00   2.17413597E+01   6.01354301E-01   1.97438145E+01  -9.62439728E+00   3.10119343E+00
              954                1   2.14292511E+02   2.19071350E+02   2.19071350E+02  -1.26859188E+00   1.13872042E+01   2.19071350E+02   2.19071350E+02   1.13872042E+01  -1.26859188E+00   2.20339951E+02  -7.63966599E+01   2.13449265E+02  -1.26856291E+00   2.19071335E+02   1.13872042E+01   6.95195720E-02
              954                2   2.14347931E+02   2.19090317E+02   2.19090317E+02  -1.57595837E+00   1.16756172E+01   2.19090317E+02   2.19090317E+02   1.16756172E+01  -1.57595837E+00   2.20666275E+02  -7.63966599E+01   2.13423401E+02  -1.56550264E+00   2.19079865E+02   1.16756172E+01   1.51867771E+00
              954                3   2.14129669E+02   2.19000305E+02   2.19000305E+02  -5.61196864E-01   1.07508802E+01   2.19000305E+02   2.19000305E+02   1.07508802E+01  -5.61196864E-01   2.19561493E+02  -7.63966599E+01   2.13455841E+02  -5.59039712E-01   2.18998138E+02   1.07508802E+01   6.88750505E-01
              954                4   2.14188263E+02   2.19022430E+02   2.19022430E+02  -8.84569049E-01   1.10521202E+01   2.19022430E+02   2.19022430E+02   1.10521202E+01  -8.84569049E-01   2.19906998E+02  -7.63966599E+01   2.13437973E+02  -8.63716066E-01   2.19001572E+02   1.10521202E+01   2.14171672E+00
              955                1   6.38885460E+01   5.86847458E+01   5.86847458E+01  -4.56925869E+00  -5.81998062E+00   5.86847458E+01   5.86847458E+01  -4.56925869E+00  -5.81998062E+00   6.45047226E+01  -1.60985012E+01   6.38609924E+01  -2.82238102E+00   5.69378662E+01  -5.81998062E+00   1.03655910E+01
              955                2   6.43309555E+01   5.89822731E+01   5.89822731E+01  -4.86678648E+00  -5.81998062E+00   5.89822731E+01   5.89822731E+01  -4.86678648E+00  -5.81998062E+00   6.48022537E+01  -1.60985012E+01   6.43150635E+01  -3.17627430E+00   5.72917595E+01  -5.81998062E+00   1.02508459E+01
              955                3   6.42202377E+01   5.89078827E+01   5.89078827E+01  -4.79239464E+00  -5.81998062E+00   5.89078827E+01   5.89078827E+01  -4.79239464E+00  -5.81998062E+00   6.47278595E+01  -1.60985012E+01   6.42017288E+01  -2.93414807E+00   5.70496330E+01  -5.81998062E+00   1.07199726E+01
              955                4   6.46602402E+01   5.92032585E+01   5.92032585E+01  -5.08777428E+00  -5.81998062E+00   5.92032585E+01   5.92032585E+01  -5.08777428E+00  -5.81998062E+00   6.50232391E+01  -1.60985012E+01   6.46509171E+01  -3.28801656E+00   5.74034996E+01  -5.81998062E+00   1.06051455E+01
              956                1   2.11560806E+02   2.19562164E+02   2.19562164E+02  -6.38551664E+00   2.61600399E+01   2.19562164E+02   2.19562164E+02   2.61600399E+01  -6.38551664E+00   2.25947678E+02  -7.97788925E+01   2.05815536E+02  -6.35838890E+00   2.19535034E+02   2.61600399E+01  -2.47588468E+00
              956                2   2.11069412E+02   2.19346344E+02   2.19346344E+02  -5.52239895E+00   2.55127373E+01   2.19346344E+02   2.19346344E+02   2.55127373E+01  -5.52239895E+00   2.24868744E+02  -7.97788925E+01   2.05842087E+02  -5.51588583E+00   2.19339828E+02   2.55127373E+01   1.21033216E+00
              956                3   2.10667282E+02   2.19166977E+02   2.19166977E+02  -4.80772829E+00   2.49774323E+01   2.19166977E+02   2.19166977E+02   2.49774323E+01  -4.80772829E+00   2.23974716E+02  -7.97788925E+01   2.05850098E+02  -4.73428106E+00   2.19093536E+02   2.49774323E+01  -4.05517244E+00
              956                4   2.10167648E+02   2.18939789E+02   2.18939789E+02  -3.91412401E+00   2.43110199E+01   2.18939789E+02   2.18939789E+02   2.43110199E+01  -3.91412401E+00   2.22853912E+02  -7.97788925E+01   2.05838806E+02  -3.91303039E+00   2.18938690E+02   2.43110199E+01  -4.94917989E-01
              957                1   2.05889496E+02   2.31675034E+02   2.31675034E+02   4.12849426E+00   5.82576790E+01   2.31675034E+02   2.31675034E+02   5.82576790E+01   4.12849426E+00   2.27546539E+02  -9.80204086E+01   1.88860291E+02   8.89422798E+00   2.26909302E+02   5.82576790E+01   3.25839462E+01
              957                2   2.07197479E+02   2.31949158E+02   2.31949158E+02   1.77153909E+00   6.03405113E+01   2.31949158E+02   2.31949158E+02   6.03405113E+01   1.77153909E+00   2.30177628E+02  -9.80204086E+01   1.87170593E+02   7.44921160E+00   2.26271484E+02   6.03405113E+01   3.57020836E+01
              957                3   2.05107635E+02   2.31435013E+02   2.31435013E+02   5.36213112E+00   5.72640572E+01   2.31435013E+02   2.31435013E+02   5.72640572E+01   5.36213112E+00   2.26072891E+02  -9.80204086E+01   1.89469284E+02   1.22409477E+01   2.24556198E+02   5.72640572E+01   3.88303566E+01
              957                4   2.06442627E+02   2.31718964E+02   2.31718964E+02   2.89201880E+00   5.94502296E+01   2.31718964E+02   2.31718964E+02   5.94502296E+01   2.89201880E+00   2.28826935E+02  -9.80204086E+01   1.87790680E+02   1.07975054E+01   2.23813477E+02   5.94502296E+01   4.17910347E+01
              958                1   3.27574883E+01   3.98074760E+01   3.98074760E+01   6.28621531E+00   7.87131739E+00   3.98074760E+01   3.98074760E+01   7.87131739E+00   6.28621531E+00   3.35212631E+01  -1.79883366E+01   3.26710320E+01   8.91854763E+00   3.71751442E+01   7.87131739E+00   9.01720333E+00
              958                2   3.26734962E+01   3.97527390E+01   3.97527390E+01   6.34095049E+00   7.87131739E+00   3.97527390E+01   3.97527390E+01   7.87131739E+00   6.34095049E+00   3.34117889E+01  -1.79883366E+01   3.25927086E+01   8.85885906E+00   3.72348289E+01   7.87131739E+00   8.81974983E+00
              958                3   3.30664787E+01   4.00085220E+01   4.00085220E+01   6.08516884E+00   7.87131739E+00   4.00085220E+01   4.00085220E+01   7.87131739E+00   6.08516884E+00   3.39233513E+01  -1.79883366E+01   3.29576759E+01   8.71955109E+00   3.73741379E+01   7.87131739E+00   9.07893753E+00
              958                4   3.29832420E+01   3.99544106E+01   3.99544106E+01   6.13927650E+00   7.87131739E+00   3.99544106E+01   3.99544106E+01   7.87131739E+00   6.13927650E+00   3.38151360E+01  -1.79883366E+01   3.28806877E+01   8.65976429E+00   3.74339256E+01   7.87131739E+00   8.88131428E+00
              959                1   6.87524643E+01   7.28994370E+01   7.28994370E+01   1.97471941E+00   6.54752111E+00   7.28994370E+01   7.28994370E+01   6.54752111E+00   1.97471941E+00   7.09247131E+01  -2.71405582E+01   6.84090576E+01   4.06792297E+01   3.41949234E+01   6.54752111E+00   3.53138390E+01
              959                2   7.05371780E+01   7.40491333E+01   7.40491333E+01   8.25016797E-01   6.54752111E+00   7.40491333E+01   7.40491333E+01   6.54752111E+00   8.25016797E-01   7.32241211E+01  -2.71405582E+01   7.00120697E+01   4.08944664E+01   3.39796867E+01   6.54752111E+00   3.64484482E+01
              959                3   6.88698425E+01   7.29752808E+01   7.29752808E+01   1.89888239E+00   6.54752111E+00   7.29752808E+01   7.29752808E+01   6.54752111E+00   1.89888239E+00   7.10763931E+01  -2.71405621E+01   6.85155182E+01   4.18137512E+01   3.30604057E+01   6.54752111E+00   3.52676659E+01
              959                4   7.06207428E+01   7.41027985E+01   7.41027985E+01   7.71363735E-01   6.54752111E+00   7.41027985E+01   7.41027985E+01   6.54752111E+00   7.71363735E-01   7.33314362E+01  -2.71405621E+01   7.00863190E+01   4.20355453E+01   3.28386116E+01   6.54752111E+00   3.63762131E+01
              960                1   2.15361649E+02   2.30911591E+02   2.30911591E+02  -7.85007551E-02   3.56460876E+01   2.30911591E+02   2.30911591E+02   3.56460876E+01  -7.85007551E-02   2.30990082E+02  -8.88263931E+01   2.08538544E+02  -7.82425404E-02   2.30911331E+02   3.56460876E+01   2.42072329E-01
              960                2   2.15675964E+02   2.31017014E+02   2.31017014E+02  -7.55252719E-01   3.62174225E+01   2.31017014E+02   2.31017014E+02   3.62174225E+01  -7.55252719E-01   2.31772263E+02  -8.88263931E+01   2.08366486E+02  -7.15395987E-01   2.30977158E+02   3.62174225E+01  -3.03920531E+00
              960                3   2.16038254E+02   2.31141159E+02   2.31141159E+02  -1.49842334E+00   3.68364487E+01   2.31141159E+02   2.31141159E+02   3.68364487E+01  -1.49842334E+00   2.32639572E+02  -8.88263931E+01   2.08178894E+02  -1.48445296E+00   2.31127182E+02   3.68364487E+01   1.80284631E+00
              960                4   2.16339279E+02   2.31237061E+02   2.31237061E+02  -2.13481641E+00   3.73769379E+01   2.31237061E+02   2.31237061E+02   3.73769379E+01  -2.13481641E+00   2.33371887E+02  -8.88263931E+01   2.07987762E+02  -2.12580013E+00   2.31228043E+02   3.73769379E+01  -1.45106745E+00
              961                1   3.20955772E+01   3.93055534E+01   3.93055534E+01   5.84726381E+00   8.77302933E+00   3.93055534E+01   3.93055534E+01   8.77302933E+00   5.84726381E+00   3.34582901E+01  -1.79752827E+01   3.17934780E+01   9.22906399E+00   3.59237518E+01   8.77302933E+00   1.00852718E+01
              961                2   3.18500710E+01   3.91484108E+01   3.91484108E+01   6.00440645E+00   8.77302933E+00   3.91484108E+01   3.91484108E+01   8.77302933E+00   6.00440645E+00   3.31440048E+01  -1.79752827E+01   3.15776367E+01   9.25751019E+00   3.58953056E+01   8.77302933E+00   9.86094475E+00
              961                3   3.23568344E+01   3.94724770E+01   3.94724770E+01   5.68033934E+00   8.77302933E+00   3.94724770E+01   3.94724770E+01   8.77302933E+00   5.68033934E+00   3.37921371E+01  -1.79752827E+01   3.20217781E+01   9.00124836E+00   3.61515694E+01   8.77302933E+00   1.00594311E+01
              961                4   3.21133881E+01   3.93169403E+01   3.93169403E+01   5.83587503E+00   8.77302933E+00   3.93169403E+01   3.93169403E+01   8.77302933E+00   5.83587503E+00   3.34810677E+01  -1.79752827E+01   3.18090858E+01   9.02963257E+00   3.61231842E+01   8.77302933E+00   9.83515739E+00
              962                1   1.17748451E+02   1.40279404E+02   1.40279404E+02   2.21294880E+01   2.29365616E+01   1.40279404E+02   1.40279404E+02   2.29365616E+01   2.21294880E+01   1.18149918E+02  -6.17818184E+01   1.17742226E+02   2.25258675E+01   1.39883026E+02   2.29365616E+01   6.83189106E+00
              962                2   1.17613716E+02   1.40189865E+02   1.40189865E+02   2.22190228E+01   2.29365616E+01   1.40189865E+02   1.40189865E+02   2.29365616E+01   2.22190228E+01   1.17970840E+02  -6.17818184E+01   1.17608795E+02   2.25891476E+01   1.39819748E+02   2.29365616E+01   6.59747553E+00
              962                3   1.18089424E+02   1.40505844E+02   1.40505844E+02   2.19030514E+01   2.29365616E+01   1.40505844E+02   1.40505844E+02   2.29365616E+01   2.19030514E+01   1.18602791E+02  -6.17818184E+01   1.18079239E+02   2.22915516E+01   1.40117340E+02   2.29365616E+01   6.77688217E+00
              962                4   1.17955116E+02   1.40416672E+02   1.40416672E+02   2.19922333E+01   2.29365616E+01   1.40416672E+02   1.40416672E+02   2.29365616E+01   2.19922333E+01   1.18424438E+02  -6.17818184E+01   1.17946609E+02   2.23547935E+01   1.40054108E+02   2.29365616E+01   6.54255962E+00
              963                1   1.20857826E+02   1.41124405E+02   1.41124405E+02   1.90979977E+01   2.14700603E+01   1.41124405E+02   1.41124405E+02   2.14700603E+01   1.90979977E+01   1.22026405E+02  -6.05641518E+01   1.20805443E+02   2.05868874E+01   1.39635513E+02   2.14700603E+01   1.33965187E+01
              963                2   1.20923508E+02   1.41167770E+02   1.41167770E+02   1.90546494E+01   2.14700603E+01   1.41167770E+02   1.41167770E+02   2.14700603E+01   1.90546494E+01   1.22113113E+02  -6.05641594E+01   1.20869202E+02   2.06138573E+01   1.39608551E+02   2.14700603E+01   1.37101812E+01
              963                3   1.20384453E+02   1.40811646E+02   1.40811646E+02   1.94107628E+01   2.14700603E+01   1.40811646E+02   1.40811646E+02   2.14700603E+01   1.94107628E+01   1.21400887E+02  -6.05641594E+01   1.20344803E+02   2.08984032E+01   1.39324005E+02   2.14700603E+01   1.33562098E+01
              963                4   1.20443794E+02   1.40850876E+02   1.40850876E+02   1.93715267E+01   2.14700603E+01   1.40850876E+02   1.40850876E+02   2.14700603E+01   1.93715267E+01   1.21479347E+02  -6.05641518E+01   1.20402649E+02   2.09279995E+01   1.39294403E+02   2.14700603E+01   1.36622305E+01
              964                1   3.60978546E+01   3.91476669E+01   3.91476669E+01   1.35591412E+00   5.02377319E+00   3.91476669E+01   3.91476669E+01   5.02377319E+00   1.35591412E+00   3.77917519E+01  -1.51757851E+01   3.56750031E+01   2.71812510E+00   3.77854576E+01   5.02377319E+00   7.04447985E+00
              964                2   3.60497017E+01   3.91170044E+01   3.91170044E+01   1.38658321E+00   5.02377319E+00   3.91170044E+01   3.91170044E+01   5.02377319E+00   1.38658321E+00   3.77304192E+01  -1.51757860E+01   3.56333847E+01   2.71296120E+00   3.77906227E+01   5.02377319E+00   6.94878292E+00
              964                3   3.62336731E+01   3.92341232E+01   3.92341232E+01   1.26946020E+00   5.02377319E+00   3.92341232E+01   3.92341232E+01   5.02377319E+00   1.26946020E+00   3.79646606E+01  -1.51757851E+01   3.57921638E+01   2.62748742E+00   3.78760948E+01   5.02377319E+00   7.05073023E+00
              964                4   3.61821175E+01   3.92013130E+01   3.92013130E+01   1.30227232E+00   5.02377319E+00   3.92013130E+01   3.92013130E+01   5.02377319E+00   1.30227232E+00   3.78990402E+01  -1.51757860E+01   3.57477264E+01   2.62376618E+00   3.78798180E+01   5.02377319E+00   6.95248604E+00
              965                1   5.45323677E+01   4.92511597E+01   4.92511597E+01  -2.98882389E+00  -7.31578684E+00   4.92511597E+01   4.92511597E+01  -2.98882389E+00  -7.31578684E+00   5.65669479E+01  -1.29821825E+01   5.41441231E+01   8.40295219E+00   3.78593826E+01  -7.31578684E+00   2.15715942E+01
              965                2   5.58040581E+01   5.01316338E+01   5.01316338E+01  -3.86930132E+00  -7.31578684E+00   5.01316338E+01   5.01316338E+01  -3.86930132E+00  -7.31578684E+00   5.74474220E+01  -1.29821815E+01   5.55638466E+01   8.78149128E+00   3.74808426E+01  -7.31578684E+00   2.28716431E+01
              965                3   5.25266190E+01   4.78430328E+01   4.78430328E+01  -1.58069825E+00  -7.31578684E+00   4.78430328E+01   4.78430328E+01  -1.58069825E+00  -7.31578684E+00   5.51588173E+01  -1.29821815E+01   5.18152046E+01   9.58393478E+00   3.66783981E+01  -7.31578684E+00   2.06675777E+01
              965                4   5.38423958E+01   4.87695961E+01   4.87695961E+01  -2.50725770E+00  -7.31578684E+00   4.87695961E+01   4.87695961E+01  -2.50725770E+00  -7.31578684E+00   5.60853806E+01  -1.29821825E+01   5.33561058E+01   9.95233440E+00   3.63100014E+01  -7.31578684E+00   2.19919815E+01
              966                1   3.87107506E+01   3.66942024E+01   3.66942024E+01  -6.59476817E-01  -3.24408746E+00   3.66942024E+01   3.66942024E+01  -6.59476817E-01  -3.24408746E+00   3.99382896E+01  -1.09302130E+01   3.85159035E+01   6.52132154E-01   3.53825912E+01  -3.24408746E+00   6.87554836E+00
              966                2   3.83712425E+01   3.64591904E+01   3.64591904E+01  -4.24469203E-01  -3.24408746E+00   3.64591904E+01   3.64591904E+01  -4.24469203E-01  -3.24408746E+00   3.97032776E+01  -1.09302111E+01   3.81371231E+01   8.94998372E-01   3.51397247E+01  -3.24408746E+00   6.85023642E+00
              966                3   3.86222191E+01   3.66330070E+01   3.66330070E+01  -5.98279953E-01  -3.24408746E+00   3.66330070E+01   3.66330070E+01  -5.98279953E-01  -3.24408746E+00   3.98770943E+01  -1.09302130E+01   3.84175262E+01   6.22928917E-01   3.54117966E+01  -3.24408746E+00   6.63142633E+00
              966                4   3.82817230E+01   3.63970718E+01   3.63970718E+01  -3.62347186E-01  -3.24408746E+00   3.63970718E+01   3.63970718E+01  -3.62347186E-01  -3.24408746E+00   3.96411591E+01  -1.09302130E+01   3.80365448E+01   8.66012871E-01   3.51687126E+01  -3.24408746E+00   6.60643053E+00
              967                1   3.71743279E+01   4.32549591E+01   4.32549591E+01   5.94378471E+00   6.21901226E+00   4.32549591E+01   4.32549591E+01   6.21901226E+00   5.94378471E+00   3.73111763E+01  -1.84725857E+01   3.71720352E+01   7.28131199E+00   4.19174347E+01   6.21901226E+00   6.93654823E+00
              967                2   3.72206192E+01   4.32857018E+01   4.32857018E+01   5.91304350E+00   6.21901226E+00   4.32857018E+01   4.32857018E+01   6.21901226E+00   5.91304350E+00   3.73726578E+01  -1.84725857E+01   3.72177849E+01   7.16785431E+00   4.20308914E+01   6.21901226E+00   6.73209190E+00
              967                3   3.75287132E+01   4.34899940E+01   4.34899940E+01   5.70875120E+00   6.21901226E+00   4.34899940E+01   4.34899940E+01   6.21901226E+00   5.70875120E+00   3.77812424E+01  -1.84725857E+01   3.75209084E+01   7.07529831E+00   4.21234474E+01   6.21901226E+00   7.05424690E+00
              967                4   3.75743637E+01   4.35202179E+01   4.35202179E+01   5.67852736E+00   6.21901226E+00   4.35202179E+01   4.35202179E+01   6.21901226E+00   5.67852736E+00   3.78416901E+01  -1.84725857E+01   3.75656166E+01   6.96182632E+00   4.22369194E+01   6.21901226E+00   6.84947777E+00
              968                1   1.31499725E+02   1.59867645E+02   1.59867645E+02   2.68276043E+01   2.99643421E+01   1.59867645E+02   1.59867645E+02   2.99643421E+01   2.68276043E+01   1.33040039E+02  -7.22198639E+01   1.31415527E+02   2.74914322E+01   1.59203827E+02   2.99643421E+01   9.37411404E+00
              968                2   1.31376816E+02   1.59786636E+02   1.59786636E+02   2.69086151E+01   2.99643421E+01   1.59786636E+02   1.59786636E+02   2.99643421E+01   2.69086151E+01   1.32878021E+02  -7.22198639E+01   1.31296814E+02   2.76997986E+01   1.58995453E+02   2.99643421E+01   1.02227640E+01
              968                3   1.30253250E+02   1.59045090E+02   1.59045090E+02   2.76501656E+01   2.99643421E+01   1.59045090E+02   1.59045090E+02   2.99643421E+01   2.76501656E+01   1.31394928E+02  -7.22198639E+01   1.30206985E+02   2.82803364E+01   1.58414917E+02   2.99643421E+01   9.07766342E+00
              968                4   1.30100937E+02   1.58944397E+02   1.58944397E+02   2.77508507E+01   2.99643421E+01   1.58944397E+02   1.58944397E+02   2.99643421E+01   2.77508507E+01   1.31193558E+02  -7.22198639E+01   1.30058548E+02   2.85072727E+01   1.58187973E+02   2.99643421E+01   9.93309498E+00
              969                1   9.45758820E+01   9.04823914E+01   9.04823914E+01  -4.09379339E+00  -4.09318781E+00   9.04823914E+01   9.04823914E+01  -4.09318781E+00  -4.09379339E+00   9.45761795E+01  -2.74318027E+01   9.45758743E+01  -3.96653795E+00   9.03551331E+01  -4.09318781E+00   3.46687245E+00
              969                2   9.44522476E+01   9.03999481E+01   9.03999481E+01  -4.01135445E+00  -4.09318781E+00   9.03999481E+01   9.03999481E+01  -4.01135445E+00  -4.09318781E+00   9.44931412E+01  -2.74318027E+01   9.44521637E+01  -3.89089894E+00   9.02794952E+01  -4.09318781E+00   3.37013173E+00
              969                3   9.47118225E+01   9.05729904E+01   9.05729904E+01  -4.18439770E+00  -4.09318781E+00   9.05729904E+01   9.05729904E+01  -4.09318781E+00  -4.18439770E+00   9.47573929E+01  -2.74318027E+01   9.47117157E+01  -4.06287670E+00   9.04514694E+01  -4.09318781E+00   3.39123869E+00
              969                4   9.45883255E+01   9.04906845E+01   9.04906845E+01  -4.10209274E+00  -4.09318781E+00   9.04906845E+01   9.04906845E+01  -4.09318781E+00  -4.10209274E+00   9.45927811E+01  -2.74318027E+01   9.45883255E+01  -3.98721099E+00   9.03758087E+01  -4.09318781E+00   3.29447603E+00
              970                1   1.70896130E+01   6.40872860E+00   6.40872860E+00  -3.89962763E-01  -1.30339394E+01   6.40872860E+00  -1.30339394E+01  -3.89962763E-01  -1.30339394E+01   1.94426689E+01   2.33839107E+00  -1.35008812E+01   6.12360120E-01   5.40640593E+00  -1.30339394E+01   2.41035938E+00
              970                2   1.69042721E+01   6.08434629E+00   6.08434629E+00  -6.55808151E-02  -1.30339394E+01   6.08434629E+00  -1.30339394E+01  -6.55808151E-02  -1.30339394E+01   1.91182861E+01   2.33839130E+00  -1.40340958E+01   1.08292747E+00   4.93583822E+00  -1.30339394E+01   2.39669991E+00
              970                3   1.69302711E+01   6.13166237E+00   6.13166237E+00  -1.12896562E-01  -1.30339394E+01   6.13166237E+00  -1.30339394E+01  -1.12896562E-01  -1.30339394E+01   1.91656017E+01   2.33839107E+00  -1.39620705E+01   5.55044770E-01   5.46372128E+00  -1.30339394E+01   1.92998779E+00
              970                4   1.67370453E+01   5.76259184E+00   5.76259184E+00   2.56174266E-01  -1.30339394E+01   5.76259184E+00  -1.30339394E+01   2.56174266E-01  -1.30339394E+01   1.87965317E+01   2.33839107E+00  -1.44781494E+01   1.02188480E+00   4.99688101E+00  -1.30339394E+01   1.90525842E+00
              971                1   1.89978226E+02   1.86718094E+02   1.86718094E+02  -3.32670403E+00  -3.19348121E+00   1.86718094E+02   1.86718094E+02  -3.19348121E+00  -3.32670403E+00   1.90044800E+02  -6.00659676E+01   1.89978119E+02  -3.30655193E+00   1.86697937E+02  -3.19348121E+00   1.95701718E+00
              971                2   1.90527344E+02   1.87083878E+02   1.87083878E+02  -3.69212341E+00  -3.19384766E+00   1.87083878E+02   1.87083878E+02  -3.19384766E+00  -3.69212341E+00   1.90776001E+02  -6.00659676E+01   1.90525894E+02  -3.67704439E+00   1.87068802E+02  -3.19384766E+00   1.69583786E+00
              971                3   1.90393677E+02   1.86994873E+02   1.86994873E+02  -3.60311246E+00  -3.19384742E+00   1.86994873E+02   1.86994873E+02  -3.19384742E+00  -3.60311246E+00   1.90597977E+02  -6.00659676E+01   1.90392685E+02  -3.57428384E+00   1.86966034E+02  -3.19384742E+00   2.34405804E+00
              971                4   1.90932739E+02   1.87353699E+02   1.87353699E+02  -3.96157122E+00  -3.19420695E+00   1.87353699E+02   1.87353699E+02  -3.19420695E+00  -3.96157122E+00   1.91315262E+02  -6.00659676E+01   1.90929276E+02  -3.93893981E+00   1.87331055E+02  -3.19420695E+00   2.08093476E+00
              972                1   3.14175892E+01   4.01193199E+01   4.01193199E+01   6.59012985E+00   1.13584747E+01   4.01193199E+01   4.01193199E+01   1.13584747E+01   6.59012985E+00   3.35291901E+01  -1.93559742E+01   3.05875702E+01   1.11516657E+01   3.55577850E+01   1.13584747E+01   1.14950848E+01
              972                2   3.09073334E+01   3.98001251E+01   3.98001251E+01   6.90932989E+00   1.13584747E+01   3.98001251E+01   3.98001251E+01   1.13584747E+01   6.90932989E+00   3.28907928E+01  -1.93559761E+01   3.01742496E+01   1.12948227E+01   3.54146309E+01   1.13584747E+01   1.11807775E+01
              972                3   3.16376762E+01   4.02567253E+01   4.02567253E+01   6.45273018E+00   1.13584747E+01   4.02567253E+01   4.02567253E+01   1.13584747E+01   6.45273018E+00   3.38039932E+01  -1.93559761E+01   3.07644825E+01   1.08334494E+01   3.58760033E+01   1.13584747E+01   1.13531990E+01
              972                4   3.11311989E+01   3.99402771E+01   3.99402771E+01   6.76917601E+00   1.13584747E+01   3.99402771E+01   3.99402771E+01   1.13584747E+01   6.76917601E+00   3.31711006E+01  -1.93559761E+01   3.03561363E+01   1.09763708E+01   3.57330818E+01   1.13584747E+01   1.10388775E+01
              973                1   9.36674957E+01   9.10948029E+01   9.10948029E+01  -2.43890238E+00  -2.70592332E+00   9.10948029E+01   9.10948029E+01  -2.43890238E+00  -2.70592332E+00   9.38007278E+01  -2.86499920E+01   9.36666489E+01   2.03341451E-02   8.86355667E+01  -2.70592332E+00   1.49657440E+01
              973                2   9.43326263E+01   9.15383224E+01   9.15383224E+01  -2.88242579E+00  -2.70592332E+00   9.15383224E+01   9.15383224E+01  -2.70592332E+00  -2.88242579E+00   9.44207535E+01  -2.86499920E+01   9.43322525E+01  -4.61043805E-01   8.91169434E+01  -2.70592332E+00   1.49253330E+01
              973                3   9.39518127E+01   9.12845154E+01   9.12845154E+01  -2.62861872E+00  -2.70592332E+00   9.12845154E+01   9.12845154E+01  -2.62861872E+00  -2.70592332E+00   9.39904404E+01  -2.86499920E+01   9.39517441E+01  -6.56320155E-03   8.86624603E+01  -2.70592332E+00   1.54716015E+01
              973                4   9.46207504E+01   9.17301331E+01   9.17301331E+01  -3.07423615E+00  -2.70592332E+00   9.17301331E+01   9.17301331E+01  -2.70592332E+00  -3.07423615E+00   9.48043747E+01  -2.86499920E+01   9.46191406E+01  -4.90175545E-01   8.91460724E+01  -2.70592332E+00   1.54370680E+01
              974                1   1.43672857E+01   1.90152943E+00   1.90152943E+00  -4.39988554E-01  -1.34926910E+01   1.90152943E+00  -1.34926910E+01  -4.39988554E-01  -1.34926910E+01   1.53942204E+01   4.01038313E+00  -1.39282761E+01   1.43075478E-03   1.46011019E+00  -1.34926910E+01   9.15827632E-01
              974                2   1.43068581E+01   1.62133610E+00   1.62133610E+00  -1.59795225E-01  -1.34926910E+01   1.62133610E+00  -1.34926910E+01  -1.59795225E-01  -1.34926910E+01   1.51140270E+01   4.01038313E+00  -1.40541735E+01   5.75011849E-01   8.86529088E-01  -1.34926910E+01   8.76838923E-01
              974                3   1.43008165E+01   1.58838105E+00   1.58838105E+00  -1.26840100E-01  -1.34926910E+01   1.58838105E+00  -1.34926910E+01  -1.26840100E-01  -1.34926910E+01   1.50810719E+01   4.01038313E+00  -1.40666084E+01  -5.74515313E-02   1.51899242E+00  -1.34926910E+01   3.37937921E-01
              974                4   1.42372627E+01   1.09261906E+00   1.09261906E+00   3.68921876E-01  -1.34926910E+01   1.09261906E+00  -1.34926910E+01   3.68921876E-01  -1.34926910E+01   1.45853100E+01   4.01038313E+00  -1.41957912E+01   5.12763441E-01   9.48777497E-01  -1.34926910E+01   2.88803279E-01
              975                1   1.18199112E+02   1.36159561E+02   1.36159561E+02   1.70131817E+01   1.89310608E+01   1.36159561E+02   1.36159561E+02   1.89310608E+01   1.70131817E+01   1.19146385E+02  -5.73679352E+01   1.18164085E+02   1.85585423E+01   1.34614197E+02   1.89310608E+01   1.34809580E+01
              975                2   1.18224060E+02   1.36176056E+02   1.36176056E+02   1.69966812E+01   1.89310608E+01   1.36176056E+02   1.36176056E+02   1.89310608E+01   1.69966812E+01   1.19179382E+02  -5.73679352E+01   1.18188446E+02   1.85536366E+01   1.34619110E+02   1.89310608E+01   1.35326471E+01
              975                3   1.18123970E+02   1.36109863E+02   1.36109863E+02   1.70628738E+01   1.89310608E+01   1.36109863E+02   1.36109863E+02   1.89310608E+01   1.70628738E+01   1.19046982E+02  -5.73679314E+01   1.18090736E+02   1.86099625E+01   1.34562775E+02   1.89310608E+01   1.34826689E+01
              975                4   1.18148735E+02   1.36126251E+02   1.36126251E+02   1.70465012E+01   1.89310608E+01   1.36126251E+02   1.36126251E+02   1.89310608E+01   1.70465012E+01   1.19079742E+02  -5.73679352E+01   1.18114906E+02   1.86052341E+01   1.34567505E+02   1.89310608E+01   1.35345545E+01
              976                1   1.70436630E+02   1.84108582E+02   1.84108582E+02   1.04602432E+00   3.00095520E+01   1.84108582E+02   1.84108582E+02   3.00095520E+01   1.04602432E+00   1.83062546E+02  -7.17213821E+01   1.64762848E+02   4.08034821E+01   1.44351120E+02   3.00095520E+01   7.54814301E+01
              976                2   1.68683731E+02   1.83019699E+02   1.83019699E+02   2.13490868E+00   3.00095520E+01   1.83019699E+02   1.83019699E+02   3.00095520E+01   2.13490868E+00   1.80884781E+02  -7.17213821E+01   1.63381226E+02   4.41665611E+01   1.40988037E+02   3.00095520E+01   7.63952026E+01
              976                3   1.65336304E+02   1.80935226E+02   1.80935226E+02   4.21937752E+00   3.00095520E+01   1.80935226E+02   1.80935226E+02   3.00095520E+01   4.21937752E+00   1.76715851E+02  -7.17213821E+01   1.60717239E+02   4.18968086E+01   1.43257797E+02   3.00095520E+01   7.23782425E+01
              976                4   1.63574829E+02   1.79835541E+02   1.79835541E+02   5.31906271E+00   3.00095520E+01   1.79835541E+02   1.79835541E+02   3.00095520E+01   5.31906271E+00   1.74516479E+02  -7.17213821E+01   1.59301407E+02   4.51854401E+01   1.39969162E+02   3.00095520E+01   7.32667160E+01
              977                1   4.44682121E+01   4.55326538E+01   4.55326538E+01   1.19878364E+00   9.31306601E-01   4.55326538E+01   4.55326538E+01   1.19878364E+00   9.31306601E-01   4.46013489E+01  -1.58875809E+01   4.44664040E+01   2.72632170E+00   4.40051155E+01   9.31306601E-01   8.08630466E+00
              977                2   4.47757874E+01   4.57380867E+01   4.57380867E+01   9.93351638E-01   9.31306601E-01   4.57380867E+01   4.57380867E+01   9.93351638E-01   9.31306601E-01   4.48067780E+01  -1.58875809E+01   4.47756958E+01   2.57448268E+00   4.41569557E+01   9.31306601E-01   8.26119137E+00
              977                3   4.43087654E+01   4.54259682E+01   4.54259682E+01   1.30546904E+00   9.31306601E-01   4.54259682E+01   4.54259682E+01   1.30546904E+00   9.31306601E-01   4.44946632E+01  -1.58875809E+01   4.43052101E+01   2.89948893E+00   4.38319473E+01   9.31306601E-01   8.23335361E+00
              977                4   4.46158257E+01   4.56313057E+01   4.56313057E+01   1.10013294E+00   9.31306601E-01   4.56313057E+01   4.56313057E+01   1.10013294E+00   9.31306601E-01   4.46999969E+01  -1.58875809E+01   4.46151085E+01   2.74935174E+00   4.39820862E+01   9.31306601E-01   8.40962029E+00
              978                1   6.48990326E+01   5.87134705E+01   5.87134705E+01  -5.57631779E+00  -6.77811432E+00   5.87134705E+01   5.87134705E+01  -5.57631779E+00  -6.77811432E+00   6.54915848E+01  -1.54530134E+01   6.48739929E+01  -3.05921364E+00   5.61963692E+01  -6.77811432E+00   1.24694901E+01
              978                2   6.43137512E+01   5.83189392E+01   5.83189392E+01  -5.18178606E+00  -6.77811432E+00   5.83189392E+01   5.83189392E+01  -5.18178606E+00  -6.77811432E+00   6.50970535E+01  -1.54530134E+01   6.42691498E+01  -2.57358742E+00   5.57107430E+01  -6.77811432E+00   1.26023684E+01
              978                3   6.45250168E+01   5.84615021E+01   5.84615021E+01  -5.32434940E+00  -6.77811432E+00   5.84615021E+01   5.84615021E+01  -5.32434940E+00  -6.77811432E+00   6.52396164E+01  -1.54530134E+01   6.44881592E+01  -2.97395515E+00   5.61111107E+01  -6.77811432E+00   1.20165482E+01
              978                4   6.39322853E+01   5.80610924E+01   5.80610924E+01  -4.92393780E+00  -6.77811432E+00   5.80610924E+01   5.80610924E+01  -4.92393780E+00  -6.77811432E+00   6.48392029E+01  -1.54530134E+01   6.38717461E+01  -2.48642707E+00   5.56235809E+01  -6.77811432E+00   1.21484652E+01
              979                1   2.17409439E+02   2.06576263E+02   2.06576263E+02  -2.44777699E+01   6.03518724E+00   2.06576263E+02   2.06576263E+02   6.03518724E+00  -2.44777699E+01   2.31054031E+02  -6.27112274E+01   2.12511978E+02  -2.43313599E+01   2.06429855E+02   6.03518724E+00  -5.81440592E+00
              979                2   2.17684372E+02   2.06565201E+02   2.06565201E+02  -2.57995434E+01   7.36803102E+00   2.06565201E+02   2.06565201E+02   7.36803102E+00  -2.57995434E+01   2.32364746E+02  -6.27112274E+01   2.11887497E+02  -2.57212067E+01   2.06486862E+02   7.36803102E+00  -4.26573133E+00
              979                3   2.17402069E+02   2.06734695E+02   2.06734695E+02  -2.33534203E+01   4.75240564E+00   2.06734695E+02   2.06734695E+02   4.75240564E+00  -2.33534203E+01   2.30088104E+02  -6.27112274E+01   2.13257233E+02  -2.33032341E+01   2.06684509E+02   4.75240564E+00  -3.39759469E+00
              979                4   2.17677734E+02   2.06723572E+02   2.06723572E+02  -2.47824936E+01   6.19260120E+00   2.06723572E+02   2.06723572E+02   6.19260120E+00  -2.47824936E+01   2.31506073E+02  -6.27112274E+01   2.12634644E+02  -2.47656574E+01   2.06706741E+02   6.19260120E+00  -1.97426903E+00
              980                1   2.18629013E+02   2.14054443E+02   2.14054443E+02  -2.15789967E+01   1.77755966E+01   2.14054443E+02   2.14054443E+02   1.77755966E+01  -2.15789967E+01   2.35633438E+02  -7.00836792E+01   2.10437515E+02  -2.15112133E+01   2.13986664E+02   1.77755966E+01  -3.99585176E+00
              980                2   2.18452698E+02   2.14221497E+02   2.14221497E+02  -2.00244102E+01   1.60539665E+01   2.14221497E+02   2.14221497E+02   1.60539665E+01  -2.00244102E+01   2.34245911E+02  -7.00836868E+01   2.11593689E+02  -2.00236816E+01   2.14220764E+02   1.60539665E+01   4.13145274E-01
              980                3   2.18283295E+02   2.14165878E+02   2.14165878E+02  -1.96427937E+01   1.57279625E+01   2.14165878E+02   2.14165878E+02   1.57279625E+01  -1.96427937E+01   2.33808670E+02  -7.00836868E+01   2.11691452E+02  -1.94539890E+01   2.13977081E+02   1.57279625E+01  -6.64132404E+00
              980                4   2.18101624E+02   2.14312836E+02   2.14312836E+02  -1.79861679E+01   1.39243841E+01   2.14312836E+02   2.14312836E+02   1.39243841E+01  -1.79861679E+01   2.32298996E+02  -7.00836792E+01   2.12754425E+02  -1.79640923E+01   2.14290756E+02   1.39243841E+01  -2.26427364E+00
              981                1   1.60112801E+01   4.45590258E+00   4.45590258E+00  -1.96621284E-01  -1.33663788E+01   4.45590258E+00  -1.33663788E+01  -1.96621284E-01  -1.33663788E+01   1.78222809E+01   3.03569913E+00  -1.43682833E+01  -1.19744092E-01   4.37902546E+00  -1.33663788E+01   5.93095183E-01
              981                2   1.60491352E+01   4.54128838E+00   4.54128838E+00  -2.82007068E-01  -1.33663788E+01   4.54128838E+00  -1.33663788E+01  -2.82007068E-01  -1.33663788E+01   1.79076672E+01   3.03569913E+00  -1.42766027E+01   3.94352479E-03   4.25533772E+00  -1.33663788E+01   1.13905931E+00
              981                3   1.57953663E+01   3.89664960E+00   3.89664960E+00   3.62631619E-01  -1.33663788E+01   3.89664960E+00  -1.33663788E+01   3.62631619E-01  -1.33663788E+01   1.72630291E+01   3.03569913E+00  -1.48663006E+01   4.26331758E-01   3.83294964E+00  -1.33663788E+01   4.70169425E-01
              981                4   1.58339148E+01   4.00813580E+00   4.00813580E+00   2.51145303E-01  -1.33663788E+01   4.00813580E+00  -1.33663788E+01   2.51145303E-01  -1.33663788E+01   1.73745155E+01   3.03569913E+00  -1.47803144E+01   5.49624205E-01   3.70965719E+00  -1.33663788E+01   1.01601791E+00
              982                1   1.38941315E+02   1.67396301E+02   1.67396301E+02   2.66647396E+01   3.03172493E+01   1.67396301E+02   1.67396301E+02   3.03172493E+01   2.66647396E+01   1.40731552E+02  -7.47927628E+01   1.38833237E+02   2.72346153E+01   1.66826416E+02   3.03172493E+01   8.93730068E+00
              982                2   1.38507553E+02   1.67110672E+02   1.67110672E+02   2.69503689E+01   3.03172493E+01   1.67110672E+02   1.67110672E+02   3.03172493E+01   2.69503689E+01   1.40160294E+02  -7.47927628E+01   1.38415436E+02   2.76686687E+01   1.66392365E+02   3.03172493E+01   1.00080748E+01
              982                3   1.37341583E+02   1.66341537E+02   1.66341537E+02   2.77195015E+01   3.03172493E+01   1.66341537E+02   1.66341537E+02   3.03172493E+01   2.77195015E+01   1.38622040E+02  -7.47927628E+01   1.37286301E+02   2.82342987E+01   1.65826736E+02   3.03172493E+01   8.43191719E+00
              982                4   1.36872192E+02   1.66031326E+02   1.66031326E+02   2.80297031E+01   3.03172493E+01   1.66031326E+02   1.66031326E+02   3.03172493E+01   2.80297031E+01   1.38001633E+02  -7.47927628E+01   1.36829178E+02   2.86843071E+01   1.65376724E+02   3.03172493E+01   9.48200321E+00
              983                1   7.56222305E+01   6.91782837E+01   6.91782837E+01  -5.92079496E+00  -6.95646048E+00   6.91782837E+01   6.91782837E+01  -5.92079496E+00  -6.95646048E+00   7.61347504E+01  -1.87670116E+01   7.56062698E+01  -7.73499191E-01   6.40309906E+01  -6.95646048E+00   1.89753151E+01
              983                2   7.46947708E+01   6.85543060E+01   6.85543060E+01  -5.29681301E+00  -6.95646048E+00   6.85543060E+01   6.85543060E+01  -5.29681301E+00  -6.95646048E+00   7.55107651E+01  -1.87670116E+01   7.46532669E+01   5.05802780E-02   6.32069130E+01  -6.95646048E+00   1.91393909E+01
              983                3   7.49580688E+01   6.87317276E+01   6.87317276E+01  -5.47423840E+00  -6.95646048E+00   6.87317276E+01   6.87317276E+01  -5.47423840E+00  -6.95646048E+00   7.56881943E+01  -1.87670116E+01   7.49250870E+01  -6.99793696E-01   6.39572868E+01  -6.95646048E+00   1.82070560E+01
              983                4   7.40063248E+01   6.80893097E+01   6.80893097E+01  -4.83181238E+00  -6.95646048E+00   6.80893097E+01   6.80893097E+01  -4.83181238E+00  -6.95646048E+00   7.50457687E+01  -1.87670116E+01   7.39376526E+01   1.18605420E-01   6.31388893E+01  -6.95646048E+00   1.83434849E+01
              984                1   3.18549156E+01   3.14418736E+01   3.14418736E+01   4.70568007E-03  -8.14970553E-01   3.14418736E+01   3.14418736E+01   4.70568007E-03  -8.14970553E-01   3.22568436E+01  -1.02105360E+01   3.18311749E+01   8.02278221E-02   3.13663521E+01  -8.14970553E-01   1.53898335E+00
              984                2   3.14665852E+01   3.11789455E+01   3.11789455E+01   2.67632812E-01  -8.14970553E-01   3.11789455E+01   3.11789455E+01   2.67632812E-01  -8.14970553E-01   3.19939175E+01  -1.02105360E+01   3.14246426E+01   3.33115399E-01   3.11134644E+01  -8.14970553E-01   1.42121112E+00
              984                3   3.19965916E+01   3.15375004E+01   3.15375004E+01  -9.09218639E-02  -8.14970553E-01   3.15375004E+01   3.15375004E+01  -9.09218639E-02  -8.14970553E-01   3.23524704E+01  -1.02105360E+01   3.19781513E+01  -3.85908522E-02   3.14851704E+01  -8.14970553E-01   1.28545403E+00
              984                4   3.16100597E+01   3.12762299E+01   3.12762299E+01   1.70349613E-01  -8.14970553E-01   3.12762299E+01   3.12762299E+01   1.70349613E-01  -8.14970553E-01   3.20912018E+01  -1.02105360E+01   3.15754795E+01   2.14231953E-01   3.12323475E+01  -8.14970553E-01   1.16750109E+00
              985                1   1.87427521E+02   1.87777115E+02   1.87777115E+02   3.67178053E-01   3.31989884E-01   1.87777115E+02   1.87777115E+02   3.67178053E-01   3.31989884E-01   1.87445114E+02  -6.28254242E+01   1.87427521E+02   3.67582798E-01   1.87776703E+02   3.31989884E-01   2.75897264E-01
              985                2   1.87634995E+02   1.87915405E+02   1.87915405E+02   2.29049116E-01   3.31816614E-01   1.87915405E+02   1.87915405E+02   3.31816614E-01   2.29049116E-01   1.87686356E+02  -6.28254242E+01   1.87634933E+02   2.29793325E-01   1.87914658E+02   3.31816614E-01   3.74745876E-01
              985                3   1.87277145E+02   1.87676834E+02   1.87676834E+02   4.67368692E-01   3.32070768E-01   1.87676834E+02   1.87676834E+02   4.67368692E-01   3.32070768E-01   1.87344757E+02  -6.28254242E+01   1.87277023E+02   4.68247056E-01   1.87675949E+02   3.32070768E-01   4.05370414E-01
              985                4   1.87489990E+02   1.87818756E+02   1.87818756E+02   3.25623095E-01   3.31893623E-01   1.87818756E+02   1.87818756E+02   3.31893623E-01   3.25623095E-01   1.87493134E+02  -6.28254242E+01   1.87490005E+02   3.26988101E-01   1.87817398E+02   3.31893623E-01   5.04499197E-01
              986                1   1.95183670E+02   1.89568878E+02   1.89568878E+02  -6.08963823E+00  -5.13646173E+00   1.89568878E+02   1.89568878E+02  -5.13646173E+00  -6.08963823E+00   1.95658508E+02  -5.94475899E+01   1.95178436E+02  -6.02398014E+00   1.89503220E+02  -5.13646173E+00   3.58342528E+00
              986                2   1.96166351E+02   1.90221878E+02   1.90221878E+02  -6.74200630E+00  -5.13709831E+00   1.90221878E+02   1.90221878E+02  -5.13709831E+00  -6.74200630E+00   1.96963882E+02  -5.94475899E+01   1.96151581E+02  -6.68852425E+00   1.90168396E+02  -5.13709831E+00   3.24522924E+00
              986                3   1.95793137E+02   1.89973999E+02   1.89973999E+02  -6.49429274E+00  -5.13693666E+00   1.89973999E+02   1.89973999E+02  -5.13693666E+00  -6.49429274E+00   1.96468292E+02  -5.94475899E+01   1.95782547E+02  -6.40091085E+00   1.89880615E+02  -5.13693666E+00   4.28230524E+00
              986                4   1.96754562E+02   1.90612244E+02   1.90612244E+02  -7.13191795E+00  -5.13756084E+00   1.90612244E+02   1.90612244E+02  -5.13756084E+00  -7.13191795E+00   1.97744171E+02  -5.94475899E+01   1.96731827E+02  -7.05331278E+00   1.90533646E+02  -5.13756084E+00   3.94173741E+00
              987                1   2.07355530E+02   2.04315765E+02   2.04315765E+02  -6.27516127E+00   3.54634613E-01   2.04315765E+02   2.04315765E+02   3.54634613E-01  -6.27516127E+00   2.10590927E+02  -6.61317444E+01   2.07116867E+02  -6.15364647E+00   2.04194244E+02   3.54634613E-01   5.05730295E+00
              987                2   2.08113007E+02   2.04778900E+02   2.04778900E+02  -7.63386822E+00   1.25019538E+00   2.04778900E+02   2.04778900E+02   1.25019538E+00  -7.63386822E+00   2.12412766E+02  -6.61317444E+01   2.07685715E+02  -7.58080053E+00   2.04725830E+02   1.25019538E+00   3.35716081E+00
              987                3   2.07728256E+02   2.04534348E+02   2.04534348E+02  -7.21864605E+00   1.07952344E+00   2.04534348E+02   2.04534348E+02   1.07952344E+00  -7.21864605E+00   2.11752991E+02  -6.61317444E+01   2.07354843E+02  -6.93731070E+00   2.04253021E+02   1.07952344E+00   7.71317911E+00
              987                4   2.08500900E+02   2.04998444E+02   2.04998444E+02  -8.58407402E+00   1.98086703E+00   2.04998444E+02   2.04998444E+02   1.98086703E+00  -8.58407402E+00   2.13582520E+02  -6.61317444E+01   2.07897385E+02  -8.42791843E+00   2.04842285E+02   1.98086703E+00   5.77303076E+00
              988                1   1.20870613E+02   1.48034592E+02   1.48034592E+02   2.67433567E+01   2.75890617E+01   1.48034592E+02   1.48034592E+02   2.75890617E+01   2.67433567E+01   1.21291245E+02  -6.74556732E+01   1.20863953E+02   2.68932114E+01   1.47884750E+02   2.75890617E+01   4.26065302E+00
              988                2   1.20861458E+02   1.48028519E+02   1.48028519E+02   2.67494354E+01   2.75890617E+01   1.48028519E+02   1.48028519E+02   2.75890617E+01   2.67494354E+01   1.21279083E+02  -6.74556732E+01   1.20854897E+02   2.69246731E+01   1.47853287E+02   2.75890617E+01   4.60669374E+00
              988                3   1.20350540E+02   1.47688843E+02   1.47688843E+02   2.70891075E+01   2.75890617E+01   1.47688843E+02   1.47688843E+02   2.75890617E+01   2.70891075E+01   1.20599739E+02  -6.74556732E+01   1.20348198E+02   2.72370167E+01   1.47540939E+02   2.75890617E+01   4.22085619E+00
              988                4   1.20341248E+02   1.47682663E+02   1.47682663E+02   2.70952892E+01   2.75890617E+01   1.47682663E+02   1.47682663E+02   2.75890617E+01   2.70952892E+01   1.20587379E+02  -6.74556732E+01   1.20338966E+02   2.72684784E+01   1.47509476E+02   2.75890617E+01   4.56667471E+00
              989                1   1.54620956E+02   1.80547760E+02   1.80547760E+02   2.33832016E+01   2.86025925E+01   1.80547760E+02   1.80547760E+02   2.86025925E+01   2.33832016E+01   1.57164566E+02  -7.75111923E+01   1.54422562E+02   2.41637764E+01   1.79767197E+02   2.86025925E+01   1.10484705E+01
              989                2   1.54300003E+02   1.80337204E+02   1.80337204E+02   2.35937824E+01   2.86025925E+01   1.80337204E+02   1.80337204E+02   2.86025925E+01   2.35937824E+01   1.56743423E+02  -7.75111923E+01   1.54116928E+02   2.45381145E+01   1.79392868E+02   2.86025925E+01   1.21295614E+01
              989                3   1.52985336E+02   1.79473328E+02   1.79473328E+02   2.44576378E+01   2.86025925E+01   1.79473328E+02   1.79473328E+02   2.86025925E+01   2.44576378E+01   1.55015701E+02  -7.75111923E+01   1.52858917E+02   2.51830921E+01   1.78747879E+02   2.86025925E+01   1.05797091E+01
              989                4   1.52499649E+02   1.79153625E+02   1.79153625E+02   2.47773552E+01   2.86025925E+01   1.79153625E+02   1.79153625E+02   2.86025925E+01   2.47773552E+01   1.54376282E+02  -7.75111923E+01   1.52391647E+02   2.56630058E+01   1.78267975E+02   2.86025925E+01   1.16593208E+01
              990                1   1.76569473E+02   1.83593475E+02   1.83593475E+02   3.81908751E+00   1.04136848E+01   1.83593475E+02   1.83593475E+02   1.04136848E+01   3.81908751E+00   1.79774399E+02  -6.59420853E+01   1.76292084E+02   3.95334101E+00   1.83459229E+02   1.04136848E+01   4.91089582E+00
              990                2   1.77740219E+02   1.84314255E+02   1.84314255E+02   2.11397767E+00   1.13979988E+01   1.84314255E+02   1.84314255E+02   1.13979988E+01   2.11397767E+00   1.82200287E+02  -6.59420776E+01   1.77193451E+02   2.13239217E+00   1.84295853E+02   1.13979988E+01   1.83125901E+00
              990                3   1.78126373E+02   1.84564453E+02   1.84564453E+02   1.84706318E+00   1.14147329E+01   1.84564453E+02   1.84564453E+02   1.14147329E+01   1.84706318E+00   1.82717392E+02  -6.59420853E+01   1.77546860E+02   2.16799808E+00   1.84243515E+02   1.14147329E+01   7.65098763E+00
              990                4   1.79245331E+02   1.85233978E+02   1.85233978E+02   2.37040997E-01   1.23552294E+01   1.85233978E+02   1.85233978E+02   1.23552294E+01   2.37040997E-01   1.84996948E+02  -6.59420853E+01   1.78320221E+02   3.49671215E-01   1.85121353E+02   1.23552294E+01   4.56326771E+00
              991                1   3.09209976E+01   2.85432854E+01   2.85432854E+01   2.75682602E-02  -4.32232714E+00   2.85432854E+01   2.85432854E+01   2.75682602E-02  -4.32232714E+00   3.28656120E+01  -8.08284283E+00   3.02211227E+01   1.99953049E-01   2.83709011E+01  -4.32232714E+00   2.21042085E+00
              991                2   3.05747776E+01   2.82921925E+01   2.82921925E+01   2.78661072E-01  -4.32232714E+00   2.82921925E+01   2.82921925E+01   2.78661072E-01  -4.32232714E+00   3.26145210E+01  -8.08284283E+00   2.97809620E+01   4.38922167E-01   2.81319313E+01  -4.32232714E+00   2.11277437E+00
              991                3   3.10078392E+01   2.86060123E+01   2.86060123E+01  -3.51601392E-02  -4.32232714E+00   2.86060123E+01   2.86060123E+01  -3.51601392E-02  -4.32232714E+00   3.29283409E+01  -8.08284187E+00   3.03302975E+01   1.01173982E-01   2.84696789E+01  -4.32232714E+00   1.97133601E+00
              991                4   3.06625443E+01   2.83559990E+01   2.83559990E+01   2.14854300E-01  -4.32232714E+00   2.83559990E+01   2.83559990E+01   2.14854300E-01  -4.32232714E+00   3.26783257E+01  -8.08284283E+00   2.98932991E+01   3.40165436E-01   2.82306881E+01  -4.32232714E+00   1.87369001E+00
              992                1   3.97158775E+01   3.42349434E+01   3.42349434E+01  -1.88529325E+00  -8.29653263E+00   3.42349434E+01   3.42349434E+01  -1.88529325E+00  -8.29653263E+00   4.25314789E+01  -8.01770687E+00   3.85257759E+01   4.95264709E-01   3.18543854E+01  -8.29653263E+00   8.96210194E+00
              992                2   4.03135948E+01   3.46711197E+01   3.46711197E+01  -2.32146859E+00  -8.29653263E+00   3.46711197E+01   3.46711197E+01  -2.32146859E+00  -8.29653263E+00   4.29676514E+01  -8.01770687E+00   3.92988434E+01   3.67399491E-02   3.23129120E+01  -8.29653263E+00   9.03742599E+00
              992                3   3.99397202E+01   3.43987465E+01   3.43987465E+01  -2.04909396E+00  -8.29653263E+00   3.43987465E+01   3.43987465E+01  -2.04909396E+00  -8.29653263E+00   4.26952782E+01  -8.01770687E+00   3.88175354E+01   5.75898290E-01   3.17737522E+01  -8.29653263E+00   9.42256546E+00
              992                4   4.05361481E+01   3.48325500E+01   3.48325500E+01  -2.48290133E+00  -8.29653263E+00   3.48325500E+01   3.48325500E+01  -2.48290133E+00  -8.29653263E+00   4.31290817E+01  -8.01770496E+00   3.95819092E+01   1.17517456E-01   3.22321320E+01  -8.29653263E+00   9.50123978E+00
              993                1   1.12534309E+02   1.26491982E+02   1.26491982E+02   1.38480911E+01   1.40675793E+01   1.26491982E+02   1.26491982E+02   1.40675793E+01   1.38480911E+01   1.12643890E+02  -5.14692192E+01   1.12533829E+02   1.39841661E+01   1.26355911E+02   1.40675793E+01   3.91271830E+00
              993                2   1.12339714E+02   1.26362343E+02   1.26362343E+02   1.39777308E+01   1.40675793E+01   1.26362343E+02   1.26362343E+02   1.40675793E+01   1.39777308E+01   1.12384613E+02  -5.14692192E+01   1.12339638E+02   1.41129436E+01   1.26227135E+02   1.40675793E+01   3.89580750E+00
              993                3   1.12549263E+02   1.26501953E+02   1.26501953E+02   1.38381386E+01   1.40675793E+01   1.26501953E+02   1.26501953E+02   1.40675793E+01   1.38381386E+01   1.12663811E+02  -5.14692230E+01   1.12548729E+02   1.39654312E+01   1.26374649E+02   1.40675793E+01   3.78491092E+00
              993                4   1.12354553E+02   1.26372231E+02   1.26372231E+02   1.39678431E+01   1.40675793E+01   1.26372231E+02   1.26372231E+02   1.40675793E+01   1.39678431E+01   1.12404388E+02  -5.14692192E+01   1.12354462E+02   1.40942974E+01   1.26245781E+02   1.40675793E+01   3.76799941E+00
              994                1   1.53603348E+02   1.73557465E+02   1.73557465E+02   1.25123644E+01   2.86738338E+01   1.73557465E+02   1.73557465E+02   2.86738338E+01   1.25123644E+01   1.61045090E+02  -7.15812149E+01   1.51672821E+02   3.15536575E+01   1.54516159E+02   2.86738338E+01   5.19993896E+01
              994                2   1.56704681E+02   1.75525330E+02   1.75525330E+02   1.05444832E+01   2.86738338E+01   1.75525330E+02   1.75525330E+02   2.86738338E+01   1.05444832E+01   1.64980850E+02  -7.15812149E+01   1.54318848E+02   3.06075573E+01   1.55462250E+02   2.86738338E+01   5.39212036E+01
              994                3   1.52189651E+02   1.72657654E+02   1.72657654E+02   1.34121590E+01   2.86738338E+01   1.72657654E+02   1.72657654E+02   2.86738338E+01   1.34121590E+01   1.59245499E+02  -7.15812149E+01   1.50453598E+02   3.35502815E+01   1.52519531E+02   2.86738338E+01   5.29278831E+01
              994                4   1.54806763E+02   1.74322037E+02   1.74322037E+02   1.17477922E+01   2.86738338E+01   1.74322037E+02   1.74322037E+02   2.86738338E+01   1.17477922E+01   1.62574234E+02  -7.15812149E+01   1.52704163E+02   3.29938583E+01   1.53075958E+02   2.86738338E+01   5.47966080E+01
              995                1   1.43555359E+02   1.70789124E+02   1.70789124E+02   2.53487263E+01   2.91961536E+01   1.70789124E+02   1.70789124E+02   2.91961536E+01   2.53487263E+01   1.45440399E+02  -7.51113358E+01   1.43439285E+02   2.58690777E+01   1.70268768E+02   2.91961536E+01   8.68387413E+00
              995                2   1.43039383E+02   1.70449417E+02   1.70449417E+02   2.56884327E+01   2.91961536E+01   1.70449417E+02   1.70449417E+02   2.91961536E+01   2.56884327E+01   1.44760986E+02  -7.51113358E+01   1.42942566E+02   2.63423843E+01   1.69795471E+02   2.91961536E+01   9.70761585E+00
              995                3   1.41979233E+02   1.69750259E+02   1.69750259E+02   2.63875809E+01   2.91961536E+01   1.69750259E+02   1.69750259E+02   2.91961536E+01   2.63875809E+01   1.43362686E+02  -7.51113358E+01   1.41916718E+02   2.68543873E+01   1.69283463E+02   2.91961536E+01   8.16727257E+00
              995                4   1.41441406E+02   1.69394958E+02   1.69394958E+02   2.67428856E+01   2.91961536E+01   1.69394958E+02   1.69394958E+02   2.91961536E+01   2.67428856E+01   1.42652084E+02  -7.51113358E+01   1.41393524E+02   2.73362312E+01   1.68801620E+02   2.91961536E+01   9.18092823E+00
              996                1   6.45471725E+01   6.09000092E+01   6.09000092E+01  -3.48667955E+00  -3.80645847E+00   6.09000092E+01   6.09000092E+01  -3.48667955E+00  -3.80645847E+00   6.47064667E+01  -1.78689575E+01   6.45453873E+01  -3.07040930E+00   6.04837379E+01  -3.80645847E+00   5.16033697E+00
              996                2   6.47331619E+01   6.10242500E+01   6.10242500E+01  -3.61092520E+00  -3.80645847E+00   6.10242500E+01   6.10242500E+01  -3.61092520E+00  -3.80645847E+00   6.48307114E+01  -1.78689556E+01   6.47324982E+01  -3.22524858E+00   6.06385765E+01  -3.80645847E+00   4.97789288E+00
              996                3   6.48541107E+01   6.11049805E+01   6.11049805E+01  -3.69165349E+00  -3.80645847E+00   6.11049805E+01   6.11049805E+01  -3.69165349E+00  -3.80645847E+00   6.49114380E+01  -1.78689556E+01   6.48538818E+01  -3.25252938E+00   6.06658554E+01  -3.80645847E+00   5.31610250E+00
              996                4   6.50391769E+01   6.12284088E+01   6.12284088E+01  -3.81507778E+00  -3.80645847E+00   6.12284088E+01   6.12284088E+01  -3.80645847E+00  -3.81507778E+00   6.50434875E+01  -1.78689575E+01   6.50391769E+01  -3.40734577E+00   6.08206749E+01  -3.80645847E+00   5.13362741E+00
              997                1   3.12225666E+01   2.41205349E+01   2.41205349E+01  -1.13120639E+00  -1.07901039E+01   2.41205349E+01   2.41205349E+01  -1.13120639E+00  -1.07901039E+01   3.49106369E+01  -4.06640816E+00   2.75477505E+01   1.58982813E+00   2.13994999E+01  -1.07901039E+01   7.82986832E+00
              997                2   3.17935467E+01   2.45868855E+01   2.45868855E+01  -1.59755850E+00  -1.07901039E+01   2.45868855E+01   2.45868855E+01  -1.59755850E+00  -1.07901039E+01   3.53769875E+01  -4.06640768E+00   2.85662289E+01   1.08032215E+00   2.19090042E+01  -1.07901039E+01   7.93396330E+00
              997                3   3.14912586E+01   2.43410454E+01   2.43410454E+01  -1.35171664E+00  -1.07901039E+01   2.43410454E+01   2.43410454E+01  -1.35171664E+00  -1.07901039E+01   3.51311493E+01  -4.06640816E+00   2.80339470E+01   1.72207761E+00   2.12672501E+01  -1.07901039E+01   8.33822918E+00
              997                4   3.20547409E+01   2.47974892E+01   2.47974892E+01  -1.80816185E+00  -1.07901039E+01   2.47974892E+01   2.47974892E+01  -1.80816185E+00  -1.07901039E+01   3.55875931E+01  -4.06640768E+00   2.90145741E+01   1.21174085E+00   2.17775860E+01  -1.07901039E+01   8.43958855E+00
              998                1   3.92942734E+01   4.29512520E+01   4.29512520E+01   3.54568100E+00   3.76922750E+00   4.29512520E+01   4.29512520E+01   3.76922750E+00   3.54568100E+00   3.94055710E+01  -1.67553864E+01   3.92928467E+01   5.33684874E+00   4.11600838E+01   3.76922750E+00   8.20814991E+00
              998                2   3.93622055E+01   4.29963989E+01   4.29963989E+01   3.50053501E+00   3.76922750E+00   4.29963989E+01   4.29963989E+01   3.76922750E+00   3.50053501E+00   3.94958649E+01  -1.67553864E+01   3.93601418E+01   5.20992184E+00   4.12870102E+01   3.76922750E+00   8.03689861E+00
              998                3   3.96108475E+01   4.31614304E+01   4.31614304E+01   3.33550262E+00   3.76922750E+00   4.31614304E+01   4.31614304E+01   3.76922750E+00   3.33550262E+00   3.98259277E+01  -1.67553864E+01   3.96055031E+01   5.16497135E+00   4.13319626E+01   3.76922750E+00   8.33746338E+00
              998                4   3.96781502E+01   4.32060432E+01   4.32060432E+01   3.29088879E+00   3.76922750E+00   4.32060432E+01   4.32060432E+01   3.76922750E+00   3.29088879E+00   3.99151573E+01  -1.67553864E+01   3.96716614E+01   5.03816462E+00   4.14587669E+01   3.76922750E+00   8.16638660E+00
              999                1   2.10865906E+02   2.37343918E+02   2.37343918E+02   4.89953089E+00   5.83392906E+01   2.37343918E+02   2.37343918E+02   5.83392906E+01   4.89953089E+00   2.32444397E+02  -1.00194244E+02   1.94736847E+02   6.63731813E+00   2.35606140E+02   5.83392906E+01   2.00229378E+01
              999                2   2.11202896E+02   2.37461945E+02   2.37461945E+02   4.41133118E+00   5.87094727E+01   2.37461945E+02   2.37461945E+02   5.87094727E+01   4.41133118E+00   2.33050613E+02  -1.00194252E+02   1.94547775E+02   5.12362194E+00   2.36749649E+02   5.87094727E+01   1.28644314E+01
              999                3   2.12512177E+02   2.37798569E+02   2.37798569E+02   2.19282222E+00   6.05913467E+01   2.37798569E+02   2.37798569E+02   6.05913467E+01   2.19282222E+00   2.35605743E+02  -1.00194244E+02   1.93185760E+02   4.16815329E+00   2.35823242E+02   6.05913467E+01   2.14824829E+01
              999                4   2.12802322E+02   2.37891525E+02   2.37891525E+02   1.77301335E+00   6.09182091E+01   2.37891525E+02   2.37891525E+02   6.09182091E+01   1.77301335E+00   2.36118515E+02  -1.00194244E+02   1.92970932E+02   2.66452241E+00   2.37000015E+02   6.09182091E+01   1.44812460E+01
             1000                1   3.07319908E+01   2.51674423E+01   2.51674423E+01  -8.73249888E-01  -8.73033142E+00   2.51674423E+01   2.51674423E+01  -8.73249888E-01  -8.73033142E+00   3.38977737E+01  -5.18795395E+00   2.83370247E+01   1.13919582E+01   1.29022350E+01  -8.73033142E+00   1.29984303E+01
             1000                2   3.06085892E+01   2.50701866E+01   2.50701866E+01  -7.75993049E-01  -8.73033142E+00   2.50701866E+01   2.50701866E+01  -7.75993049E-01  -8.73033142E+00   3.38005180E+01  -5.18795395E+00   2.81388378E+01   1.15030689E+01   1.27911243E+01  -8.73033142E+00   1.29070320E+01
             1000                3   3.06067295E+01   2.50687180E+01   2.50687180E+01  -7.74525106E-01  -8.73033142E+00   2.50687180E+01   2.50687180E+01  -7.74525106E-01  -8.73033142E+00   3.37990494E+01  -5.18795395E+00   2.81358356E+01   1.13033609E+01   1.29908323E+01  -8.73033142E+00   1.28940458E+01
             1000                4   3.04843197E+01   2.49718990E+01   2.49718990E+01  -6.77706122E-01  -8.73033142E+00   2.49718990E+01   2.49718990E+01  -6.77706122E-01  -8.73033142E+00   3.37022324E+01  -5.18795395E+00   2.79372158E+01   1.14139700E+01   1.28802242E+01  -8.73033142E+00   1.28038311E+01
             1001                1   1.30900833E+02   1.59435318E+02   1.59435318E+02   2.73566647E+01   2.97449646E+01   1.59435318E+02   1.59435318E+02   2.97449646E+01   2.73566647E+01   1.32078644E+02  -7.21789780E+01   1.30851807E+02   2.77373562E+01   1.59054626E+02   2.97449646E+01   7.08063745E+00
             1001                2   1.30640915E+02   1.59263519E+02   1.59263519E+02   2.75284672E+01   2.97449646E+01   1.59263519E+02   1.59263519E+02   2.97449646E+01   2.75284672E+01   1.31735062E+02  -7.21789856E+01   1.30598587E+02   2.79953384E+01   1.58796646E+02   2.97449646E+01   7.82855177E+00
             1001                3   1.29747742E+02   1.58672394E+02   1.58672394E+02   2.81196060E+01   2.97449646E+01   1.58672394E+02   1.58672394E+02   2.97449646E+01   2.81196060E+01   1.30552780E+02  -7.21789856E+01   1.29724823E+02   2.84745770E+01   1.58317413E+02   2.97449646E+01   6.79829121E+00
             1001                4   1.29496475E+02   1.58505859E+02   1.58505859E+02   2.82861214E+01   2.97449646E+01   1.58505859E+02   1.58505859E+02   2.97449646E+01   2.82861214E+01   1.30219727E+02  -7.21789780E+01   1.29477982E+02   2.87245846E+01   1.58067398E+02   2.97449646E+01   7.54344559E+00
             1002                1   1.21249763E+02   1.43663605E+02   1.43663605E+02   2.14086342E+01   2.34446793E+01   1.43663605E+02   1.43663605E+02   2.34446793E+01   2.14086342E+01   1.22254967E+02  -6.28389702E+01   1.21211304E+02   2.23489227E+01   1.42723312E+02   2.34446793E+01   1.06803951E+01
             1002                2   1.21318314E+02   1.43708923E+02   1.43708923E+02   2.13633175E+01   2.34446793E+01   1.43708923E+02   1.43708923E+02   2.34446793E+01   2.13633175E+01   1.22345604E+02  -6.28389702E+01   1.21278137E+02   2.23673363E+01   1.42704895E+02   2.34446793E+01   1.10376530E+01
             1002                3   1.20716377E+02   1.43310699E+02   1.43310699E+02   2.17615433E+01   2.34446793E+01   1.43310699E+02   1.43310699E+02   2.34446793E+01   2.17615433E+01   1.21549149E+02  -6.28389702E+01   1.20689987E+02   2.27007484E+01   1.42371490E+02   2.34446793E+01   1.06431704E+01
             1002                4   1.20787048E+02   1.43357483E+02   1.43357483E+02   2.17147579E+01   2.34446793E+01   1.43357483E+02   1.43357483E+02   2.34446793E+01   2.17147579E+01   1.21642715E+02  -6.28389702E+01   1.20759171E+02   2.27181187E+01   1.42354111E+02   2.34446793E+01   1.10020428E+01
             1003                1   1.78136047E+02   1.88726517E+02   1.88726517E+02   6.68978548E+00   1.47658730E+01   1.88726517E+02   1.88726517E+02   1.47658730E+01   6.68978548E+00   1.82036728E+02  -7.00607224E+01   1.77723450E+02   7.01055193E+00   1.88405746E+02   1.47658730E+01   7.63476849E+00
             1003                2   1.79314011E+02   1.89436279E+02   1.89436279E+02   4.90063953E+00   1.58452673E+01   1.89436279E+02   1.89436279E+02   1.58452673E+01   4.90063953E+00   1.84535629E+02  -7.00607224E+01   1.78560196E+02   4.97495508E+00   1.89361954E+02   1.58452673E+01   3.70260668E+00
             1003                3   1.79799637E+02   1.89734238E+02   1.89734238E+02   4.33694267E+00   1.61110020E+01   1.89734238E+02   1.89734238E+02   1.61110020E+01   4.33694267E+00   1.85397293E+02  -7.00607300E+01   1.78929184E+02   4.93579912E+00   1.89135376E+02   1.61110020E+01   1.05199375E+01
             1003                4   1.80886414E+02   1.90365387E+02   1.90365387E+02   2.71658278E+00   1.71001949E+01   1.90365387E+02   1.90365387E+02   1.71001949E+01   2.71658278E+00   1.87648804E+02  -7.00607224E+01   1.79593018E+02   2.95133924E+00   1.90130630E+02   1.71001949E+01   6.63300467E+00
             1004                1   3.56912804E+01   3.79471016E+01   3.79471016E+01   1.01113963E+00   3.64660311E+00   3.79471016E+01   3.79471016E+01   3.64660311E+00   1.01113963E+00   3.69359627E+01  -1.42016144E+01   3.54713745E+01   2.03348279E+00   3.69247589E+01   3.64660311E+00   6.05937290E+00
             1004                2   3.57119141E+01   3.79603920E+01   3.79603920E+01   9.97847378E-01   3.64660311E+00   3.79603920E+01   3.79603920E+01   3.64660311E+00   9.97847378E-01   3.69625473E+01  -1.42016144E+01   3.54899063E+01   2.01124358E+00   3.69469986E+01   3.64660311E+00   6.03578281E+00
             1004                3   3.57381783E+01   3.79773064E+01   3.79773064E+01   9.80936468E-01   3.64660311E+00   3.79773064E+01   3.79773064E+01   3.64660311E+00   9.80936468E-01   3.69963722E+01  -1.42016153E+01   3.55134735E+01   2.00954723E+00   3.69486961E+01   3.64660311E+00   6.08250427E+00
             1004                4   3.57594414E+01   3.79910011E+01   3.79910011E+01   9.67242777E-01   3.64660311E+00   3.79910011E+01   3.79910011E+01   3.64660311E+00   9.67242777E-01   3.70237579E+01  -1.42016153E+01   3.55325508E+01   1.98688173E+00   3.69713631E+01   3.64660311E+00   6.05897570E+00
             1005                1   1.27855965E+02   1.56037399E+02   1.56037399E+02   2.70919991E+01   2.92994404E+01   1.56037399E+02   1.56037399E+02   2.92994404E+01   2.70919991E+01   1.28945389E+02  -7.08096085E+01   1.27813087E+02   2.75115547E+01   1.55617844E+02   2.92994404E+01   7.34324312E+00
             1005                2   1.27717308E+02   1.55945724E+02   1.55945724E+02   2.71836739E+01   2.92994404E+01   1.55945724E+02   1.55945724E+02   2.92994404E+01   2.71836739E+01   1.28762054E+02  -7.08096085E+01   1.27677872E+02   2.76778450E+01   1.55451553E+02   2.92994404E+01   7.96152401E+00
             1005                3   1.26920822E+02   1.55418518E+02   1.55418518E+02   2.77108688E+01   2.92994404E+01   1.55418518E+02   1.55418518E+02   2.92994404E+01   2.77108688E+01   1.27707657E+02  -7.08096085E+01   1.26898460E+02   2.81117134E+01   1.55017685E+02   2.92994404E+01   7.14350605E+00
             1005                4   1.26778961E+02   1.55324509E+02   1.55324509E+02   2.78048820E+01   2.92994404E+01   1.55324509E+02   1.55324509E+02   2.92994404E+01   2.78048820E+01   1.27519630E+02  -7.08096085E+01   1.26759140E+02   2.82797070E+01   1.54849686E+02   2.92994404E+01   7.76687336E+00
             1006                1   5.95303688E+01   5.36262016E+01   5.36262016E+01  -3.71626830E+00  -7.87406874E+00   5.36262016E+01   5.36262016E+01  -3.71626830E+00  -7.87406874E+00   6.15002708E+01  -1.40119553E+01   5.92023697E+01   5.84823465E+00   4.40616989E+01  -7.87406874E+00   2.13769169E+01
             1006                2   5.84690704E+01   5.28887367E+01   5.28887367E+01  -2.97880530E+00  -7.87406874E+00   5.28887367E+01   5.28887367E+01  -2.97880530E+00  -7.87406874E+00   6.07628059E+01  -1.40119543E+01   5.80053329E+01   5.63159609E+00   4.42783356E+01  -7.87406874E+00   2.01718349E+01
             1006                3   6.11638412E+01   5.47502098E+01   5.47502098E+01  -4.84027910E+00  -7.87406874E+00   5.47502098E+01   5.47502098E+01  -4.84027910E+00  -7.87406874E+00   6.26242790E+01  -1.40119543E+01   6.09942131E+01   4.75618410E+00   4.51537476E+01  -7.87406874E+00   2.19035568E+01
             1006                4   6.01032333E+01   5.40218582E+01   5.40218582E+01  -4.11192799E+00  -7.87406874E+00   5.40218582E+01   5.40218582E+01  -4.11192799E+00  -7.87406874E+00   6.18959274E+01  -1.40119543E+01   5.98374557E+01   4.54112530E+00   4.53688049E+01  -7.87406874E+00   2.06920147E+01
             1007                1   6.21735001E+01   5.73871078E+01   5.73871078E+01  -4.18588209E+00  -5.36998653E+00   5.73871078E+01   5.73871078E+01  -4.18588209E+00  -5.36998653E+00   6.27570953E+01  -1.59437456E+01   6.21481209E+01  -2.54320073E+00   5.57444267E+01  -5.36998653E+00   9.92201424E+00
             1007                2   6.25836296E+01   5.76628723E+01   5.76628723E+01  -4.46164560E+00  -5.36998653E+00   5.76628723E+01   5.76628723E+01  -4.46164560E+00  -5.36998653E+00   6.30328560E+01  -1.59437456E+01   6.25687981E+01  -2.87467909E+00   5.60759048E+01  -5.36998653E+00   9.80158329E+00
             1007                3   6.25001411E+01   5.76067848E+01   5.76067848E+01  -4.40555716E+00  -5.36998653E+00   5.76067848E+01   5.76067848E+01  -4.40555716E+00  -5.36998653E+00   6.29767723E+01  -1.59437475E+01   6.24833946E+01  -2.66090560E+00   5.58621330E+01  -5.36998653E+00   1.02540836E+01
             1007                4   6.29080658E+01   5.78805618E+01   5.78805618E+01  -4.67933512E+00  -5.36998653E+00   5.78805618E+01   5.78805618E+01  -4.67933512E+00  -5.36998653E+00   6.32505455E+01  -1.59437456E+01   6.28995361E+01  -2.99236703E+00   5.61935921E+01  -5.36998653E+00   1.01336422E+01
             1008                1   6.43215561E+01   5.75456123E+01   5.75456123E+01  -5.38954782E+00  -8.07803822E+00   5.75456123E+01   5.75456123E+01  -5.38954782E+00  -8.07803822E+00   6.56236496E+01  -1.46926756E+01   6.41949539E+01   1.95540059E+00   5.02006607E+01  -8.07803822E+00   2.02066154E+01
             1008                2   6.31770363E+01   5.67629967E+01   5.67629967E+01  -4.60693169E+00  -8.07803822E+00   5.67629967E+01   5.67629967E+01  -4.60693169E+00  -8.07803822E+00   6.48410339E+01  -1.46926756E+01   6.29619560E+01   3.04437113E+00   4.91116905E+01  -8.07803822E+00   2.02735672E+01
             1008                3   6.36120949E+01   5.70611534E+01   5.70611534E+01  -4.90508938E+00  -8.07803822E+00   5.70611534E+01   5.70611534E+01  -4.90508938E+00  -8.07803822E+00   6.51391907E+01  -1.46926756E+01   6.34336815E+01   1.73170817E+00   5.04243546E+01  -8.07803822E+00   1.91627331E+01
             1008                4   6.23206406E+01   5.61735725E+01   5.61735725E+01  -4.01751041E+00  -8.07803822E+00   5.61735725E+01   5.61735725E+01  -4.01751041E+00  -8.07803822E+00   6.42516098E+01  -1.46926756E+01   6.20219688E+01   2.88867497E+00   4.92673874E+01  -8.07803822E+00   1.91832066E+01
             1009                1   3.12756062E+01   3.93204346E+01   3.93204346E+01   7.14678431E+00   9.02777863E+00   3.93204346E+01   3.93204346E+01   9.02777863E+00   7.14678431E+00   3.21736526E+01  -1.84983330E+01   3.11479607E+01   9.96946716E+00   3.64977531E+01   9.02777863E+00   9.10211372E+00
             1009                2   3.11710911E+01   3.92526741E+01   3.92526741E+01   7.21454573E+00   9.02777863E+00   3.92526741E+01   3.92526741E+01   9.02777863E+00   7.21454573E+00   3.20381279E+01  -1.84983330E+01   3.10521030E+01   9.91451740E+00   3.65527039E+01   9.02777863E+00   8.90012169E+00
             1009                3   3.15840340E+01   3.95200615E+01   3.95200615E+01   6.94716167E+00   9.02777863E+00   3.95200615E+01   3.95200615E+01   9.02777863E+00   6.94716167E+00   3.25729027E+01  -1.84983349E+01   3.14292889E+01   9.76629543E+00   3.67009277E+01   9.02777863E+00   9.15859604E+00
             1009                4   3.14805260E+01   3.94531250E+01   3.94531250E+01   7.01409912E+00   9.02777863E+00   3.94531250E+01   3.94531250E+01   9.02777863E+00   7.01409912E+00   3.24390259E+01  -1.84983349E+01   3.13351326E+01   9.71134472E+00   3.67558784E+01   9.02777863E+00   8.95661259E+00
             1010                1   3.27681808E+01   4.00015640E+01   4.00015640E+01   6.55660486E+00   7.95493221E+00   4.00015640E+01   4.00015640E+01   7.95493221E+00   6.55660486E+00   3.34449615E+01  -1.81710339E+01   3.27009506E+01   9.03740311E+00   3.75207672E+01   7.95493221E+00   8.76446438E+00
             1010                2   3.27056541E+01   3.99607124E+01   3.99607124E+01   6.59745789E+00   7.95493221E+00   3.99607124E+01   3.99607124E+01   7.95493221E+00   6.59745789E+00   3.33632545E+01  -1.81710339E+01   3.26421776E+01   8.96592999E+00   3.75922394E+01   7.95493221E+00   8.56798172E+00
             1010                3   3.30867004E+01   4.02093353E+01   4.02093353E+01   6.34883499E+00   7.95493221E+00   4.02093353E+01   4.02093353E+01   7.95493221E+00   6.34883499E+00   3.38605003E+01  -1.81710339E+01   3.29988251E+01   8.83857059E+00   3.77196007E+01   7.95493221E+00   8.83769703E+00
             1010                4   3.30248489E+01   4.01690331E+01   4.01690331E+01   6.38913918E+00   7.95493221E+00   4.01690331E+01   4.01690331E+01   7.95493221E+00   6.38913918E+00   3.37798958E+01  -1.81710358E+01   3.29411774E+01   8.76678658E+00   3.77913857E+01   7.95493221E+00   8.64080429E+00
             1011                1   2.06005280E+02   2.13298767E+02   2.13298767E+02  -3.59730077E+00   2.02620125E+01   2.13298767E+02   2.13298767E+02   2.02620125E+01  -3.59730077E+00   2.16896057E+02  -7.66544876E+01   2.02861847E+02  -3.59664464E+00   2.13298111E+02   2.02620125E+01   3.75939995E-01
             1011                2   2.07275345E+02   2.13966415E+02   2.13966415E+02  -5.42154264E+00   2.14185886E+01   2.13966415E+02   2.13966415E+02   2.14185886E+01  -5.42154264E+00   2.19387955E+02  -7.66544876E+01   2.03310562E+02  -5.34397173E+00   2.13888855E+02   2.14185886E+01  -4.12438965E+00
             1011                3   2.07537598E+02   2.14083145E+02   2.14083145E+02  -5.92742348E+00   2.18077641E+01   2.14083145E+02   2.14083145E+02   2.18077641E+01  -5.92742348E+00   2.20010559E+02  -7.66544952E+01   2.03305389E+02  -5.88171577E+00   2.14037430E+02   2.18077641E+01   3.17088604E+00
             1011                4   2.08481934E+02   2.14518738E+02   2.14518738E+02  -7.55265236E+00   2.29973965E+01   2.14518738E+02   2.14518738E+02   2.29973965E+01  -7.55265236E+00   2.22071381E+02  -7.66544876E+01   2.03354523E+02  -7.53614902E+00   2.14502228E+02   2.29973965E+01  -1.91437554E+00
             1012                1   9.43940811E+01   9.01849823E+01   9.01849823E+01  -4.26385260E+00  -4.15425205E+00   9.01849823E+01   9.01849823E+01  -4.15425205E+00  -4.26385260E+00   9.44488297E+01  -2.72556248E+01   9.43939362E+01  -4.02635384E+00   8.99474792E+01  -4.15425205E+00   4.73024654E+00
             1012                2   9.42038498E+01   9.00581894E+01   9.00581894E+01  -4.13707209E+00  -4.15425205E+00   9.00581894E+01   9.00581894E+01  -4.13707209E+00  -4.15425205E+00   9.42124405E+01  -2.72556229E+01   9.42038498E+01  -3.89111066E+00   8.98122330E+01  -4.15425205E+00   4.80704069E+00
             1012                3   9.42595062E+01   9.00952988E+01   9.00952988E+01  -4.17417526E+00  -4.15425205E+00   9.00952988E+01   9.00952988E+01  -4.15425205E+00  -4.17417526E+00   9.42694702E+01  -2.72556229E+01   9.42595062E+01  -3.94973588E+00   8.98708572E+01  -4.15425205E+00   4.59426451E+00
             1012                4   9.40690384E+01   8.99682846E+01   8.99682846E+01  -4.04716015E+00  -4.15425205E+00   8.99682846E+01   8.99682846E+01  -4.04716015E+00  -4.15425205E+00   9.41225357E+01  -2.72556248E+01   9.40689011E+01  -3.81450653E+00   8.97356339E+01  -4.15425205E+00   4.67106962E+00
             1013                1   3.32554703E+01   3.28824196E+01   3.28824196E+01   2.91020662E-01  -9.99552369E-01   3.28824196E+01   3.28824196E+01   2.91020662E-01  -9.99552369E-01   3.38819695E+01  -1.07246284E+01   3.31990585E+01   5.68080842E-01   3.26053581E+01  -9.99552369E-01   2.99215937E+00
             1013                2   3.35508232E+01   3.30829887E+01   3.30829887E+01   9.04493630E-02  -9.99552369E-01   3.30829887E+01   3.30829887E+01   9.04493630E-02  -9.99552369E-01   3.40825424E+01  -1.07246284E+01   3.35109520E+01   3.81616384E-01   3.27918243E+01  -9.99552369E-01   3.08569384E+00
             1013                3   3.31695366E+01   3.28239326E+01   3.28239326E+01   3.49508733E-01  -9.99552369E-01   3.28239326E+01   3.28239326E+01   3.49508733E-01  -9.99552369E-01   3.38234863E+01  -1.07246294E+01   3.31077271E+01   6.63706243E-01   3.25097351E+01  -9.99552369E-01   3.17878604E+00
             1013                4   3.34654388E+01   3.30250778E+01   3.30250778E+01   1.48366198E-01  -9.99552369E-01   3.30250778E+01   3.30250778E+01   1.48366198E-01  -9.99552369E-01   3.40246277E+01  -1.07246294E+01   3.34211006E+01   4.77362901E-01   3.26960793E+01  -9.99552369E-01   3.27232528E+00
             1014                1   2.24284515E+01   1.36902781E+01   1.36902781E+01  -6.77206218E-01  -1.21540375E+01   1.36902781E+01   1.36902781E+01  -6.77206218E-01  -1.21540375E+01   2.58443165E+01  -2.86344856E-01   1.29446850E+01   8.14132333E-01   1.21989393E+01  -1.21540375E+01   4.38208818E+00
             1014                2   2.20045319E+01   1.32391033E+01   1.32391033E+01  -2.26032376E-01  -1.21540375E+01   1.32391033E+01   1.32391033E+01  -2.26032376E-01  -1.21540375E+01   2.53931408E+01  -2.86344528E-01   1.03682728E+01   1.29013813E+00   1.17229328E+01  -1.21540375E+01   4.25636816E+00
             1014                3   2.22694435E+01   1.35234461E+01   1.35234461E+01  -5.10375023E-01  -1.21540375E+01   1.35234461E+01   1.35234461E+01  -5.10375023E-01  -1.21540375E+01   2.56774845E+01  -2.86344528E-01   1.20991621E+01   6.78896964E-01   1.23341742E+01  -1.21540375E+01   3.90840912E+00
             1014                4   2.18415260E+01   1.30597868E+01   1.30597868E+01  -4.67154011E-02  -1.21540375E+01   1.30597868E+01   1.30597868E+01  -4.67154011E-02  -1.21540375E+01   2.52138233E+01  -2.86344528E-01   8.93989849E+00   1.15438378E+00   1.18586874E+01  -1.21540375E+01   3.78147697E+00
             1015                1   1.14663979E+02   1.32986450E+02   1.32986450E+02   1.81272354E+01   1.85187359E+01   1.32986450E+02   1.32986450E+02   1.85187359E+01   1.81272354E+01   1.14859222E+02  -5.65441437E+01   1.14662476E+02   1.83609219E+01   1.32752777E+02   1.85187359E+01   5.17553568E+00
             1015                2   1.14850052E+02   1.33110260E+02   1.33110260E+02   1.80034275E+01   1.85187359E+01   1.33110260E+02   1.33110260E+02   1.85187359E+01   1.80034275E+01   1.15106842E+02  -5.65441437E+01   1.14847443E+02   1.82445774E+01   1.32869110E+02   1.85187359E+01   5.26308680E+00
             1015                3   1.14545334E+02   1.32907486E+02   1.32907486E+02   1.82062073E+01   1.85187359E+01   1.32907486E+02   1.32907486E+02   1.85187359E+01   1.82062073E+01   1.14701279E+02  -5.65441437E+01   1.14544373E+02   1.84506378E+01   1.32663055E+02   1.85187359E+01   5.28931189E+00
             1015                4   1.14731941E+02   1.33031693E+02   1.33031693E+02   1.80820065E+01   1.85187359E+01   1.33031693E+02   1.33031693E+02   1.85187359E+01   1.80820065E+01   1.14949677E+02  -5.65441437E+01   1.14730064E+02   1.83340721E+01   1.32779617E+02   1.85187359E+01   5.37695694E+00
             1016                1   3.05647621E+01   2.88722363E+01   2.88722363E+01   2.33260747E-02  -3.15931582E+00   2.88722363E+01   2.88722363E+01   2.33260747E-02  -3.15931582E+00   3.20315514E+01  -8.57874966E+00   3.01885891E+01   8.52675438E-02   2.88102951E+01  -3.15931582E+00   1.33533549E+00
             1016                2   3.02184143E+01   2.86269054E+01   2.86269054E+01   2.68657744E-01  -3.15931582E+00   2.86269054E+01   2.86269054E+01   2.68657744E-01  -3.15931582E+00   3.17862206E+01  -8.57874966E+00   2.97762604E+01   3.22519243E-01   2.85730438E+01  -3.15931582E+00   1.23471403E+00
             1016                3   3.06797256E+01   2.89533634E+01   2.89533634E+01  -5.78015111E-02  -3.15931582E+00   2.89533634E+01   2.89533634E+01  -5.78015111E-02  -3.15931582E+00   3.21126785E+01  -8.57874870E+00   3.03240108E+01  -1.61754694E-02   2.89117374E+01  -3.15931582E+00   1.09811902E+00
             1016                4   3.03345585E+01   2.87093334E+01   2.87093334E+01   1.86229855E-01  -3.15931582E+00   2.87093334E+01   2.87093334E+01   1.86229855E-01  -3.15931582E+00   3.18686485E+01  -8.57874966E+00   2.99152737E+01   2.21159220E-01   2.86744041E+01  -3.15931582E+00   9.97530520E-01
             1017                1   2.81597366E+01   4.09825096E+01   4.09825096E+01   1.27896214E+01   1.28560476E+01   4.09825096E+01   4.09825096E+01   1.28560476E+01   1.27896214E+01   2.81928902E+01  -2.22093945E+01   2.81595612E+01   1.30415325E+01   4.07306023E+01   1.28560476E+01   2.65303850E+00
             1017                2   2.85725040E+01   4.12567139E+01   4.12567139E+01   1.25154190E+01   1.28560476E+01   4.12567139E+01   4.12567139E+01   1.28560476E+01   1.25154190E+01   2.87412949E+01  -2.22093945E+01   2.85679340E+01   1.27700033E+01   4.10021286E+01   1.28560476E+01   2.69300938E+00
             1017                3   2.81773090E+01   4.09942131E+01   4.09942131E+01   1.27779207E+01   1.28560476E+01   4.09942131E+01   4.09942131E+01   1.28560476E+01   1.27779207E+01   2.82162914E+01  -2.22093945E+01   2.81770668E+01   1.30818768E+01   4.06902580E+01   1.28560476E+01   2.91274524E+00
             1017                4   2.85899887E+01   4.12682991E+01   4.12682991E+01   1.25038319E+01   1.28560476E+01   4.12682991E+01   4.12682991E+01   1.28560476E+01   1.25038319E+01   2.87644691E+01  -2.22093945E+01   2.85851040E+01   1.28108673E+01   4.09612656E+01   1.28560476E+01   2.95591402E+00
             1018                1   2.86279182E+01   2.09491920E+01   2.09491920E+01  -1.40252614E+00  -1.13183298E+01   2.09491920E+01   2.09491920E+01  -1.40252614E+00  -1.13183298E+01   3.22675209E+01  -2.74277854E+00   2.42872334E+01   1.30364513E+00   1.82430191E+01  -1.13183298E+01   7.29138041E+00
             1018                2   2.81117535E+01   2.05035458E+01   2.05035458E+01  -9.56880867E-01  -1.13183298E+01   2.05035458E+01   2.05035458E+01  -9.56880867E-01  -1.13183298E+01   3.18218765E+01  -2.74277854E+00   2.31913261E+01   1.80284488E+00   1.77438202E+01  -1.13183298E+01   7.18392706E+00
             1018                3   2.83854485E+01   2.07410946E+01   2.07410946E+01  -1.19442999E+00  -1.13183298E+01   2.07410946E+01   2.07410946E+01  -1.19442999E+00  -1.13183298E+01   3.20594254E+01  -2.74277854E+00   2.37825203E+01   1.16279161E+00   1.83838730E+01  -1.13183298E+01   6.79340935E+00
             1018                4   2.78578377E+01   2.02804871E+01   2.02804871E+01  -7.33821452E-01  -1.13183298E+01   2.02804871E+01   2.02804871E+01  -7.33821452E-01  -1.13183298E+01   3.15988159E+01  -2.74277854E+00   2.26200523E+01   1.65813422E+00   1.78885307E+01  -1.13183298E+01   6.67411757E+00
             1019                1   1.15456001E+02   1.31324722E+02   1.31324722E+02   1.52638359E+01   1.64832706E+01   1.31324722E+02   1.31324722E+02   1.64832706E+01   1.52638359E+01   1.16060890E+02  -5.43572807E+01   1.15441505E+02   1.63336525E+01   1.30254913E+02   1.64832706E+01   1.10913906E+01
             1019                2   1.15506828E+02   1.31358444E+02   1.31358444E+02   1.52301388E+01   1.64832706E+01   1.31358444E+02   1.31358444E+02   1.64832706E+01   1.52301388E+01   1.16128304E+02  -5.43572845E+01   1.15491524E+02   1.63012791E+01   1.30287292E+02   1.64832706E+01   1.11014690E+01
             1019                3   1.15447701E+02   1.31319214E+02   1.31319214E+02   1.52693453E+01   1.64832706E+01   1.31319214E+02   1.31319214E+02   1.64832706E+01   1.52693453E+01   1.16049873E+02  -5.43572807E+01   1.15433334E+02   1.63453426E+01   1.30243225E+02   1.64832706E+01   1.11225634E+01
             1019                4   1.15498741E+02   1.31353073E+02   1.31353073E+02   1.52354965E+01   1.64832706E+01   1.31353073E+02   1.31353073E+02   1.64832706E+01   1.52354965E+01   1.16117569E+02  -5.43572807E+01   1.15483566E+02   1.63128338E+01   1.30275726E+02   1.64832706E+01   1.11327162E+01
             1020                1   5.16558304E+01   4.97773056E+01   4.97773056E+01  -1.40211272E+00  -2.34210539E+00   4.97773056E+01   4.97773056E+01  -1.40211272E+00  -2.34210539E+00   5.21194115E+01  -1.53443632E+01   5.16365814E+01   1.23628996E-01   4.82515640E+01  -2.34210539E+00   8.70395088E+00
             1020                2   5.19290428E+01   4.99609718E+01   4.99609718E+01  -1.58577919E+00  -2.34210539E+00   4.99609718E+01   4.99609718E+01  -1.58577919E+00  -2.34210539E+00   5.23030739E+01  -1.53443613E+01   5.19166489E+01  -1.23598278E-01   4.84987907E+01  -2.34210539E+00   8.55760574E+00
             1020                3   5.20021553E+01   5.00100594E+01   5.00100594E+01  -1.63486600E+00  -2.34210539E+00   5.00100594E+01   5.00100594E+01  -1.63486600E+00  -2.34210539E+00   5.23521652E+01  -1.53443632E+01   5.19913292E+01  -2.56476700E-02   4.84008408E+01  -2.34210539E+00   8.97320747E+00
             1020                4   5.22674713E+01   5.01880035E+01   5.01880035E+01  -1.81280875E+00  -2.34210539E+00   5.01880035E+01   5.01880035E+01  -1.81280875E+00  -2.34210539E+00   5.25301094E+01  -1.53443632E+01   5.22614403E+01  -2.68333048E-01   4.86435280E+01  -2.34210539E+00   8.82771587E+00
             1021                1   3.59437141E+01   4.13699150E+01   4.13699150E+01   5.05738497E+00   5.80673838E+00   4.13699150E+01   4.13699150E+01   5.80673838E+00   5.05738497E+00   3.63125305E+01  -1.74113464E+01   3.59261284E+01   7.13197136E+00   3.92953262E+01   5.80673838E+00   8.42790794E+00
             1021                2   3.59462280E+01   4.13715744E+01   4.13715744E+01   5.05572414E+00   5.80673838E+00   4.13715744E+01   4.13715744E+01   5.80673838E+00   5.05572414E+00   3.63158493E+01  -1.74113464E+01   3.59285698E+01   7.03544903E+00   3.93918495E+01   5.80673838E+00   8.24476242E+00
             1021                3   3.62637634E+01   4.15808296E+01   4.15808296E+01   4.84646893E+00   5.80673838E+00   4.15808296E+01   4.15808296E+01   5.80673838E+00   4.84646893E+00   3.67343636E+01  -1.74113464E+01   3.62351379E+01   6.94705915E+00   3.94802399E+01   5.80673838E+00   8.52944183E+00
             1021                4   3.62663536E+01   4.15825348E+01   4.15825348E+01   4.84476233E+00   5.80673838E+00   4.15825348E+01   4.15825348E+01   5.80673838E+00   4.84476233E+00   3.67377701E+01  -1.74113445E+01   3.62376289E+01   6.84926319E+00   3.95780334E+01   5.80673838E+00   8.34403038E+00
             1022                1   2.13312424E+02   1.91794785E+02   1.91794785E+02  -2.98815956E+01  -1.20320034E+01   1.91794785E+02   1.91794785E+02  -1.20320034E+01  -2.98815956E+01   2.21676376E+02  -4.99603996E+01   2.11622437E+02  -2.98754063E+01   1.91788605E+02  -1.20320034E+01  -1.17077208E+00
             1022                2   2.12545685E+02   1.91425034E+02   1.91425034E+02  -2.77986126E+01  -1.37452116E+01   1.91425034E+02   1.91425034E+02  -1.37452116E+01  -2.77986126E+01   2.19223648E+02  -4.99604034E+01   2.11496582E+02  -2.76957436E+01   1.91322159E+02  -1.37452116E+01  -4.74781561E+00
             1022                3   2.13975662E+02   1.92059692E+02   1.92059692E+02  -3.19383469E+01  -1.02401447E+01   1.92059692E+02   1.92059692E+02  -1.02401447E+01  -3.19383469E+01   2.23998047E+02  -4.99604034E+01   2.11479263E+02  -3.18310890E+01   1.91952438E+02  -1.02401447E+01  -4.90049744E+00
             1022                4   2.13240707E+02   1.91735443E+02   1.91735443E+02  -2.99868546E+01  -1.18673868E+01   1.91735443E+02   1.91735443E+02  -1.18673868E+01  -2.99868546E+01   2.21722290E+02  -4.99603996E+01   2.11498322E+02  -2.96633587E+01   1.91411942E+02  -1.18673868E+01  -8.46293926E+00
             1023                1   1.07204712E+02   1.12676224E+02   1.12676224E+02   5.28420877E+00   5.65980864E+00   1.12676224E+02   1.12676224E+02   5.65980864E+00   5.28420877E+00   1.07392014E+02  -4.12067451E+01   1.07203232E+02   6.33947611E+00   1.11620956E+02   5.65980864E+00   1.05931034E+01
             1023                2   1.07222107E+02   1.12687805E+02   1.12687805E+02   5.27263165E+00   5.65980864E+00   1.12687805E+02   1.12687805E+02   5.65980864E+00   5.27263165E+00   1.07415169E+02  -4.12067451E+01   1.07220535E+02   6.28965569E+00   1.11670776E+02   5.65980864E+00   1.04023886E+01
             1023                3   1.07491768E+02   1.12867180E+02   1.12867180E+02   5.09325552E+00   5.65980864E+00   1.12867180E+02   1.12867180E+02   5.65980864E+00   5.09325552E+00   1.07773926E+02  -4.12067451E+01   1.07488411E+02   6.15598249E+00   1.11804451E+02   5.65980864E+00   1.06491737E+01
             1023                4   1.07509056E+02   1.12878677E+02   1.12878677E+02   5.08175993E+00   5.65980864E+00   1.12878677E+02   1.12878677E+02   5.65980864E+00   5.08175993E+00   1.07796913E+02  -4.12067451E+01   1.07505562E+02   6.10603905E+00   1.11854393E+02   5.65980864E+00   1.04577818E+01
             1024                1   3.79795227E+01   4.56787796E+01   4.56787796E+01   7.61493492E+00   7.78415108E+00   4.56787796E+01   4.56787796E+01   7.78415108E+00   7.61493492E+00   3.80638466E+01  -2.03592892E+01   3.79786758E+01   7.69827986E+00   4.55954361E+01   7.78415108E+00   1.77918291E+00
             1024                2   3.79527130E+01   4.56609497E+01   4.56609497E+01   7.63276863E+00   7.78415108E+00   4.56609497E+01   4.56609497E+01   7.78415108E+00   7.63276863E+00   3.80281792E+01  -2.03592892E+01   3.79520378E+01   7.74138069E+00   4.55523376E+01   7.78415108E+00   2.02939820E+00
             1024                3   3.75918427E+01   4.54204674E+01   4.54204674E+01   7.87325001E+00   7.78415108E+00   4.54204674E+01   4.54204674E+01   7.87325001E+00   7.78415108E+00   3.76363144E+01  -2.03592892E+01   3.75916100E+01   7.95314503E+00   4.53405724E+01   7.78415108E+00   1.73014843E+00
             1024                4   3.75674934E+01   4.54042130E+01   4.54042130E+01   7.88950539E+00   7.78415108E+00   4.54042130E+01   4.54042130E+01   7.88950539E+00   7.78415108E+00   3.76200600E+01  -2.03592892E+01   3.75671654E+01   7.99443626E+00   4.52992821E+01   7.78415108E+00   1.98125648E+00
             1025                1   1.53384567E+02   1.70122971E+02   1.70122971E+02   1.53479481E+01   1.81677189E+01   1.70122971E+02   1.70122971E+02   1.81677189E+01   1.53479481E+01   1.54775024E+02  -6.78795471E+01   1.53326233E+02   1.54986944E+01   1.69972229E+02   1.81677189E+01   4.82784367E+00
             1025                2   1.52018295E+02   1.69219040E+02   1.69219040E+02   1.62518711E+01   1.81677189E+01   1.69219040E+02   1.69219040E+02   1.81677189E+01   1.62518711E+01   1.52967178E+02  -6.78795471E+01   1.51991135E+02   1.64708004E+01   1.69000122E+02   1.81677189E+01   5.78275108E+00
             1025                3   1.51886795E+02   1.69131912E+02   1.69131912E+02   1.63390179E+01   1.81677189E+01   1.69131912E+02   1.69131912E+02   1.81677189E+01   1.63390179E+01   1.52792892E+02  -6.78795547E+01   1.51862030E+02   1.64353676E+01   1.69035568E+02   1.81677189E+01   3.83556890E+00
             1025                4   1.50506943E+02   1.68216125E+02   1.68216125E+02   1.72547913E+01   1.81677189E+01   1.68216125E+02   1.68216125E+02   1.81677189E+01   1.72547913E+01   1.50961334E+02  -6.78795471E+01   1.50500717E+02   1.74069290E+01   1.68063995E+02   1.81677189E+01   4.78983927E+00
             1026                1   1.98934097E+02   1.81539459E+02   1.81539459E+02  -1.85748692E+01  -1.61930389E+01   1.81539459E+02   1.81539459E+02  -1.61930389E+01  -1.85748692E+01   2.00114319E+02  -4.89238472E+01   1.98902023E+02  -1.84632530E+01   1.81427841E+02  -1.61930389E+01   4.72469807E+00
             1026                2   1.99629654E+02   1.81990601E+02   1.81990601E+02  -1.95920677E+01  -1.56269875E+01   1.81990601E+02   1.81990601E+02  -1.56269875E+01  -1.95920677E+01   2.01582672E+02  -4.89238472E+01   1.99541031E+02  -1.95453777E+01   1.81943909E+02  -1.56269875E+01   3.06746578E+00
             1026                3   1.99425064E+02   1.81852615E+02   1.81852615E+02  -1.95999222E+01  -1.54811563E+01   1.81852615E+02   1.81852615E+02  -1.54811563E+01  -1.95999222E+01   2.01452545E+02  -4.89238472E+01   1.99329330E+02  -1.93971653E+01   1.81649872E+02  -1.54811563E+01   6.38776159E+00
             1026                4   2.00105469E+02   1.82287460E+02   1.82287460E+02  -2.05882664E+01  -1.49276390E+01   1.82287460E+02   1.82287460E+02  -1.49276390E+01  -2.05882664E+01   2.02875717E+02  -4.89238472E+01   1.99925201E+02  -2.04777184E+01   1.82176910E+02  -1.49276390E+01   4.73440123E+00
             1027                1   3.24026871E+01   3.02854767E+01   3.02854767E+01   9.84955370E-01  -4.51530886E+00   3.02854767E+01   3.02854767E+01   9.84955370E-01  -4.51530886E+00   3.48007851E+01  -8.91837406E+00   3.13264809E+01   2.11996613E+01   1.00707693E+01  -4.51530886E+00   1.35523825E+01
             1027                2   3.30394897E+01   3.07521420E+01   3.07521420E+01   5.18289804E-01  -4.51530886E+00   3.07521420E+01   3.07521420E+01   5.18289804E-01  -4.51530886E+00   3.52674522E+01  -8.91837406E+00   3.21598282E+01   2.11000786E+01   1.01703520E+01  -4.51530886E+00   1.40945635E+01
             1027                3   3.28792953E+01   3.06352654E+01   3.06352654E+01   6.35165632E-01  -4.51530886E+00   3.06352654E+01   3.06352654E+01   6.35165632E-01  -4.51530886E+00   3.51505737E+01  -8.91837406E+00   3.19527588E+01   2.17813663E+01   9.48906422E+00  -4.51530886E+00   1.36830673E+01
             1027                4   3.34601974E+01   3.10575066E+01   3.10575066E+01   2.12924138E-01  -4.51530886E+00   3.10575066E+01   3.10575066E+01   2.12924138E-01  -4.51530886E+00   3.55728149E+01  -8.91837406E+00   3.26959190E+01   2.16488972E+01   9.62153339E+00  -4.51530886E+00   1.42015038E+01
             1028                1   2.14838043E+02   2.21663818E+02   2.21663818E+02   1.18182003E-01   1.42290487E+01   2.21663818E+02   2.21663818E+02   1.42290487E+01   1.18182003E-01   2.21545639E+02  -7.86703491E+01   2.13791687E+02   1.18272610E-01   2.21663727E+02   1.42290487E+01   1.40317932E-01
             1028                2   2.14895737E+02   2.21647537E+02   2.21647537E+02  -6.62763476E-01   1.50262690E+01   2.21647537E+02   2.21647537E+02   1.50262690E+01  -6.62763476E-01   2.22310303E+02  -7.86703491E+01   2.13601517E+02  -6.59860253E-01   2.21644638E+02   1.50262690E+01  -8.02532256E-01
             1028                3   2.14893753E+02   2.21670425E+02   2.21670425E+02  -3.35769027E-01   1.46763859E+01   2.21670425E+02   2.21670425E+02   1.46763859E+01  -3.35769027E-01   2.22006195E+02  -7.86703491E+01   2.13709213E+02  -3.20259959E-01   2.21654922E+02   1.46763859E+01   1.85509205E+00
             1028                4   2.14950729E+02   2.21651657E+02   2.21651657E+02  -1.09862208E+00   1.54580078E+01   2.21651657E+02   2.21651657E+02   1.54580078E+01  -1.09862208E+00   2.22750290E+02  -7.86703491E+01   2.13509064E+02  -1.09478700E+00   2.21647827E+02   1.54580078E+01   9.24190700E-01
             1029                1   1.20024162E+02   1.47843048E+02   1.47843048E+02   2.76987495E+01   2.79393768E+01   1.47843048E+02   1.47843048E+02   2.79393768E+01   2.76987495E+01   1.20144295E+02  -6.78270569E+01   1.20023621E+02   2.77223492E+01   1.47819443E+02   2.79393768E+01   1.68378246E+00
             1029                2   1.19913963E+02   1.47769638E+02   1.47769638E+02   2.77721519E+01   2.79393768E+01   1.47769638E+02   1.47769638E+02   2.79393768E+01   2.77721519E+01   1.19997490E+02  -6.78270569E+01   1.19913704E+02   2.78008118E+01   1.47740982E+02   2.79393768E+01   1.85425830E+00
             1029                3   1.19766243E+02   1.47671219E+02   1.47671219E+02   2.78705921E+01   2.79393768E+01   1.47671219E+02   1.47671219E+02   2.79393768E+01   2.78705921E+01   1.19800621E+02  -6.78270645E+01   1.19766190E+02   2.78920670E+01   1.47649734E+02   2.79393768E+01   1.60394955E+00
             1029                4   1.19655846E+02   1.47597626E+02   1.47597626E+02   2.79441757E+01   2.79393768E+01   1.47597626E+02   1.47597626E+02   2.79441757E+01   2.79393768E+01   1.19658241E+02  -6.78270569E+01   1.19655853E+02   2.79704952E+01   1.47571304E+02   2.79393768E+01   1.77436209E+00
             1030                1   1.94428070E+02   1.85498917E+02   1.85498917E+02  -9.13159084E+00  -8.72608280E+00   1.85498917E+02   1.85498917E+02  -8.72608280E+00  -9.13159084E+00   1.94630508E+02  -5.58804131E+01   1.94427124E+02  -9.07449722E+00   1.85441818E+02  -8.72608280E+00   3.33312249E+00
             1030                2   1.95052551E+02   1.85913940E+02   1.85913940E+02  -9.67892170E+00  -8.59379292E+00   1.85913940E+02   1.85913940E+02  -8.59379292E+00  -9.67892170E+00   1.95592865E+02  -5.58804054E+01   1.95045776E+02  -9.63898563E+00   1.85874008E+02  -8.59379292E+00   2.79435158E+00
             1030                3   1.94814560E+02   1.85755585E+02   1.85755585E+02  -9.54073048E+00  -8.57362938E+00   1.85755585E+02   1.85755585E+02  -8.57362938E+00  -9.54073048E+00   1.95296326E+02  -5.58804131E+01   1.94809158E+02  -9.45720863E+00   1.85672073E+02  -8.57362938E+00   4.03774834E+00
             1030                4   1.95433762E+02   1.86166153E+02   1.86166153E+02  -1.00822382E+01  -8.44267559E+00   1.86166153E+02   1.86166153E+02  -8.44267559E+00  -1.00822382E+01   1.96248383E+02  -5.58804131E+01   1.95418289E+02  -1.00198145E+01   1.86103729E+02  -8.44267559E+00   3.49933076E+00
             1031                1   1.39073837E+02   1.65965973E+02   1.65965973E+02   2.54916859E+01   2.83362198E+01   1.65965973E+02   1.65965973E+02   2.83362198E+01   2.54916859E+01   1.40474289E+02  -7.32646255E+01   1.39008347E+02   2.58276215E+01   1.65630035E+02   2.83362198E+01   6.86129189E+00
             1031                2   1.38439865E+02   1.65547241E+02   1.65547241E+02   2.59104176E+01   2.83362198E+01   1.65547241E+02   1.65547241E+02   2.83362198E+01   2.59104176E+01   1.39636826E+02  -7.32646255E+01   1.38392029E+02   2.63457642E+01   1.65111893E+02   2.83362198E+01   7.78465748E+00
             1031                3   1.37638229E+02   1.65016922E+02   1.65016922E+02   2.64407463E+01   2.83362198E+01   1.65016922E+02   1.65016922E+02   2.83362198E+01   2.64407463E+01   1.38576172E+02  -7.32646255E+01   1.37608871E+02   2.67285576E+01   1.64729111E+02   2.83362198E+01   6.30883312E+00
             1031                4   1.36993011E+02   1.64589371E+02   1.64589371E+02   2.68683033E+01   2.83362198E+01   1.64589371E+02   1.64589371E+02   2.83362198E+01   2.68683033E+01   1.37721069E+02  -7.32646255E+01   1.36975311E+02   2.72488174E+01   1.64208847E+02   2.83362198E+01   7.22917414E+00
             1032                1   3.34922905E+01   4.16634064E+01   4.16634064E+01   7.89108372E+00   8.45835209E+00   4.16634064E+01   4.16634064E+01   8.45835209E+00   7.89108372E+00   3.37723198E+01  -1.93376141E+01   3.34814835E+01   9.34151649E+00   4.02129745E+01   8.45835209E+00   6.84694767E+00
             1032                2   3.35021439E+01   4.16699181E+01   4.16699181E+01   7.88457298E+00   8.45835209E+00   4.16699181E+01   4.16699181E+01   8.45835209E+00   7.88457298E+00   3.37853470E+01  -1.93376141E+01   3.34910851E+01   9.24113369E+00   4.03133583E+01   8.45835209E+00   6.63261938E+00
             1032                3   3.38530235E+01   4.19015083E+01   4.19015083E+01   7.65298557E+00   8.45835209E+00   4.19015083E+01   4.19015083E+01   8.45835209E+00   7.65298557E+00   3.42485237E+01  -1.93376141E+01   3.38314590E+01   9.12661266E+00   4.04278793E+01   8.45835209E+00   6.94967699E+00
             1032                4   3.38625793E+01   4.19078026E+01   4.19078026E+01   7.64668941E+00   8.45835209E+00   4.19078026E+01   4.19078026E+01   8.45835209E+00   7.64668941E+00   3.42611160E+01  -1.93376141E+01   3.38406830E+01   9.02655029E+00   4.05279427E+01   8.45835209E+00   6.73584127E+00
             1033                1   2.09089279E+02   1.93950195E+02   1.93950195E+02  -1.98615780E+01  -1.00727358E+01   1.93950195E+02   1.93950195E+02  -1.00727358E+01  -1.98615780E+01   2.13811783E+02  -5.46719627E+01   2.08572800E+02  -1.97000237E+01   1.93788651E+02  -1.00727358E+01   5.87497950E+00
             1033                2   2.09658691E+02   1.94246384E+02   1.94246384E+02  -2.15566521E+01  -8.67383194E+00   1.94246384E+02   1.94246384E+02  -8.67383194E+00  -2.15566521E+01   2.15803024E+02  -5.46719666E+01   2.08765381E+02  -2.15186939E+01   1.94208420E+02  -8.67383194E+00   2.86189413E+00
             1033                3   2.09688675E+02   1.94263519E+02   1.94263519E+02  -2.16119671E+01  -8.63567257E+00   1.94263519E+02   1.94263519E+02  -8.63567257E+00  -2.16119671E+01   2.15875488E+02  -5.46719627E+01   2.08782455E+02  -2.11974564E+01   1.93849014E+02  -8.63567257E+00   9.45035934E+00
             1033                4   2.10214569E+02   1.94516281E+02   1.94516281E+02  -2.31704102E+01  -7.32997799E+00   1.94516281E+02   1.94516281E+02  -7.32997799E+00  -2.31704102E+01   2.17686691E+02  -5.46719666E+01   2.08865463E+02  -2.29848003E+01   1.94330673E+02  -7.32997799E+00   6.35374212E+00
             1034                1   1.51303883E+01   2.95195699E+00   2.95195699E+00  -1.81112215E-01  -1.34996901E+01   2.95195699E+00  -1.34996901E+01  -1.81112215E-01  -1.34996901E+01   1.64516468E+01   3.57628179E+00  -1.43731079E+01  -1.01594247E-01   2.87243891E+00  -1.34996901E+01   4.92759854E-01
             1034                2   1.51898975E+01   3.13341403E+00   3.13341403E+00  -3.62569243E-01  -1.34996901E+01   3.13341403E+00  -1.34996901E+01  -3.62569243E-01  -1.34996901E+01   1.66331043E+01   3.57628179E+00  -1.42419071E+01   7.10159133E-04   2.77013445E+00  -1.34996901E+01   1.06679285E+00
             1034                3   1.49847775E+01   2.38157725E+00   2.38157725E+00   3.89267504E-01  -1.34996901E+01   2.38157725E+00  -1.34996901E+01   3.89267504E-01  -1.34996901E+01   1.58812675E+01   3.57628179E+00  -1.46823664E+01   4.69359636E-01   2.30148506E+00  -1.34996901E+01   3.91348451E-01
             1034                4   1.50454788E+01   2.65031552E+00   2.65031552E+00   1.20528907E-01  -1.34996901E+01   2.65031552E+00  -1.34996901E+01   1.20528907E-01  -1.34996901E+01   1.61500053E+01   3.57628179E+00  -1.45554018E+01   5.73546529E-01   2.19729805E+00  -1.34996901E+01   9.69955087E-01
             1035                1   1.35477402E+02   1.50887665E+02   1.50887665E+02   8.82830334E+00   2.31263580E+01   1.50887665E+02   1.50887665E+02   2.31263580E+01   8.82830334E+00   1.42059372E+02  -6.09474449E+01   1.33764130E+02   3.31188278E+01   1.26597145E+02   2.31263580E+01   5.34852028E+01
             1035                2   1.34271225E+02   1.50120071E+02   1.50120071E+02   9.59589863E+00   2.31263580E+01   1.50120071E+02   1.50120071E+02   2.31263580E+01   9.59589863E+00   1.40524170E+02  -6.09474449E+01   1.32724457E+02   3.61222610E+01   1.23593712E+02   2.31263580E+01   5.49904289E+01
             1035                3   1.32080429E+02   1.48722015E+02   1.48722015E+02   1.09939604E+01   2.31263580E+01   1.48722015E+02   1.48722015E+02   2.31263580E+01   1.09939604E+01   1.37728058E+02  -6.09474449E+01   1.30817978E+02   3.36596146E+01   1.26056358E+02   2.31263580E+01   5.10682335E+01
             1035                4   1.30815521E+02   1.47912430E+02   1.47912430E+02   1.18035374E+01   2.31263580E+01   1.47912430E+02   1.47912430E+02   2.31263580E+01   1.18035374E+01   1.36108902E+02  -6.09474449E+01   1.29706177E+02   3.66275291E+01   1.23088448E+02   2.31263580E+01   5.25598259E+01
             1036                1   3.52539864E+01   4.43133926E+01   4.43133926E+01   9.11083317E+00   9.00819588E+00   4.43133926E+01   4.43133926E+01   9.11083317E+00   9.00819588E+00   3.53051949E+01  -2.08108063E+01   3.52536545E+01   9.21954823E+00   4.42046776E+01   9.00819588E+00   1.95324969E+00
             1036                2   3.52753487E+01   4.43276520E+01   4.43276520E+01   9.09657383E+00   9.00819588E+00   4.43276520E+01   4.43276520E+01   9.09657383E+00   9.00819588E+00   3.53194542E+01  -2.08108063E+01   3.52751045E+01   9.17832375E+00   4.42459030E+01   9.00819588E+00   1.69511104E+00
             1036                3   3.56650581E+01   4.45873070E+01   4.45873070E+01   8.83692074E+00   9.00819588E+00   4.45873070E+01   4.45873070E+01   9.00819588E+00   8.83692074E+00   3.57503853E+01  -2.08108082E+01   3.56641312E+01   8.94967556E+00   4.44745522E+01   9.00819588E+00   2.00458026E+00
             1036                4   3.56884918E+01   4.46028900E+01   4.46028900E+01   8.82133484E+00   9.00819588E+00   4.46028900E+01   4.46028900E+01   9.00819588E+00   8.82133484E+00   3.57815552E+01  -2.08108063E+01   3.56873932E+01   8.90691185E+00   4.45173149E+01   9.00819588E+00   1.74776459E+00
             1037                1   1.18966309E+02   1.27818504E+02   1.27818504E+02   7.74163961E-01   1.90438843E+01   1.27818504E+02   1.27818504E+02   1.90438843E+01   7.74163961E-01   1.27044342E+02  -4.92121849E+01   1.15746933E+02   4.92932854E+01   7.92993851E+01   1.90438843E+01   6.17249908E+01
             1037                2   1.17177055E+02   1.26700066E+02   1.26700066E+02   1.89260113E+00   1.90438843E+01   1.26700066E+02   1.26700066E+02   1.90438843E+01   1.89260113E+00   1.24807465E+02  -4.92121849E+01   1.14301811E+02   5.15611839E+01   7.70314865E+01   1.90438843E+01   6.10904388E+01
             1037                3   1.15894135E+02   1.25896301E+02   1.25896301E+02   2.69638109E+00   1.90438843E+01   1.25896301E+02   1.25896301E+02   1.90438843E+01   2.69638109E+00   1.23199921E+02  -4.92121887E+01   1.13256592E+02   4.87162247E+01   7.98764496E+01   1.90438843E+01   5.95971069E+01
             1037                4   1.14082207E+02   1.24758354E+02   1.24758354E+02   3.83432770E+00   1.90438843E+01   1.24758354E+02   1.24758354E+02   1.90438843E+01   3.83432770E+00   1.20924026E+02  -4.92121887E+01   1.11767021E+02   5.09073105E+01   7.76853638E+01   1.90438843E+01   5.89609108E+01
             1038                1   2.99421024E+01   2.21645851E+01   2.21645851E+01  -1.65478694E+00  -1.14478102E+01   2.21645851E+01   2.21645851E+01  -1.65478694E+00  -1.14478102E+01   3.36123962E+01  -3.02066255E+00   2.59539566E+01   2.46534681E+00   1.80444508E+01  -1.14478102E+01   9.00907898E+00
             1038                2   2.95646057E+01   2.18459625E+01   2.18459625E+01  -1.33616734E+00  -1.14478102E+01   2.18459625E+01   2.18459625E+01  -1.33616734E+00  -1.14478102E+01   3.32937737E+01  -3.02066207E+00   2.52090397E+01   2.98340249E+00   1.75263939E+01  -1.14478102E+01   9.02652454E+00
             1038                3   2.95394611E+01   2.18245754E+01   2.18245754E+01  -1.31477869E+00  -1.14478102E+01   2.18245754E+01   2.18245754E+01  -1.31477869E+00  -1.14478102E+01   3.32723846E+01  -3.02066207E+00   2.51581860E+01   2.35786295E+00   1.81519337E+01  -1.14478102E+01   8.45542717E+00
             1038                4   2.91292019E+01   2.14724865E+01   2.14724865E+01  -9.62690055E-01  -1.14478102E+01   2.14724865E+01   2.14724865E+01  -9.62690055E-01  -1.14478102E+01   3.29202957E+01  -3.02066207E+00   2.43042088E+01   2.86716318E+00   1.76426334E+01  -1.14478102E+01   8.44130611E+00
             1039                1   1.31081482E+02   1.58962677E+02   1.58962677E+02   2.69994907E+01   2.87810688E+01   1.58962677E+02   1.58962677E+02   2.87810688E+01   2.69994907E+01   1.31963196E+02  -7.15810776E+01   1.31054245E+02   2.72133617E+01   1.58748810E+02   2.87810688E+01   5.30825567E+00
             1039                2   1.30655487E+02   1.58680435E+02   1.58680435E+02   2.72817345E+01   2.87810688E+01   1.58680435E+02   1.58680435E+02   2.87810688E+01   2.72817345E+01   1.31398697E+02  -7.15810776E+01   1.30636139E+02   2.75534687E+01   1.58408707E+02   2.87810688E+01   5.96919727E+00
             1039                3   1.30070282E+02   1.58292221E+02   1.58292221E+02   2.76699448E+01   2.87810688E+01   1.58292221E+02   1.58292221E+02   2.87810688E+01   2.76699448E+01   1.30622284E+02  -7.15810776E+01   1.30059601E+02   2.78577576E+01   1.58104416E+02   2.87810688E+01   4.94946384E+00
             1039                4   1.29639938E+02   1.58006378E+02   1.58006378E+02   2.79557724E+01   2.87810688E+01   1.58006378E+02   1.58006378E+02   2.87810688E+01   2.79557724E+01   1.30050613E+02  -7.15810776E+01   1.29634033E+02   2.81978664E+01   1.57764297E+02   2.87810688E+01   5.60581064E+00
             1040                1   9.94036636E+01   9.94001846E+01   9.94001846E+01  -1.08159602E-01   1.01533785E-01   9.94001846E+01   9.94001846E+01   1.01533785E-01  -1.08159602E-01   9.95083389E+01  -3.31311836E+01   9.94031677E+01   2.19675708E+00   9.70952682E+01   1.01533785E-01   1.49681511E+01
             1040                2   9.92071609E+01   9.92692795E+01   9.92692795E+01   2.27464177E-02   1.01533785E-01   9.92692795E+01   9.92692795E+01   1.01533785E-01   2.27464177E-02   9.92465286E+01  -3.31311836E+01   9.92070923E+01   2.19258380E+00   9.70994415E+01   1.01533785E-01   1.45134554E+01
             1040                3   1.00003151E+02   9.97990265E+01   9.97990265E+01  -5.06997347E-01   1.01533785E-01   9.97990265E+01   9.97990265E+01   1.01533785E-01  -5.06997347E-01   1.00306023E+02  -3.31311874E+01   9.99989853E+01   1.77799630E+00   9.75140305E+01   1.01533785E-01   1.49658871E+01
             1040                4   9.98089371E+01   9.96698990E+01   9.96698990E+01  -3.77878517E-01   1.01533785E-01   9.96698990E+01   9.96698990E+01   1.01533785E-01  -3.77878517E-01   1.00047783E+02  -3.31311836E+01   9.98063507E+01   1.77428567E+00   9.75177383E+01   1.01533785E-01   1.45150719E+01
             1041                1   9.77633667E+01   1.05616531E+02   1.05616531E+02   4.66460896E+00   1.13889217E+01   1.05616531E+02   1.05616531E+02   1.13889217E+01   4.66460896E+00   1.00951927E+02  -4.05566902E+01   9.72410278E+01   3.19369450E+01   7.83442001E+01   1.13889217E+01   4.48264923E+01
             1041                2   9.68536377E+01   1.05028511E+02   1.05028511E+02   5.25262880E+00   1.13889217E+01   1.05028511E+02   1.05028511E+02   1.13889217E+01   5.25262880E+00   9.97758865E+01  -4.05566902E+01   9.64148331E+01   3.33129921E+01   7.69681549E+01   1.13889217E+01   4.48593750E+01
             1041                3   9.59900589E+01   1.04469009E+02   1.04469009E+02   5.81213427E+00   1.13889217E+01   1.04469009E+02   1.04469009E+02   1.13889217E+01   5.81213427E+00   9.86568756E+01  -4.05566902E+01   9.56245575E+01   3.18650017E+01   7.84161453E+01   1.13889217E+01   4.34918671E+01
             1041                4   9.50140152E+01   1.03835052E+02   1.03835052E+02   6.44610119E+00   1.13889217E+01   1.03835052E+02   1.03835052E+02   1.13889217E+01   6.44610119E+00   9.73889465E+01  -4.05566902E+01   9.47240982E+01   3.32250671E+01   7.70560837E+01   1.13889217E+01   4.34840469E+01
             1042                1   1.21222069E+02   1.45528793E+02   1.45528793E+02   2.34888611E+01   2.51414890E+01   1.45528793E+02   1.45528793E+02   2.51414890E+01   2.34888611E+01   1.22039932E+02  -6.47197189E+01   1.21196716E+02   2.40487404E+01   1.44968918E+02   2.51414890E+01   8.24704742E+00
             1042                2   1.21277962E+02   1.45565811E+02   1.45565811E+02   2.34518566E+01   2.51414890E+01   1.45565811E+02   1.45565811E+02   2.51414890E+01   2.34518566E+01   1.22113953E+02  -6.47197189E+01   1.21251465E+02   2.40619736E+01   1.44955688E+02   2.51414890E+01   8.60998917E+00
             1042                3   1.20675430E+02   1.45166550E+02   1.45166550E+02   2.38510990E+01   2.51414890E+01   1.45166550E+02   1.45166550E+02   2.51414890E+01   2.38510990E+01   1.21315453E+02  -6.47197189E+01   1.20659904E+02   2.44101276E+01   1.44607529E+02   2.51414890E+01   8.21620178E+00
             1042                4   1.20730988E+02   1.45203400E+02   1.45203400E+02   2.38142586E+01   2.51414890E+01   1.45203400E+02   1.45203400E+02   2.51414890E+01   2.38142586E+01   1.21389137E+02  -6.47197189E+01   1.20714569E+02   2.44235573E+01   1.44594101E+02   2.51414890E+01   8.57848740E+00
             1043                1   3.69823608E+01   3.50549431E+01   3.50549431E+01  -2.41050586E-01  -3.40986538E+00   3.50549431E+01   3.50549431E+01  -2.41050586E-01  -3.40986538E+00   3.84648094E+01  -1.04680090E+01   3.66750603E+01   7.90596068E-01   3.40232964E+01  -3.40986538E+00   5.94547701E+00
             1043                2   3.73298492E+01   3.52971497E+01   3.52971497E+01  -4.83255506E-01  -3.40986538E+00   3.52971497E+01   3.52971497E+01  -4.83255506E-01  -3.40986538E+00   3.87070122E+01  -1.04680090E+01   3.70704231E+01   5.48232734E-01   3.42656593E+01  -3.40986538E+00   5.98691130E+00
             1043                3   3.70409737E+01   3.50958710E+01   3.50958710E+01  -2.81980902E-01  -3.40986538E+00   3.50958710E+01   3.50958710E+01  -2.81980902E-01  -3.40986538E+00   3.85057335E+01  -1.04680071E+01   3.67420883E+01   8.35950851E-01   3.39779396E+01  -3.40986538E+00   6.18871450E+00
             1043                4   3.73876572E+01   3.53373413E+01   3.53373413E+01  -5.23448944E-01  -3.40986538E+00   3.53373413E+01   3.53373413E+01  -5.23448944E-01  -3.40986538E+00   3.87472076E+01  -1.04680090E+01   3.71357384E+01   5.93781888E-01   3.42201118E+01  -3.40986538E+00   6.23029137E+00
             1044                1   1.71180908E+02   1.73908310E+02   1.73908310E+02   5.03042974E-02   5.53641510E+00   1.73908310E+02   1.73908310E+02   5.53641510E+00   5.03042974E-02   1.73858017E+02  -5.98316765E+01   1.70982941E+02   1.09266914E-01   1.73849350E+02   5.53641510E+00   3.20122910E+00
             1044                2   1.70245453E+02   1.73314255E+02   1.73314255E+02   1.52490544E+00   4.65586472E+00   1.73314255E+02   1.73314255E+02   4.65586472E+00   1.52490544E+00   1.71789352E+02  -5.98316765E+01   1.70180664E+02   1.68588865E+00   1.73153275E+02   4.65586472E+00   5.25625753E+00
             1044                3   1.70222244E+02   1.73294479E+02   1.73294479E+02   1.31609130E+00   4.88448286E+00   1.73294479E+02   1.73294479E+02   4.88448286E+00   1.31609130E+00   1.71978378E+02  -5.98316803E+01   1.70138062E+02   1.31963348E+00   1.73290924E+02   4.88448286E+00   7.81337321E-01
             1044                4   1.69251465E+02   1.72664139E+02   1.72664139E+02   2.85548711E+00   3.97541165E+00   1.72664139E+02   1.72664139E+02   3.97541165E+00   2.85548711E+00   1.69808655E+02  -5.98316803E+01   1.69243118E+02   2.90242839E+00   1.72617188E+02   3.97541165E+00   2.82311821E+00
             1045                1   1.07715149E+02   1.13418022E+02   1.13418022E+02   5.62039804E+00   5.78554249E+00   1.13418022E+02   1.13418022E+02   5.78554249E+00   5.62039804E+00   1.07797623E+02  -4.16079903E+01   1.07714859E+02   6.09132528E+00   1.12947098E+02   5.78554249E+00   7.10935497E+00
             1045                2   1.07787346E+02   1.13466118E+02   1.13466118E+02   5.57230520E+00   5.78554249E+00   1.13466118E+02   1.13466118E+02   5.78554249E+00   5.57230520E+00   1.07893814E+02  -4.16079903E+01   1.07786873E+02   6.02841425E+00   1.13010010E+02   5.78554249E+00   7.00021744E+00
             1045                3   1.07886543E+02   1.13532166E+02   1.13532166E+02   5.50625229E+00   5.78554249E+00   1.13532166E+02   1.13532166E+02   5.78554249E+00   5.50625229E+00   1.08025917E+02  -4.16079903E+01   1.07885727E+02   5.98486471E+00   1.13053558E+02   5.78554249E+00   7.17448997E+00
             1045                4   1.07959023E+02   1.13580421E+02   1.13580421E+02   5.45799828E+00   5.78554249E+00   1.13580421E+02   1.13580421E+02   5.78554249E+00   5.45799828E+00   1.08122421E+02  -4.16079903E+01   1.07957901E+02   5.92159128E+00   1.13116829E+02   5.78554249E+00   7.06470251E+00
             1046                1   3.18997955E+01   4.14336014E+01   4.14336014E+01   9.27825737E+00   9.79565048E+00   4.14336014E+01   4.14336014E+01   9.79565048E+00   9.27825737E+00   3.21553459E+01  -2.01691704E+01   3.18903522E+01   1.04576864E+01   4.02541733E+01   9.79565048E+00   6.04432917E+00
             1046                2   3.19002075E+01   4.14338760E+01   4.14338760E+01   9.27798462E+00   9.79565048E+00   4.14338760E+01   4.14338760E+01   9.79565048E+00   9.27798462E+00   3.21558914E+01  -2.01691704E+01   3.18907566E+01   1.03681345E+01   4.03437271E+01   9.79565048E+00   5.81947470E+00
             1046                3   3.22714119E+01   4.16789360E+01   4.16789360E+01   9.03292274E+00   9.79565048E+00   4.16789360E+01   4.16789360E+01   9.79565048E+00   9.03292274E+00   3.26460152E+01  -2.01691704E+01   3.22511215E+01   1.02306433E+01   4.04812164E+01   9.79565048E+00   6.13728619E+00
             1046                4   3.22715912E+01   4.16790543E+01   4.16790543E+01   9.03280640E+00   9.79565048E+00   4.16790543E+01   4.16790543E+01   9.79565048E+00   9.03280640E+00   3.26462479E+01  -2.01691704E+01   3.22512932E+01   1.01413832E+01   4.05704765E+01   9.79565048E+00   5.91286421E+00
             1047                1   1.91324463E+02   1.81922348E+02   1.81922348E+02  -9.43350601E+00  -9.37069798E+00   1.81922348E+02   1.81922348E+02  -9.37069798E+00  -9.43350601E+00   1.91355865E+02  -5.43727150E+01   1.91324432E+02  -9.42456150E+00   1.81913406E+02  -9.37069798E+00   1.30834687E+00
             1047                2   1.91993988E+02   1.82368362E+02   1.82368362E+02  -9.87891197E+00  -9.37131405E+00   1.82368362E+02   1.82368362E+02  -9.37131405E+00  -9.87891197E+00   1.92247284E+02  -5.43727150E+01   1.91992462E+02  -9.86628437E+00   1.82355743E+02  -9.37131405E+00   1.55786264E+00
             1047                3   1.90964737E+02   1.81682495E+02   1.81682495E+02  -9.19395638E+00  -9.37041473E+00   1.81682495E+02   1.81682495E+02  -9.19395638E+00  -9.37041473E+00   1.91052917E+02  -5.43727112E+01   1.90964554E+02  -9.17794132E+00   1.81666489E+02  -9.37041473E+00   1.74798036E+00
             1047                4   1.91635941E+02   1.82129913E+02   1.82129913E+02  -9.64074421E+00  -9.37103081E+00   1.82129913E+02   1.82129913E+02  -9.37103081E+00  -9.64074421E+00   1.91770660E+02  -5.43727112E+01   1.91635513E+02  -9.61994648E+00   1.82109116E+02  -9.37103081E+00   1.99683344E+00
             1048                1   1.90922470E+02   1.85036041E+02   1.85036041E+02  -5.93305063E+00  -5.83975410E+00   1.85036041E+02   1.85036041E+02  -5.83975410E+00  -5.93305063E+00   1.90969101E+02  -5.77544136E+01   1.90922409E+02  -5.90516233E+00   1.85008163E+02  -5.83975410E+00   2.30742502E+00
             1048                2   1.91485855E+02   1.85411377E+02   1.85411377E+02  -6.30796146E+00  -5.84015656E+00   1.85411377E+02   1.85411377E+02  -5.84015656E+00  -6.30796146E+00   1.91719330E+02  -5.77544136E+01   1.91484573E+02  -6.28760195E+00   1.85391006E+02  -5.84015656E+00   1.97577310E+00
             1048                3   1.91430496E+02   1.85374496E+02   1.85374496E+02  -6.27103233E+00  -5.84023046E+00   1.85374496E+02   1.85374496E+02  -5.84023046E+00  -6.27103233E+00   1.91645538E+02  -5.77544136E+01   1.91429398E+02  -6.23305702E+00   1.85336533E+02  -5.84023046E+00   2.69726276E+00
             1048                4   1.91991898E+02   1.85748169E+02   1.85748169E+02  -6.64429426E+00  -5.84063244E+00   1.85748169E+02   1.85748169E+02  -5.84063244E+00  -6.64429426E+00   1.92392471E+02  -5.77544136E+01   1.91988129E+02  -6.61518621E+00   1.85719070E+02  -5.84063244E+00   2.36619186E+00
             1049                1   1.27711006E+02   1.56029419E+02   1.56029419E+02   2.75153370E+01   2.91369305E+01   1.56029419E+02   1.56029419E+02   2.91369305E+01   2.75153370E+01   1.28514084E+02  -7.08938980E+01   1.27687836E+02   2.77441978E+01   1.55800552E+02   2.91369305E+01   5.41849184E+00
             1049                2   1.27454147E+02   1.55859192E+02   1.55859192E+02   2.76855507E+01   2.91369305E+01   1.55859192E+02   1.55859192E+02   2.91369305E+01   2.76855507E+01   1.28173645E+02  -7.08938904E+01   1.27435547E+02   2.79658337E+01   1.55578903E+02   2.91369305E+01   5.98720694E+00
             1049                3   1.26838913E+02   1.55451019E+02   1.55451019E+02   2.80937176E+01   2.91369305E+01   1.55451019E+02   1.55451019E+02   2.91369305E+01   2.80937176E+01   1.27357307E+02  -7.08938904E+01   1.26829262E+02   2.83045807E+01   1.55240158E+02   2.91369305E+01   5.17788601E+00
             1049                4   1.26582825E+02   1.55280930E+02   1.55280930E+02   2.82638054E+01   2.91369305E+01   1.55280930E+02   1.55280930E+02   2.91369305E+01   2.82638054E+01   1.27017128E+02  -7.08938904E+01   1.26576050E+02   2.85244141E+01   1.55020325E+02   2.91369305E+01   5.74750900E+00
             1050                1   6.49794693E+01   5.91242104E+01   5.91242104E+01  -5.37162352E+00  -6.32833242E+00   5.91242104E+01   5.91242104E+01  -5.37162352E+00  -6.32833242E+00   6.54525452E+01  -1.58080854E+01   6.49636154E+01  -3.22782588E+00   5.69804115E+01  -6.32833242E+00   1.15615826E+01
             1050                2   6.44800339E+01   5.87882957E+01   5.87882957E+01  -5.03570843E+00  -6.32833242E+00   5.87882957E+01   5.87882957E+01  -5.03570843E+00  -6.32833242E+00   6.51166306E+01  -1.58080854E+01   6.44508667E+01  -2.82880163E+00   5.65813866E+01  -6.32833242E+00   1.16611872E+01
             1050                3   6.46408081E+01   5.88965302E+01   5.88965302E+01  -5.14394474E+00  -6.32833242E+00   5.88965302E+01   5.88965302E+01  -5.14394474E+00  -6.32833242E+00   6.52248611E+01  -1.58080854E+01   6.46163864E+01  -3.13439035E+00   5.68869781E+01  -6.32833242E+00   1.11648750E+01
             1050                4   6.41363983E+01   5.85566254E+01   5.85566254E+01  -4.80403709E+00  -6.32833242E+00   5.85566254E+01   5.85566254E+01  -4.80403709E+00  -6.32833242E+00   6.48849564E+01  -1.58080854E+01   6.40956192E+01  -2.73426819E+00   5.64868546E+01  -6.32833242E+00   1.12631254E+01
             1051                1   3.16428471E+01   4.08890305E+01   4.08890305E+01   8.88056850E+00   9.62493229E+00   4.08890305E+01   4.08890305E+01   9.62493229E+00   8.88056850E+00   3.20084610E+01  -1.97981777E+01   3.16231403E+01   1.04104042E+01   3.93591957E+01   9.62493229E+00   6.82841730E+00
             1051                2   3.16336517E+01   4.08829689E+01   4.08829689E+01   8.88663006E+00   9.62493229E+00   4.08829689E+01   4.08829689E+01   9.62493229E+00   8.88663006E+00   3.19963398E+01  -1.97981777E+01   3.16142597E+01   1.03169384E+01   3.94526634E+01   9.62493229E+00   6.61202097E+00
             1051                3   3.20038719E+01   4.11265602E+01   4.11265602E+01   8.64304066E+00   9.62493229E+00   4.11265602E+01   4.11265602E+01   9.62493229E+00   8.64304066E+00   3.24835205E+01  -1.97981777E+01   3.19699554E+01   1.01930466E+01   3.95765533E+01   9.62493229E+00   6.92438650E+00
             1051                4   3.19947777E+01   4.11205864E+01   4.11205864E+01   8.64901447E+00   9.62493229E+00   4.11205864E+01   4.11205864E+01   9.62493229E+00   8.64901447E+00   3.24715729E+01  -1.97981777E+01   3.19612637E+01   1.00994997E+01   3.96701012E+01   9.62493229E+00   6.70787621E+00
             1052                1   1.44420029E+02   1.69041916E+02   1.69041916E+02   2.30827293E+01   2.62119217E+01   1.69041916E+02   1.69041916E+02   2.62119217E+01   2.30827293E+01   1.45959198E+02  -7.27788620E+01   1.44343704E+02   2.33991871E+01   1.68725464E+02   2.62119217E+01   6.78892756E+00
             1052                2   1.43546753E+02   1.68465347E+02   1.68465347E+02   2.36593018E+01   2.62119217E+01   1.68465347E+02   1.68465347E+02   2.62119217E+01   2.36593018E+01   1.44806046E+02  -7.27788620E+01   1.43495682E+02   2.40737362E+01   1.68050919E+02   2.62119217E+01   7.73564005E+00
             1052                3   1.42925385E+02   1.68054428E+02   1.68054428E+02   2.40702400E+01   2.62119217E+01   1.68054428E+02   1.68054428E+02   2.62119217E+01   2.40702400E+01   1.43984177E+02  -7.27788620E+01   1.42889267E+02   2.43265839E+01   1.67798080E+02   2.62119217E+01   6.06989479E+00
             1052                4   1.42032486E+02   1.67462952E+02   1.67462952E+02   2.46617012E+01   2.62119217E+01   1.67462952E+02   1.67462952E+02   2.62119217E+01   2.46617012E+01   1.42801254E+02  -7.27788620E+01   1.42013443E+02   2.50065975E+01   1.67118057E+02   2.62119217E+01   7.00941515E+00
             1053                1   2.97740402E+01   2.61543407E+01   2.61543407E+01  -1.56452060E-02  -6.23977995E+00   2.61543407E+01   2.61543407E+01  -1.56452060E-02  -6.23977995E+00   3.23941193E+01  -6.63297129E+00   2.82541504E+01   2.24953979E-01   2.59137402E+01  -6.23977995E+00   2.49772000E+00
             1053                2   2.94121151E+01   2.58785915E+01   2.58785915E+01   2.60102153E-01  -6.23977995E+00   2.58785915E+01   2.58785915E+01   2.60102153E-01  -6.23977995E+00   3.21183701E+01  -6.63297081E+00   2.77262211E+01   4.86551970E-01   2.56521416E+01  -6.23977995E+00   2.39791679E+00
             1053                3   2.98430805E+01   2.62066612E+01   2.62066612E+01  -6.79679886E-02  -6.23977995E+00   2.62066612E+01   2.62066612E+01  -6.79679886E-02  -6.23977995E+00   3.24464417E+01  -6.63297081E+00   2.83533592E+01   1.23789392E-01   2.60149040E+01  -6.23977995E+00   2.23641872E+00
             1053                4   2.94818344E+01   2.59319038E+01   2.59319038E+01   2.06788123E-01  -6.23977995E+00   2.59319038E+01   2.59319038E+01   2.06788123E-01  -6.23977995E+00   3.21716843E+01  -6.63297081E+00   2.78289738E+01   3.85492951E-01   2.57532005E+01  -6.23977995E+00   2.13664484E+00
             1054                1   1.20997879E+02   1.46938385E+02   1.46938385E+02   2.53279362E+01   2.65625362E+01   1.46938385E+02   1.46938385E+02   2.65625362E+01   2.53279362E+01   1.21610451E+02  -6.62762833E+01   1.20983711E+02   2.56300659E+01   1.46636261E+02   2.65625362E+01   6.05399323E+00
             1054                2   1.21051926E+02   1.46974243E+02   1.46974243E+02   2.52920895E+01   2.65625362E+01   1.46974243E+02   1.46974243E+02   2.65625362E+01   2.52920895E+01   1.21682144E+02  -6.62762833E+01   1.21036926E+02   2.56329918E+01   1.46633331E+02   2.65625362E+01   6.43163443E+00
             1054                3   1.20435501E+02   1.46565079E+02   1.46565079E+02   2.57012463E+01   2.65625362E+01   1.46565079E+02   1.46565079E+02   2.65625362E+01   2.57012463E+01   1.20863838E+02  -6.62762833E+01   1.20428574E+02   2.60038109E+01   1.46262512E+02   2.65625362E+01   6.03971195E+00
             1054                4   1.20489861E+02   1.46601196E+02   1.46601196E+02   2.56651344E+01   2.65625362E+01   1.46601196E+02   1.46601196E+02   2.65625362E+01   2.56651344E+01   1.20936058E+02  -6.62762833E+01   1.20482338E+02   2.60066166E+01   1.46259705E+02   2.65625362E+01   6.41724586E+00
             1055                1   1.72653687E+02   1.89888199E+02   1.89888199E+02   1.37492905E+01   2.09447289E+01   1.89888199E+02   1.89888199E+02   2.09447289E+01   1.37492905E+01   1.76138916E+02  -7.48607407E+01   1.72315857E+02   1.43942785E+01   1.89243225E+02   2.09447289E+01   1.06390934E+01
             1055                2   1.71063751E+02   1.88847870E+02   1.88847870E+02   1.47896318E+01   2.09447289E+01   1.88847870E+02   1.88847870E+02   2.09447289E+01   1.47896318E+01   1.74058228E+02  -7.48607407E+01   1.70814346E+02   1.56590462E+01   1.87978455E+02   2.09447289E+01   1.22707844E+01
             1055                3   1.69931610E+02   1.88105377E+02   1.88105377E+02   1.55321283E+01   2.09447289E+01   1.88105377E+02   1.88105377E+02   2.09447289E+01   1.55321283E+01   1.72573257E+02  -7.48607483E+01   1.69737503E+02   1.60148335E+01   1.87622681E+02   2.09447289E+01   9.11420155E+00
             1055                4   1.68240570E+02   1.86993637E+02   1.86993637E+02   1.66438675E+01   2.09447289E+01   1.86993637E+02   1.86993637E+02   2.09447289E+01   1.66438675E+01   1.70349762E+02  -7.48607407E+01   1.68116806E+02   1.73291988E+01   1.86308304E+02   2.09447289E+01   1.07831106E+01
             1056                1   3.54318352E+01   4.01447792E+01   4.01447792E+01   4.06049061E+00   5.40359354E+00   4.01447792E+01   4.01447792E+01   5.40359354E+00   4.06049061E+00   3.60842857E+01  -1.65362873E+01   3.53744888E+01   6.49129677E+00   3.77139740E+01   5.40359354E+00   9.04461479E+00
             1056                2   3.53643761E+01   4.01006088E+01   4.01006088E+01   4.10466194E+00   5.40359354E+00   4.01006088E+01   4.01006088E+01   5.40359354E+00   4.10466194E+00   3.59959450E+01  -1.65362873E+01   3.53106422E+01   6.44479275E+00   3.77604752E+01   5.40359354E+00   8.87462902E+00
             1056                3   3.56960182E+01   4.03175354E+01   4.03175354E+01   3.88773417E+00   5.40359354E+00   4.03175354E+01   4.03175354E+01   5.40359354E+00   3.88773417E+00   3.64298019E+01  -1.65362873E+01   3.56234932E+01   6.31999874E+00   3.78852692E+01   5.40359354E+00   9.09346104E+00
             1056                4   3.56295433E+01   4.02740974E+01   4.02740974E+01   3.93116951E+00   5.40359354E+00   4.02740974E+01   4.02740974E+01   5.40359354E+00   3.93116951E+00   3.63429298E+01  -1.65362873E+01   3.55609894E+01   6.27382898E+00   3.79314384E+01   5.40359354E+00   8.92474461E+00
             1057                1   2.13274643E+02   2.15953339E+02   2.15953339E+02  -3.20125771E+00   9.09026527E+00   2.15953339E+02   2.15953339E+02   9.09026527E+00  -3.20125771E+00   2.19154587E+02  -7.39474487E+01   2.12475540E+02  -3.08219337E+00   2.15834274E+02   9.09026527E+00   5.10666656E+00
             1057                2   2.13149170E+02   2.15895645E+02   2.15895645E+02  -2.70301342E+00   8.64970398E+00   2.15895645E+02   2.15895645E+02   8.64970398E+00  -2.70301342E+00   2.18598648E+02  -7.39474411E+01   2.12467346E+02  -2.65112233E+00   2.15843750E+02   8.64970398E+00   3.36756492E+00
             1057                3   2.13682678E+02   2.16176559E+02   2.16176559E+02  -4.11364889E+00   9.77942371E+00   2.16176559E+02   2.16176559E+02   9.77942371E+00  -4.11364889E+00   2.20290207E+02  -7.39474411E+01   2.12662964E+02  -4.02988577E+00   2.16092804E+02   9.77942371E+00   4.29463148E+00
             1057                4   2.13564438E+02   2.16126297E+02   2.16126297E+02  -3.63322997E+00   9.34925652E+00   2.16126297E+02   2.16126297E+02   9.34925652E+00  -3.63322997E+00   2.19759537E+02  -7.39474411E+01   2.12673920E+02  -3.60442519E+00   2.16097504E+02   9.34925652E+00   2.51555347E+00
             1058                1   3.70952568E+01   4.66561127E+01   4.66561127E+01   6.24379063E+00   1.41539669E+01   4.66561127E+01   4.66561127E+01   1.41539669E+01   6.24379063E+00   4.04123230E+01  -2.23512897E+01   3.51216927E+01   1.20878725E+01   4.08120308E+01   1.41539669E+01   1.42133598E+01
             1058                2   3.54175758E+01   4.56264420E+01   4.56264420E+01   7.27345848E+00   1.41539669E+01   4.56264420E+01   4.56264420E+01   1.41539669E+01   7.27345848E+00   3.83529854E+01  -2.23512897E+01   3.38645782E+01   1.27854939E+01   4.01144066E+01   1.41539669E+01   1.34543858E+01
             1058                3   3.72399635E+01   4.67446442E+01   4.67446442E+01   6.15525770E+00   1.41539669E+01   4.67446442E+01   4.67446442E+01   1.41539669E+01   6.15525770E+00   4.05893860E+01  -2.23512897E+01   3.52285881E+01   1.12996349E+01   4.16002655E+01   1.41539669E+01   1.35034266E+01
             1058                4   3.55606079E+01   4.57144737E+01   4.57144737E+01   7.18542862E+00   1.41539669E+01   4.57144737E+01   4.57144737E+01   1.41539669E+01   7.18542862E+00   3.85290451E+01  -2.23512897E+01   3.39730797E+01   1.19986877E+01   4.09012146E+01   1.41539669E+01   1.27390270E+01
             1059                1   1.19456879E+02   1.37336060E+02   1.37336060E+02   1.66544590E+01   1.91427956E+01   1.37336060E+02   1.37336060E+02   1.91427956E+01   1.66544590E+01   1.20681602E+02  -5.77111053E+01   1.19398544E+02   1.88826427E+01   1.35107880E+02   1.91427956E+01   1.62461109E+01
             1059                2   1.19165459E+02   1.37143692E+02   1.37143692E+02   1.68468380E+01   1.91427956E+01   1.37143692E+02   1.37143692E+02   1.91427956E+01   1.68468380E+01   1.20296844E+02  -5.77111053E+01   1.19115677E+02   1.90684147E+01   1.34922104E+02   1.91427956E+01   1.61960945E+01
             1059                3   1.19533783E+02   1.37386810E+02   1.37386810E+02   1.66037025E+01   1.91427956E+01   1.37386810E+02   1.37386810E+02   1.91427956E+01   1.66037025E+01   1.20783104E+02  -5.77111015E+01   1.19473091E+02   1.87681122E+01   1.35222397E+02   1.91427956E+01   1.60230904E+01
             1059                4   1.19165359E+02   1.37143616E+02   1.37143616E+02   1.68469048E+01   1.91427956E+01   1.37143616E+02   1.37143616E+02   1.91427956E+01   1.68469048E+01   1.20296715E+02  -5.77111053E+01   1.19115585E+02   1.90063591E+01   1.34984161E+02   1.91427956E+01   1.59722433E+01
             1060                1   8.60935135E+01   8.14656219E+01   8.14656219E+01  -4.22940588E+00  -5.02092552E+00   8.14656219E+01   8.14656219E+01  -4.22940588E+00  -5.02092552E+00   8.64865417E+01  -2.40717621E+01   8.60853271E+01  -1.06745553E+00   7.83036728E+01  -5.02092552E+00   1.61544170E+01
             1060                2   8.68647461E+01   8.19813766E+01   8.19813766E+01  -4.74516439E+00  -5.02092552E+00   8.19813766E+01   8.19813766E+01  -4.74516439E+00  -5.02092552E+00   8.70023041E+01  -2.40717621E+01   8.68637695E+01  -1.63185561E+00   7.88680725E+01  -5.02092552E+00   1.61342354E+01
             1060                3   8.64612732E+01   8.17117538E+01   8.17117538E+01  -4.47553253E+00  -5.02092552E+00   8.17117538E+01   8.17117538E+01  -4.47553253E+00  -5.02092552E+00   8.67326813E+01  -2.40717640E+01   8.64574051E+01  -1.10676157E+00   7.83429794E+01  -5.02092552E+00   1.67031994E+01
             1060                4   8.72237930E+01   8.22209549E+01   8.22209549E+01  -4.98473787E+00  -5.02092552E+00   8.22209549E+01   8.22209549E+01  -4.98473787E+00  -5.02092552E+00   8.72418747E+01  -2.40717621E+01   8.72237701E+01  -1.66140807E+00   7.88976212E+01  -5.02092552E+00   1.66963711E+01
             1061                1   6.04670296E+01   5.61546021E+01   5.61546021E+01  -3.75043774E+00  -4.85916805E+00   5.61546021E+01   5.61546021E+01  -3.75043774E+00  -4.85916805E+00   6.10137711E+01  -1.58483315E+01   6.04441528E+01  -2.20040131E+00   5.46045647E+01  -4.85916805E+00   9.51064587E+00
             1061                2   6.08444748E+01   5.64083099E+01   5.64083099E+01  -4.00414371E+00  -4.85916805E+00   5.64083099E+01   5.64083099E+01  -4.00414371E+00  -4.85916805E+00   6.12674789E+01  -1.58483324E+01   6.08309517E+01  -2.50974059E+00   5.49139061E+01  -4.85916805E+00   9.38335800E+00
             1061                3   6.07907982E+01   5.63722649E+01   5.63722649E+01  -3.96809864E+00  -4.85916805E+00   5.63722649E+01   5.63722649E+01  -3.96809864E+00  -4.85916805E+00   6.12314339E+01  -1.58483324E+01   6.07761002E+01  -2.32483101E+00   5.47289963E+01  -4.85916805E+00   9.82115841E+00
             1061                4   6.11666069E+01   5.66244011E+01   5.66244011E+01  -4.22023821E+00  -4.85916805E+00   5.66244011E+01   5.66244011E+01  -4.22023821E+00  -4.85916805E+00   6.14835701E+01  -1.58483315E+01   6.11590996E+01  -2.63433123E+00   5.50384941E+01  -4.85916805E+00   9.69426918E+00
             1062                1   1.90167603E+02   1.84034714E+02   1.84034714E+02  -6.23982716E+00  -6.02576303E+00   1.84034714E+02   1.84034714E+02  -6.02576303E+00  -6.23982716E+00   1.90274551E+02  -5.72563782E+01   1.90167328E+02  -6.22337151E+00   1.84018265E+02  -6.02576303E+00   1.76929998E+00
             1062                2   1.89648727E+02   1.83688843E+02   1.83688843E+02  -5.89440632E+00  -6.02529716E+00   1.83688843E+02   1.83688843E+02  -5.89440632E+00  -6.02529716E+00   1.89714142E+02  -5.72563782E+01   1.89648621E+02  -5.88199997E+00   1.83676437E+02  -6.02529716E+00   1.53336191E+00
             1062                3   1.90509537E+02   1.84262482E+02   1.84262482E+02  -6.46732712E+00  -6.02601528E+00   1.84262482E+02   1.84262482E+02  -6.02601528E+00  -6.46732712E+00   1.90729797E+02  -5.72563782E+01   1.90508377E+02  -6.45657635E+00   1.84251724E+02  -6.02601528E+00   1.43209374E+00
             1062                4   1.89992905E+02   1.83918304E+02   1.83918304E+02  -6.12361050E+00  -6.02555037E+00   1.83918304E+02   1.83918304E+02  -6.02555037E+00  -6.12361050E+00   1.90041916E+02  -5.72563820E+01   1.89992844E+02  -6.11610413E+00   1.83910797E+02  -6.02555037E+00   1.19434285E+00
             1063                1   6.58387527E+01   6.22232361E+01   6.22232361E+01  -3.52783012E+00  -3.70283914E+00   6.22232361E+01   6.22232361E+01  -3.52783012E+00  -3.70283914E+00   6.59260788E+01  -1.83308563E+01   6.58382263E+01  -3.39847040E+00   6.20938797E+01  -3.70283914E+00   2.91356039E+00
             1063                2   6.59426193E+01   6.22925606E+01   6.22925606E+01  -3.59715223E+00  -3.70283914E+00   6.22925606E+01   6.22925606E+01  -3.59715223E+00  -3.70283914E+00   6.59953995E+01  -1.83308563E+01   6.59424286E+01  -3.48457551E+00   6.21799850E+01  -3.70283914E+00   2.72121239E+00
             1063                3   6.61379013E+01   6.24227905E+01   6.24227905E+01  -3.72737789E+00  -3.70283914E+00   6.24227905E+01   6.24227905E+01  -3.70283914E+00  -3.72737789E+00   6.61501694E+01  -1.83308582E+01   6.61378937E+01  -3.59098530E+00   6.22863960E+01  -3.70283914E+00   3.00064230E+00
             1063                4   6.62411575E+01   6.24915962E+01   6.24915962E+01  -3.79618478E+00  -3.70283914E+00   6.24915962E+01   6.24915962E+01  -3.70283914E+00  -3.79618478E+00   6.62877808E+01  -1.83308582E+01   6.62410126E+01  -3.67699742E+00   6.23724098E+01  -3.70283914E+00   2.80827641E+00
             1064                1   2.11702927E+02   2.28013168E+02   2.28013168E+02  -3.39274496E-01   3.82756958E+01   2.28013168E+02   2.28013168E+02   3.82756958E+01  -3.39274496E-01   2.28352432E+02  -8.86498642E+01   2.03552139E+02  -3.03422064E-01   2.27977310E+02   3.82756958E+01   2.86110926E+00
             1064                2   2.11984818E+02   2.28136688E+02   2.28136688E+02  -7.59713948E-01   3.85726166E+01   2.28136688E+02   2.28136688E+02   3.85726166E+01  -7.59713948E-01   2.28896393E+02  -8.86498642E+01   2.03530945E+02  -7.57803023E-01   2.28134766E+02   3.85726166E+01  -6.62360013E-01
             1064                3   2.12522369E+02   2.28314285E+02   2.28314285E+02  -1.81334150E+00   3.94486313E+01   2.28314285E+02   2.28314285E+02   3.94486313E+01  -1.81334150E+00   2.30127625E+02  -8.86498642E+01   2.03215027E+02  -1.74564540E+00   2.28246597E+02   3.94486313E+01   3.94623947E+00
             1064                4   2.12761581E+02   2.28409775E+02   2.28409775E+02  -2.19528151E+00   3.97350960E+01   2.28409775E+02   2.28409775E+02   3.97350960E+01  -2.19528151E+00   2.30605057E+02  -8.86498642E+01   2.03151184E+02  -2.19467545E+00   2.28409164E+02   3.97350960E+01   3.75048161E-01
             1065                1   1.87750626E+02   1.86494888E+02   1.86494888E+02  -1.22246325E+00  -1.28898585E+00   1.86494888E+02   1.86494888E+02  -1.22246325E+00  -1.28898585E+00   1.87783875E+02  -6.13278160E+01   1.87750595E+02  -1.22174072E+00   1.86494171E+02  -1.28898585E+00   3.68295372E-01
             1065                2   1.88037186E+02   1.86685913E+02   1.86685913E+02  -1.41323757E+00  -1.28923297E+00   1.86685913E+02   1.86685913E+02  -1.28923297E+00  -1.41323757E+00   1.88099152E+02  -6.13278160E+01   1.88037079E+02  -1.41206706E+00   1.86684738E+02  -1.28923297E+00   4.69924182E-01
             1065                3   1.87598495E+02   1.86393433E+02   1.86393433E+02  -1.12109828E+00  -1.28889382E+00   1.86393433E+02   1.86393433E+02  -1.12109828E+00  -1.28889382E+00   1.87682327E+02  -6.13278160E+01   1.87598312E+02  -1.11946678E+00   1.86391800E+02  -1.28889382E+00   5.54067731E-01
             1065                4   1.87889816E+02   1.86587692E+02   1.86587692E+02  -1.31510568E+00  -1.28914452E+00   1.86587692E+02   1.86587692E+02  -1.28914452E+00  -1.31510568E+00   1.87902802E+02  -6.13278160E+01   1.87889801E+02  -1.31282508E+00   1.86585403E+02  -1.28914452E+00   6.55287147E-01
             1066                1   1.01896072E+02   1.08366211E+02   1.08366211E+02   5.49782228E+00   7.47111702E+00   1.08366211E+02   1.08366211E+02   7.47111702E+00   5.49782228E+00   1.02868393E+02  -4.04450493E+01   1.01853073E+02   1.50251465E+01   9.88388901E+01   7.47111702E+00   2.98209763E+01
             1066                2   1.00811134E+02   1.07648560E+02   1.07648560E+02   6.21547413E+00   7.47111702E+00   1.07648560E+02   1.07648560E+02   7.47111702E+00   6.21547413E+00   1.01433090E+02  -4.04450493E+01   1.00793541E+02   1.50224943E+01   9.88415451E+01   7.47111702E+00   2.85615025E+01
             1066                3   1.03647163E+02   1.09519577E+02   1.09519577E+02   4.34446001E+00   7.47111702E+00   1.09519577E+02   1.09519577E+02   7.47111702E+00   4.34446001E+00   1.05175117E+02  -4.04450493E+01   1.03540977E+02   1.37505188E+01   1.00113518E+02   7.47111702E+00   3.00134869E+01
             1066                4   1.02635895E+02   1.08854225E+02   1.08854225E+02   5.00981379E+00   7.47111702E+00   1.08854225E+02   1.08854225E+02   7.47111702E+00   5.00981379E+00   1.03844406E+02  -4.04450493E+01   1.02569466E+02   1.36495581E+01   1.00214478E+02   7.47111702E+00   2.86800289E+01
             1067                1   1.11103569E+02   1.20964996E+02   1.20964996E+02   8.69375896E+00   1.10671091E+01   1.20964996E+02   1.20964996E+02   1.10671091E+01   8.69375896E+00   1.12271233E+02  -4.69086189E+01   1.11046509E+02   1.34604797E+01   1.16198265E+02   1.10671091E+01   2.26372356E+01
             1067                2   1.10596954E+02   1.20630524E+02   1.20630524E+02   9.02822495E+00   1.10671091E+01   1.20630524E+02   1.20630524E+02   1.10671091E+01   9.02822495E+00   1.11602303E+02  -4.69086189E+01   1.10554649E+02   1.38565226E+01   1.15802223E+02   1.10671091E+01   2.27054386E+01
             1067                3   1.10905670E+02   1.20834396E+02   1.20834396E+02   8.82435799E+00   1.10671091E+01   1.20834396E+02   1.20834396E+02   1.10671091E+01   8.82435799E+00   1.12010033E+02  -4.69086189E+01   1.10854622E+02   1.34319553E+01   1.16226791E+02   1.10671091E+01   2.22456150E+01
             1067                4   1.10398964E+02   1.20499687E+02   1.20499687E+02   9.15906715E+00   1.10671091E+01   1.20499687E+02   1.20499687E+02   1.10671091E+01   9.15906715E+00   1.11340614E+02  -4.69086189E+01   1.10361847E+02   1.38271055E+01   1.15831642E+02   1.10671091E+01   2.23148327E+01
             1068                1   5.41634331E+01   4.76892853E+01   4.76892853E+01  -3.54360175E+00  -8.99274826E+00   4.76892853E+01   4.76892853E+01  -3.54360175E+00  -8.99274826E+00   5.66820335E+01  -1.17176447E+01   5.35415306E+01   3.63920212E+00   4.05064812E+01  -8.99274826E+00   1.77877235E+01
             1068                2   5.52434921E+01   4.84468994E+01   4.84468994E+01  -4.30121613E+00  -8.99274826E+00   4.84468994E+01   4.84468994E+01  -4.30121613E+00  -8.99274826E+00   5.74396477E+01  -1.17176447E+01   5.47926064E+01   2.73483276E+00   4.14108505E+01  -8.99274826E+00   1.79341106E+01
             1068                3   5.48841438E+01   4.81956177E+01   4.81956177E+01  -4.04993534E+00  -8.99274826E+00   4.81956177E+01   4.81956177E+01  -4.04993534E+00  -8.99274826E+00   5.71883659E+01  -1.17176447E+01   5.43800125E+01   3.81829619E+00   4.03273888E+01  -8.99274826E+00   1.86861172E+01
             1068                4   5.59757538E+01   4.89566307E+01   4.89566307E+01  -4.81094694E+00  -8.99274826E+00   4.89566307E+01   4.89566307E+01  -4.81094694E+00  -8.99274826E+00   5.79493790E+01  -1.17176447E+01   5.56226807E+01   2.91869164E+00   4.12269897E+01  -8.99274826E+00   1.88641644E+01
             1069                1   1.14215996E+02   1.27604912E+02   1.27604912E+02   1.26228743E+01   1.41706896E+01   1.27604912E+02   1.27604912E+02   1.41706896E+01   1.26228743E+01   1.14982033E+02  -5.14661560E+01   1.14192398E+02   1.47830429E+01   1.25444740E+02   1.41706896E+01   1.56113510E+01
             1069                2   1.14124275E+02   1.27544167E+02   1.27544167E+02   1.26836185E+01   1.41706896E+01   1.27544167E+02   1.27544167E+02   1.41706896E+01   1.26836185E+01   1.14860550E+02  -5.14661560E+01   1.14102478E+02   1.47662907E+01   1.25461494E+02   1.41706896E+01   1.53257675E+01
             1069                3   1.14596939E+02   1.27857048E+02   1.27857048E+02   1.23707342E+01   1.41706896E+01   1.27857048E+02   1.27857048E+02   1.41706896E+01   1.23707342E+01   1.15486313E+02  -5.14661560E+01   1.14565132E+02   1.45295944E+01   1.25698189E+02   1.41706896E+01   1.56415529E+01
             1069                4   1.14511826E+02   1.27800735E+02   1.27800735E+02   1.24270458E+01   1.41706896E+01   1.27800735E+02   1.27800735E+02   1.41706896E+01   1.24270458E+01   1.15373695E+02  -5.14661560E+01   1.14481956E+02   1.45079298E+01   1.25719856E+02   1.41706896E+01   1.53541174E+01
             1070                1   4.44390373E+01   4.89681091E+01   4.89681091E+01   4.59069443E+00   4.46770096E+00   4.89681091E+01   4.89681091E+01   4.59069443E+00   4.46770096E+00   4.45004082E+01  -1.93421688E+01   4.44386559E+01   4.61254549E+00   4.89462585E+01   4.46770096E+00   9.84472156E-01
             1070                2   4.44572487E+01   4.89802628E+01   4.89802628E+01   4.57853937E+00   4.46770096E+00   4.89802628E+01   4.89802628E+01   4.57853937E+00   4.46770096E+00   4.45125618E+01  -1.93421688E+01   4.44569359E+01   4.59108353E+00   4.89677200E+01   4.46770096E+00   7.46206582E-01
             1070                3   4.47987900E+01   4.92079506E+01   4.92079506E+01   4.35085201E+00   4.46770096E+00   4.92079506E+01   4.92079506E+01   4.46770096E+00   4.35085201E+00   4.48571014E+01  -1.93421688E+01   4.47984467E+01   4.37345076E+00   4.91853523E+01   4.46770096E+00   1.00659108E+00
             1070                4   4.48168678E+01   4.92199860E+01   4.92199860E+01   4.33881760E+00   4.46770096E+00   4.92199860E+01   4.92199860E+01   4.46770096E+00   4.33881760E+00   4.48811684E+01  -1.93421688E+01   4.48164482E+01   4.35197353E+00   4.92068291E+01   4.46770096E+00   7.68331468E-01
             1071                1   6.79524460E+01   6.23012314E+01   6.23012314E+01  -4.15566444E+00  -7.05400801E+00   6.23012314E+01   6.23012314E+01  -4.15566444E+00  -7.05400801E+00   6.93552399E+01  -1.70305195E+01   6.78131638E+01   3.71782517E+00   5.44277420E+01  -7.05400801E+00   2.14768696E+01
             1071                2   6.82792130E+01   6.25237732E+01   6.25237732E+01  -4.37820292E+00  -7.05400801E+00   6.25237732E+01   6.25237732E+01  -4.37820292E+00  -7.05400801E+00   6.95777817E+01  -1.70305195E+01   6.81610947E+01   3.12530470E+00   5.50202637E+01  -7.05400801E+00   2.11115341E+01
             1071                3   6.86741028E+01   6.27921524E+01   6.27921524E+01  -4.64658451E+00  -7.05400801E+00   6.27921524E+01   6.27921524E+01  -4.64658451E+00  -7.05400801E+00   6.98461609E+01  -1.70305195E+01   6.85790634E+01   3.55494547E+00   5.45906219E+01  -7.05400801E+00   2.20416832E+01
             1071                4   6.90861893E+01   6.30715866E+01   6.30715866E+01  -4.92602205E+00  -7.05400801E+00   6.30715866E+01   6.30715866E+01  -4.92602205E+00  -7.05400801E+00   7.01255951E+01  -1.70305195E+01   6.90123901E+01   2.90961981E+00   5.52359467E+01  -7.05400801E+00   2.17119217E+01
             1072                1   2.16296066E+02   1.99036789E+02   1.99036789E+02  -2.88063259E+01  -3.48286343E+00   1.99036789E+02   1.99036789E+02  -3.48286343E+00  -2.88063259E+01   2.27843124E+02  -5.55825348E+01   2.12922638E+02  -2.88063164E+01   1.99036789E+02  -3.48286343E+00   3.57184298E-02
             1072                2   2.15668777E+02   1.98848114E+02   1.98848114E+02  -2.65655804E+01  -5.53491449E+00   1.98848114E+02   1.98848114E+02  -5.53491449E+00  -2.65655804E+01   2.25413696E+02  -5.55825386E+01   2.13343536E+02  -2.65052872E+01   1.98787811E+02  -5.53491449E+00  -3.68633890E+00
             1072                3   2.16826492E+02   1.99147308E+02   1.99147308E+02  -3.07981987E+01  -1.60147977E+00   1.99147308E+02   1.99147308E+02  -1.60147977E+00  -3.07981987E+01   2.29945496E+02  -5.55825386E+01   2.12336380E+02  -3.07196407E+01   1.99068741E+02  -1.60147977E+00  -4.24960089E+00
             1072                4   2.16217911E+02   1.98996765E+02   1.98996765E+02  -2.86810265E+01  -3.56812692E+00   1.98996765E+02   1.98996765E+02  -3.56812692E+00  -2.86810265E+01   2.27677780E+02  -5.55825348E+01   2.12899750E+02  -2.84060783E+01   1.98721817E+02  -3.56812692E+00  -7.90715456E+00
             1073                1   3.11913280E+01   4.26784782E+01   4.26784782E+01   1.14090872E+01   1.15658035E+01   4.26784782E+01   4.26784782E+01   1.15658035E+01   1.14090872E+01   3.12693920E+01  -2.18844547E+01   3.11904469E+01   1.14232073E+01   4.26643600E+01   1.15658035E+01   6.64303780E-01
             1073                2   3.11879520E+01   4.26762314E+01   4.26762314E+01   1.14113331E+01   1.15658035E+01   4.26762314E+01   4.26762314E+01   1.15658035E+01   1.14113331E+01   3.12649002E+01  -2.18844547E+01   3.11870956E+01   1.14395113E+01   4.26480560E+01   1.15658035E+01   9.38170195E-01
             1073                3   3.07716961E+01   4.23987999E+01   4.23987999E+01   1.16887712E+01   1.15658035E+01   4.23987999E+01   4.23987999E+01   1.16887712E+01   1.15658035E+01   3.08329964E+01  -2.18844585E+01   3.07711430E+01   1.17023230E+01   4.23852463E+01   1.15658035E+01   6.45001769E-01
             1073                4   3.07686939E+01   4.23967934E+01   4.23967934E+01   1.16907740E+01   1.15658035E+01   4.23967934E+01   4.23967934E+01   1.16907740E+01   1.15658035E+01   3.08309879E+01  -2.18844547E+01   3.07681274E+01   1.17183352E+01   4.23692322E+01   1.15658035E+01   9.19513047E-01
             1074                1   1.34596359E+02   1.63342163E+02   1.63342163E+02   2.71390934E+01   3.04122391E+01   1.63342163E+02   1.63342163E+02   3.04122391E+01   2.71390934E+01   1.36203079E+02  -7.36311646E+01   1.34506775E+02   2.77544651E+01   1.62726791E+02   3.04122391E+01   9.13442230E+00
             1074                2   1.34270218E+02   1.63127228E+02   1.63127228E+02   2.73540249E+01   3.04122391E+01   1.63127228E+02   1.63127228E+02   3.04122391E+01   2.73540249E+01   1.35773193E+02  -7.36311646E+01   1.34191818E+02   2.80815163E+01   1.62399734E+02   3.04122391E+01   9.91181087E+00
             1074                3   1.33323563E+02   1.62502441E+02   1.62502441E+02   2.79788113E+01   3.04122391E+01   1.62502441E+02   1.62502441E+02   3.04122391E+01   2.79788113E+01   1.34523621E+02  -7.36311646E+01   1.33273575E+02   2.85583973E+01   1.61922852E+02   3.04122391E+01   8.81088924E+00
             1074                4   1.33054535E+02   1.62324631E+02   1.62324631E+02   2.81566181E+01   3.04122391E+01   1.62324631E+02   1.62324631E+02   3.04122391E+01   2.81566181E+01   1.34168015E+02  -7.36311646E+01   1.33011505E+02   2.88444805E+01   1.61636765E+02   3.04122391E+01   9.58208084E+00
             1075                1   3.71623001E+01   3.62061577E+01   3.62061577E+01  -6.85705915E-02  -1.78428102E+00   3.62061577E+01   3.62061577E+01  -6.85705915E-02  -1.78428102E+00   3.79904404E+01  -1.14511023E+01   3.70730362E+01   1.01966512E+00   3.51179237E+01  -1.78428102E+00   6.18798733E+00
             1075                2   3.68946037E+01   3.60230637E+01   3.60230637E+01   1.14528880E-01  -1.78428102E+00   3.60230637E+01   3.60230637E+01   1.14528880E-01  -1.78428102E+00   3.78073463E+01  -1.14511032E+01   3.67844276E+01   1.20478356E+00   3.49328079E+01  -1.78428102E+00   6.16123533E+00
             1075                3   3.71119423E+01   3.61717567E+01   3.61717567E+01  -3.41664329E-02  -1.78428102E+00   3.61717567E+01   3.61717567E+01  -3.41664329E-02  -1.78428102E+00   3.79560356E+01  -1.14511023E+01   3.70189247E+01   9.89814997E-01   3.51477737E+01  -1.78428102E+00   6.00213671E+00
             1075                4   3.68436356E+01   3.59881401E+01   3.59881401E+01   1.49448097E-01  -1.78428102E+00   3.59881401E+01   3.59881401E+01   1.49448097E-01  -1.78428102E+00   3.77724228E+01  -1.14511023E+01   3.67292023E+01   1.17505717E+00   3.49625320E+01  -1.78428102E+00   5.97533178E+00
             1076                1   1.90816784E+01   9.23378086E+00   9.23378086E+00  -4.19753492E-01  -1.27457523E+01   9.23378086E+00  -1.27457523E+01  -4.19753492E-01  -1.27457523E+01   2.19795341E+01   1.31057489E+00  -1.13186808E+01   4.65066433E-01   8.34896088E+00  -1.27457523E+01   2.78545070E+00
             1076                2   1.87391090E+01   8.76349545E+00   8.76349545E+00   5.05319610E-02  -1.27457523E+01   8.76349545E+00  -1.27457523E+01   5.05319610E-02  -1.27457523E+01   2.15092487E+01   1.31057489E+00  -1.28397923E+01   9.57614481E-01   7.85641289E+00  -1.27457523E+01   2.66093588E+00
             1076                3   1.89667320E+01   9.08032513E+00   9.08032513E+00  -2.66297609E-01  -1.27457523E+01   9.08032513E+00  -1.27457523E+01  -2.66297609E-01  -1.27457523E+01   2.18260784E+01   1.31057489E+00  -1.18763199E+01   3.35070670E-01   8.47895718E+00  -1.27457523E+01   2.29327679E+00
             1076                4   1.86215210E+01   8.59205341E+00   8.59205341E+00   2.21974641E-01  -1.27457523E+01   8.59205341E+00  -1.27457523E+01   2.21974641E-01  -1.27457523E+01   2.13378048E+01   1.31057489E+00  -1.32815037E+01   8.27426553E-01   7.98660088E+00  -1.27457523E+01   2.16820407E+00
             1077                1   1.12163055E+02   1.26224213E+02   1.26224213E+02   1.40642109E+01   1.40580978E+01   1.26224213E+02   1.26224213E+02   1.40642109E+01   1.40580978E+01   1.12166115E+02  -5.14488411E+01   1.12163040E+02   1.41098127E+01   1.26178604E+02   1.40580978E+01   2.26114583E+00
             1077                2   1.12368874E+02   1.26361382E+02   1.26361382E+02   1.39270382E+01   1.40580978E+01   1.26361382E+02   1.26361382E+02   1.40580978E+01   1.39270382E+01   1.12434341E+02  -5.14488411E+01   1.12368690E+02   1.39729519E+01   1.26315468E+02   1.40580978E+01   2.27164674E+00
             1077                3   1.12154526E+02   1.26218529E+02   1.26218529E+02   1.40698967E+01   1.40580978E+01   1.26218529E+02   1.26218529E+02   1.40698967E+01   1.40580978E+01   1.12160431E+02  -5.14488411E+01   1.12154510E+02   1.41211653E+01   1.26167252E+02   1.40580978E+01   2.39733577E+00
             1077                4   1.12360512E+02   1.26355812E+02   1.26355812E+02   1.39326086E+01   1.40580978E+01   1.26355812E+02   1.26355812E+02   1.40580978E+01   1.39326086E+01   1.12423203E+02  -5.14488411E+01   1.12360336E+02   1.39842014E+01   1.26304214E+02   1.40580978E+01   2.40785098E+00
             1078                1   2.12536469E+01   1.28946981E+01   1.28946981E+01  -9.61854383E-02  -1.16325283E+01   1.28946981E+01   1.28946981E+01  -9.61854383E-02  -1.16325283E+01   2.45272255E+01  -3.88661385E-01   9.94645882E+00   3.96927834E+00   8.82923412E+00  -1.16325283E+01   6.02378368E+00
             1078                2   2.11229553E+01   1.27510004E+01   1.27510004E+01   4.75113131E-02  -1.16325283E+01   1.27510004E+01   1.27510004E+01   4.75113131E-02  -1.16325283E+01   2.43835278E+01  -3.88661057E-01   8.81270218E+00   4.36106920E+00   8.43744278E+00  -1.16325283E+01   6.01585007E+00
             1078                3   2.09466534E+01   1.25533066E+01   1.25533066E+01   2.45205492E-01  -1.16325283E+01   1.25533066E+01   1.25533066E+01   2.45205492E-01  -1.16325283E+01   2.41858349E+01  -3.88661385E-01   6.56698895E+00   3.90659022E+00   8.89192200E+00  -1.16325283E+01   5.62662935E+00
             1078                4   2.08097858E+01   1.23965311E+01   1.23965311E+01   4.01980907E-01  -1.16325283E+01   1.23965311E+01   1.23965311E+01   4.01980907E-01  -1.16325283E+01   2.40290604E+01  -3.88661385E-01  -2.96082044E+00   4.30993176E+00   8.48858070E+00  -1.16325283E+01   5.62156868E+00
             1079                1   2.10651657E+02   2.07784485E+02   2.07784485E+02  -7.93250608E+00   2.59275913E+00   2.07784485E+02   2.07784485E+02   2.59275913E+00  -7.93250608E+00   2.15716980E+02  -6.74815750E+01   2.10058823E+02  -7.74405575E+00   2.07596024E+02   2.59275913E+00   6.37321663E+00
             1079                2   2.10996262E+02   2.07964966E+02   2.07964966E+02  -8.93438148E+00   3.41414952E+00   2.07964966E+02   2.07964966E+02   3.41414952E+00  -8.93438148E+00   2.16899338E+02  -6.74815750E+01   2.10180939E+02  -8.91576004E+00   2.07946335E+02   3.41414952E+00   2.00982165E+00
             1079                3   2.11318680E+02   2.08145340E+02   2.08145340E+02  -9.59375095E+00   3.89312959E+00   2.08145340E+02   2.08145340E+02   3.89312959E+00  -9.59375095E+00   2.17739090E+02  -6.74815750E+01   2.10347092E+02  -9.13496590E+00   2.07686554E+02   3.89312959E+00   9.98425865E+00
             1079                4   2.11641815E+02   2.08299866E+02   2.08299866E+02  -1.05701723E+01   4.71504259E+00   2.08299866E+02   2.08299866E+02   4.71504259E+00  -1.05701723E+01   2.18870041E+02  -6.74815750E+01   2.10394577E+02  -1.04158049E+01   2.08145493E+02   4.71504259E+00   5.81060791E+00
             1080                1   1.19373016E+02   1.43692749E+02   1.43692749E+02   2.37809620E+01   2.48658981E+01   1.43692749E+02   1.43692749E+02   2.48658981E+01   2.37809620E+01   1.19911781E+02  -6.41131973E+01   1.19361923E+02   2.41147900E+01   1.43358917E+02   2.48658981E+01   6.31811714E+00
             1080                2   1.19472809E+02   1.43758972E+02   1.43758972E+02   2.37147427E+01   2.48658981E+01   1.43758972E+02   1.43758972E+02   2.48658981E+01   2.37147427E+01   1.20044228E+02  -6.41131973E+01   1.19460335E+02   2.40793114E+01   1.43394394E+02   2.48658981E+01   6.60545254E+00
             1080                3   1.18945778E+02   1.43409042E+02   1.43409042E+02   2.40646801E+01   2.48658981E+01   1.43409042E+02   1.43409042E+02   2.48658981E+01   2.40646801E+01   1.19344368E+02  -6.41132126E+01   1.18939690E+02   2.44028397E+01   1.43070877E+02   2.48658981E+01   6.34378290E+00
             1080                4   1.19045616E+02   1.43475372E+02   1.43475372E+02   2.39983425E+01   2.48658981E+01   1.43475372E+02   1.43475372E+02   2.48658981E+01   2.39983425E+01   1.19477028E+02  -6.41131973E+01   1.19038506E+02   2.43674870E+01   1.43106216E+02   2.48658981E+01   6.63085604E+00
             1081                1   2.14520950E+02   1.91304581E+02   1.91304581E+02  -3.25158844E+01  -1.25161600E+01   1.91304581E+02   1.91304581E+02  -1.25161600E+01  -3.25158844E+01   2.23820465E+02  -4.87575111E+01   2.12408295E+02  -3.25154343E+01   1.91304138E+02  -1.25161600E+01  -3.14753592E-01
             1081                2   2.14022736E+02   1.91146774E+02   1.91146774E+02  -3.03460541E+01  -1.45281725E+01   1.91146774E+02   1.91146774E+02  -1.45281725E+01  -3.03460541E+01   2.21492828E+02  -4.87575188E+01   2.12701645E+02  -3.02650948E+01   1.91065811E+02  -1.45281725E+01  -4.23392820E+00
             1081                3   2.14954697E+02   1.91388062E+02   1.91388062E+02  -3.45676193E+01  -1.05479031E+01   1.91388062E+02   1.91388062E+02  -1.05479031E+01  -3.45676193E+01   2.25955673E+02  -4.87575111E+01   2.11903870E+02  -3.44823227E+01   1.91302765E+02  -1.05479031E+01  -4.38914585E+00
             1081                4   2.14487961E+02   1.91274399E+02   1.91274399E+02  -3.25871201E+01  -1.24147491E+01   1.91274399E+02   1.91274399E+02  -1.24147491E+01  -3.25871201E+01   2.23861526E+02  -4.87575111E+01   2.12338058E+02  -3.22748375E+01   1.90962128E+02  -1.24147491E+01  -8.35519695E+00
             1082                1   1.25260185E+02   1.53415787E+02   1.53415787E+02   2.76383667E+01   2.86793213E+01   1.53415787E+02   1.53415787E+02   2.86793213E+01   2.76383667E+01   1.25777420E+02  -6.99111557E+01   1.25250458E+02   2.77644348E+01   1.53289719E+02   2.86793213E+01   3.98003435E+00
             1082                2   1.25012741E+02   1.53251450E+02   1.53251450E+02   2.78027153E+01   2.86793213E+01   1.53251450E+02   1.53251450E+02   2.86793213E+01   2.78027153E+01   1.25448738E+02  -6.99111633E+01   1.25005821E+02   2.79590549E+01   1.53095108E+02   2.86793213E+01   4.42589283E+00
             1082                3   1.24579582E+02   1.52963516E+02   1.52963516E+02   2.80906372E+01   2.86793213E+01   1.52963516E+02   1.52963516E+02   2.86793213E+01   2.80906372E+01   1.24872879E+02  -6.99111557E+01   1.24576454E+02   2.82048779E+01   1.52849274E+02   2.86793213E+01   3.77528977E+00
             1082                4   1.24330856E+02   1.52798035E+02   1.52798035E+02   2.82561188E+01   2.86793213E+01   1.52798035E+02   1.52798035E+02   2.86793213E+01   2.82561188E+01   1.24541916E+02  -6.99111557E+01   1.24329231E+02   2.83993073E+01   1.52654846E+02   2.86793213E+01   4.22048759E+00
             1083                1   3.28296547E+01   4.31231956E+01   4.31231956E+01   1.03158474E+01   1.02712803E+01   4.31231956E+01   4.31231956E+01   1.03158474E+01   1.02712803E+01   3.28519135E+01  -2.12367725E+01   3.28295860E+01   1.04615421E+01   4.29774971E+01   1.02712803E+01   2.18144560E+00
             1083                2   3.32295761E+01   4.33894539E+01   4.33894539E+01   1.00495863E+01   1.02712803E+01   4.33894539E+01   4.33894539E+01   1.02712803E+01   1.00495863E+01   3.33398705E+01  -2.12367725E+01   3.32279129E+01   1.01984043E+01   4.32406349E+01   1.02712803E+01   2.22249818E+00
             1083                3   3.28225174E+01   4.31184311E+01   4.31184311E+01   1.03206053E+01   1.02712803E+01   4.31184311E+01   4.31184311E+01   1.03206053E+01   1.02712803E+01   3.28471527E+01  -2.12367725E+01   3.28224335E+01   1.05023127E+01   4.29367256E+01   1.02712803E+01   2.43445134E+00
             1083                4   3.32228355E+01   4.33849754E+01   4.33849754E+01   1.00540657E+01   1.02712803E+01   4.33849754E+01   4.33849754E+01   1.02712803E+01   1.00540657E+01   3.33309097E+01  -2.12367725E+01   3.32212372E+01   1.02387428E+01   4.32002983E+01   1.02712803E+01   2.47413540E+00
             1084                1   6.63761749E+01   6.12133026E+01   6.12133026E+01  -4.70425129E+00  -5.61217785E+00   6.12133026E+01   6.12133026E+01  -4.70425129E+00  -5.61217785E+00   6.68254776E+01  -1.69656239E+01   6.63622055E+01  -3.34983921E+00   5.98588905E+01  -5.61217785E+00   9.35121155E+00
             1084                2   6.67637939E+01   6.14732475E+01   6.14732475E+01  -4.96419907E+00  -5.61217785E+00   6.14732475E+01   6.14732475E+01  -4.96419907E+00  -5.61217785E+00   6.70854263E+01  -1.69656239E+01   6.67567215E+01  -3.65994263E+00   6.01689911E+01  -5.61217785E+00   9.21685314E+00
             1084                3   6.66982269E+01   6.14293175E+01   6.14293175E+01  -4.92026758E+00  -5.61217785E+00   6.14293175E+01   6.14293175E+01  -4.92026758E+00  -5.61217785E+00   6.70414963E+01  -1.69656239E+01   6.66901550E+01  -3.48212385E+00   5.99911728E+01  -5.61217785E+00   9.66188049E+00
             1084                4   6.70838242E+01   6.16874733E+01   6.16874733E+01  -5.17842388E+00  -5.61217785E+00   6.16874733E+01   6.16874733E+01  -5.17842388E+00  -5.61217785E+00   6.72996521E+01  -1.69656239E+01   6.70806732E+01  -3.79216957E+00   6.03012199E+01  -5.61217785E+00   9.52739811E+00
             1085                1   1.28353775E+02   1.56010452E+02   1.56010452E+02   2.70795269E+01   2.82417259E+01   1.56010452E+02   1.56010452E+02   2.82417259E+01   2.70795269E+01   1.28930923E+02  -7.04439011E+01   1.28341934E+02   2.71987038E+01   1.55891281E+02   2.82417259E+01   3.91803241E+00
             1085                2   1.27926285E+02   1.55726593E+02   1.55726593E+02   2.73634109E+01   2.82417259E+01   1.55726593E+02   1.55726593E+02   2.82417259E+01   2.73634109E+01   1.28363174E+02  -7.04439087E+01   1.27919487E+02   2.75150547E+01   1.55574936E+02   2.82417259E+01   4.40944862E+00
             1085                3   1.27599998E+02   1.55509720E+02   1.55509720E+02   2.75802822E+01   2.82417259E+01   1.55509720E+02   1.55509720E+02   2.82417259E+01   2.75802822E+01   1.27929428E+02  -7.04439087E+01   1.27596130E+02   2.76812420E+01   1.55408752E+02   2.82417259E+01   3.59245420E+00
             1085                4   1.27169876E+02   1.55223557E+02   1.55223557E+02   2.78664455E+01   2.82417259E+01   1.55223557E+02   1.55223557E+02   2.82417259E+01   2.78664455E+01   1.27357101E+02  -7.04439087E+01   1.27168617E+02   2.79975510E+01   1.55092438E+02   2.82417259E+01   4.08416891E+00
             1086                1   3.14203339E+01   4.03506012E+01   4.03506012E+01   8.43719673E+00   9.44771290E+00   4.03506012E+01   4.03506012E+01   9.44771290E+00   8.43719673E+00   3.19134026E+01  -1.94118366E+01   3.13837433E+01   1.03383379E+01   3.84494591E+01   9.44771290E+00   7.55364323E+00
             1086                2   3.13955841E+01   4.03343506E+01   4.03343506E+01   8.45344353E+00   9.44771290E+00   4.03343506E+01   4.03343506E+01   9.44771290E+00   8.45344353E+00   3.18809090E+01  -1.94118366E+01   3.13601341E+01   1.02463770E+01   3.85414200E+01   9.44771290E+00   7.34477425E+00
             1086                3   3.17695827E+01   4.05794678E+01   4.05794678E+01   8.20833015E+00   9.44771290E+00   4.05794678E+01   4.05794678E+01   9.44771290E+00   8.20833015E+00   3.23711357E+01  -1.94118366E+01   3.17151241E+01   1.01287899E+01   3.86590080E+01   9.44771290E+00   7.64717484E+00
             1086                4   3.17449722E+01   4.05633621E+01   4.05633621E+01   8.22443199E+00   9.44771290E+00   4.05633621E+01   4.05633621E+01   9.44771290E+00   8.22443199E+00   3.23389320E+01  -1.94118366E+01   3.16918793E+01   1.00370750E+01   3.87507210E+01   9.44771290E+00   7.43863249E+00
             1087                1   1.15386101E+02   1.33644318E+02   1.33644318E+02   1.79206543E+01   1.85987720E+01   1.33644318E+02   1.33644318E+02   1.85987720E+01   1.79206543E+01   1.15723663E+02  -5.67212486E+01   1.15381622E+02   1.83335018E+01   1.33231476E+02   1.85987720E+01   6.89967155E+00
             1087                2   1.15555359E+02   1.33756805E+02   1.33756805E+02   1.78081799E+01   1.85987720E+01   1.33756805E+02   1.33756805E+02   1.85987720E+01   1.78081799E+01   1.15948624E+02  -5.67212524E+01   1.15549271E+02   1.82334690E+01   1.33331512E+02   1.85987720E+01   7.00935268E+00
             1087                3   1.15236824E+02   1.33545074E+02   1.33545074E+02   1.80199108E+01   1.85987720E+01   1.33545074E+02   1.33545074E+02   1.85987720E+01   1.80199108E+01   1.15525169E+02  -5.67212524E+01   1.15233551E+02   1.84450779E+01   1.33119904E+02   1.85987720E+01   6.99550247E+00
             1087                4   1.15406746E+02   1.33658035E+02   1.33658035E+02   1.79069309E+01   1.85987720E+01   1.33658035E+02   1.33658035E+02   1.85987720E+01   1.79069309E+01   1.15751114E+02  -5.67212486E+01   1.15402077E+02   1.83447533E+01   1.33220215E+02   1.85987720E+01   7.10543394E+00
             1088                1   5.10064468E+01   5.25994759E+01   5.25994759E+01   1.65402806E+00   1.53225195E+00   5.25994759E+01   5.25994759E+01   1.65402806E+00   1.53225195E+00   5.10672264E+01  -1.85952530E+01   5.10061188E+01   1.67615902E+00   5.25773468E+01   1.53225195E+00   1.06159031E+00
             1088                2   5.10316811E+01   5.26163177E+01   5.26163177E+01   1.63718796E+00   1.53225195E+00   5.26163177E+01   5.26163177E+01   1.63718796E+00   1.53225195E+00   5.10840645E+01  -1.85952530E+01   5.10314331E+01   1.65091169E+00   5.26025925E+01   1.53225195E+00   8.36371124E-01
             1088                3   5.13469009E+01   5.28264656E+01   5.28264656E+01   1.42703593E+00   1.53225195E+00   5.28264656E+01   5.28264656E+01   1.53225195E+00   1.42703593E+00   5.13994293E+01  -1.85952511E+01   5.13466606E+01   1.45002842E+00   5.28034744E+01   1.53225195E+00   1.08684075E+00
             1088                4   5.13717651E+01   5.28430252E+01   5.28430252E+01   1.41048193E+00   1.53225195E+00   5.28430252E+01   5.28430252E+01   1.53225195E+00   1.41048193E+00   5.14325409E+01  -1.85952530E+01   5.13714409E+01   1.42492366E+00   5.28285828E+01   1.53225195E+00   8.61702681E-01
             1089                1   1.79121933E+01   7.71325493E+00   7.71325493E+00  -1.83550939E-01  -1.27904186E+01   7.71325493E+00  -1.27904186E+01  -1.83550939E-01  -1.27904186E+01   2.05036736E+01   1.75357151E+00  -1.30345545E+01  -1.22015528E-01   7.65171957E+00  -1.27904186E+01   6.94368064E-01
             1089                2   1.78966656E+01   7.68971586E+00   7.68971586E+00  -1.60011843E-01  -1.27904186E+01   7.68971586E+00  -1.27904186E+01  -1.60011843E-01  -1.27904186E+01   2.04801350E+01   1.75357151E+00  -1.30885067E+01   1.82323828E-02   7.51147175E+00  -1.27904186E+01   1.16935766E+00
             1089                3   1.76045742E+01   7.22144270E+00   7.22144270E+00   3.08261395E-01  -1.27904186E+01   7.22144270E+00  -1.27904186E+01   3.08261395E-01  -1.27904186E+01   2.00118618E+01   1.75357151E+00  -1.40224037E+01   3.53228062E-01   7.17647600E+00  -1.27904186E+01   5.55734634E-01
             1089                4   1.75889645E+01   7.19485044E+00   7.19485044E+00   3.34853798E-01  -1.27904186E+01   7.19485044E+00  -1.27904186E+01   3.34853798E-01  -1.27904186E+01   1.99852695E+01   1.75357151E+00  -1.40685091E+01   4.93259579E-01   7.03644466E+00  -1.27904186E+01   1.03032506E+00
             1090                1   1.64411026E+02   1.81821014E+02   1.81821014E+02   1.48826990E+01   2.00595684E+01   1.81821014E+02   1.81821014E+02   2.00595684E+01   1.48826990E+01   1.66938324E+02  -7.22544327E+01   1.64227493E+02   1.52847929E+01   1.81418930E+02   2.00595684E+01   8.18307209E+00
             1090                2   1.63045868E+02   1.80923599E+02   1.80923599E+02   1.57801409E+01   2.00595684E+01   1.80923599E+02   1.80923599E+02   2.00595684E+01   1.57801409E+01   1.65143448E+02  -7.22544327E+01   1.62919434E+02   1.63478622E+01   1.80355865E+02   2.00595684E+01   9.66615105E+00
             1090                3   1.61927719E+02   1.80186859E+02   1.80186859E+02   1.65168724E+01   2.00595684E+01   1.80186859E+02   1.80186859E+02   2.00595684E+01   1.65168724E+01   1.63669983E+02  -7.22544327E+01   1.61840469E+02   1.68182602E+01   1.79885468E+02   2.00595684E+01   7.01701212E+00
             1090                4   1.60559586E+02   1.79283310E+02   1.79283310E+02   1.74204082E+01   2.00595684E+01   1.79283310E+02   1.79283310E+02   2.00595684E+01   1.74204082E+01   1.61862900E+02  -7.22544327E+01   1.60510773E+02   1.78691883E+01   1.78834534E+02   2.00595684E+01   8.51111412E+00
             1091                1   1.46265839E+02   1.67331223E+02   1.67331223E+02   1.98480358E+01   2.23139133E+01   1.67331223E+02   1.67331223E+02   2.23139133E+01   1.98480358E+01   1.47483185E+02  -6.98310623E+01   1.46219055E+02   2.00236111E+01   1.67155655E+02   2.23139133E+01   5.08552933E+00
             1091                2   1.45150726E+02   1.66593063E+02   1.66593063E+02   2.05861950E+01   2.23139133E+01   1.66593063E+02   1.66593063E+02   2.23139133E+01   2.05861950E+01   1.46006866E+02  -6.98310623E+01   1.45127579E+02   2.08256607E+01   1.66353607E+02   2.23139133E+01   5.90805769E+00
             1091                3   1.44970566E+02   1.66473648E+02   1.66473648E+02   2.07056198E+01   2.23139133E+01   1.66473648E+02   1.66473648E+02   2.23139133E+01   2.07056198E+01   1.45768021E+02  -6.98310623E+01   1.44950485E+02   2.08306026E+01   1.66348663E+02   2.23139133E+01   4.26639795E+00
             1091                4   1.43847778E+02   1.65728287E+02   1.65728287E+02   2.14509907E+01   2.23139133E+01   1.65728287E+02   1.65728287E+02   2.23139133E+01   2.14509907E+01   1.44277298E+02  -6.98310623E+01   1.43841949E+02   2.16305962E+01   1.65548676E+02   2.23139133E+01   5.08737469E+00
             1092                1   6.39203568E+01   6.08943710E+01   6.08943710E+01  -2.95506477E+00  -3.09667373E+00   6.08943710E+01   6.08943710E+01  -2.95506477E+00  -3.09667373E+00   6.39910431E+01  -1.82808781E+01   6.39200020E+01  -2.88917708E+00   6.08284798E+01  -3.09667373E+00   2.05003953E+00
             1092                2   6.39900970E+01   6.09409027E+01   6.09409027E+01  -3.00160408E+00  -3.09667373E+00   6.09409027E+01   6.09409027E+01  -3.00160408E+00  -3.09667373E+00   6.40375748E+01  -1.82808762E+01   6.39899368E+01  -2.94796586E+00   6.08872681E+01  -3.09667373E+00   1.85115504E+00
             1092                3   6.42241898E+01   6.10969887E+01   6.10969887E+01  -3.15768528E+00  -3.09667373E+00   6.10969887E+01   6.10969887E+01  -3.09667373E+00  -3.15768528E+00   6.42546768E+01  -1.82808781E+01   6.42241211E+01  -3.08835340E+00   6.10276566E+01  -3.09667373E+00   2.10951447E+00
             1092                4   6.42935104E+01   6.11431770E+01   6.11431770E+01  -3.20387173E+00  -3.09667373E+00   6.11431770E+01   6.11431770E+01  -3.09667373E+00  -3.20387173E+00   6.43470459E+01  -1.82808781E+01   6.42933121E+01  -3.14708757E+00   6.10863914E+01  -3.09667373E+00   1.91064858E+00
             1093                1   3.77418556E+01   4.23438911E+01   4.23438911E+01   4.39032173E+00   4.81736898E+00   4.23438911E+01   4.23438911E+01   4.81736898E+00   4.39032173E+00   3.79535675E+01  -1.71838589E+01   3.77364197E+01   6.24902439E+00   4.04851875E+01   4.81736898E+00   8.19082355E+00
             1093                2   3.77821541E+01   4.23706017E+01   4.23706017E+01   4.36361265E+00   4.81736898E+00   4.23706017E+01   4.23706017E+01   4.81736898E+00   4.36361265E+00   3.80069885E+01  -1.71838608E+01   3.77760239E+01   6.13379574E+00   4.06004181E+01   4.81736898E+00   8.00910854E+00
             1093                3   3.80663300E+01   4.25587082E+01   4.25587082E+01   4.17550755E+00   4.81736898E+00   4.25587082E+01   4.25587082E+01   4.81736898E+00   4.17550755E+00   3.83832016E+01  -1.71838608E+01   3.80541496E+01   6.06721020E+00   4.06670036E+01   4.81736898E+00   8.30849552E+00
             1093                4   3.81066971E+01   4.25853920E+01   4.25853920E+01   4.14881945E+00   4.81736898E+00   4.25853920E+01   4.25853920E+01   4.81736898E+00   4.14881945E+00   3.84365730E+01  -1.71838589E+01   3.80934982E+01   5.95158529E+00   4.07826271E+01   4.81736898E+00   8.12663078E+00
             1094                1   1.16144958E+02   1.31955368E+02   1.31955368E+02   1.50277529E+01   1.66092243E+01   1.31955368E+02   1.31955368E+02   1.66092243E+01   1.50277529E+01   1.16927620E+02  -5.45307808E+01   1.16120735E+02   1.65735970E+01   1.30409531E+02   1.66092243E+01   1.33552170E+01
             1094                2   1.16202667E+02   1.31993576E+02   1.31993576E+02   1.49895411E+01   1.66092243E+01   1.31993576E+02   1.31993576E+02   1.66092243E+01   1.49895411E+01   1.17004044E+02  -5.45307808E+01   1.16177269E+02   1.65365639E+01   1.30446564E+02   1.66092243E+01   1.33646631E+01
             1094                3   1.16139839E+02   1.31951981E+02   1.31951981E+02   1.50311518E+01   1.66092243E+01   1.31951981E+02   1.31951981E+02   1.66092243E+01   1.50311518E+01   1.16920837E+02  -5.45307884E+01   1.16115715E+02   1.65853138E+01   1.30397827E+02   1.66092243E+01   1.33902330E+01
             1094                4   1.16198204E+02   1.31990631E+02   1.31990631E+02   1.49925022E+01   1.66092243E+01   1.31990631E+02   1.31990631E+02   1.66092243E+01   1.49925022E+01   1.16998131E+02  -5.45307884E+01   1.16172890E+02   1.65479221E+01   1.30435211E+02   1.66092243E+01   1.34000788E+01
             1095                1   1.42769943E+02   1.63608932E+02   1.63608932E+02   1.99957771E+01   2.16974106E+01   1.63608932E+02   1.63608932E+02   2.16974106E+01   1.99957771E+01   1.43613144E+02  -6.84340439E+01   1.42747116E+02   2.00929928E+01   1.63511719E+02   2.16974106E+01   3.73512101E+00
             1095                2   1.41684036E+02   1.62888367E+02   1.62888367E+02   2.07163410E+01   2.16974106E+01   1.62888367E+02   1.62888367E+02   2.16974106E+01   2.07163410E+01   1.42172028E+02  -6.84340439E+01   1.41676392E+02   2.08530025E+01   1.62751709E+02   2.16974106E+01   4.40567017E+00
             1095                3   1.41725510E+02   1.62915924E+02   1.62915924E+02   2.06887836E+01   2.16974106E+01   1.62915924E+02   1.62915924E+02   2.16974106E+01   2.06887836E+01   1.42227142E+02  -6.84340439E+01   1.41717438E+02   2.07506104E+01   1.62854095E+02   2.16974106E+01   2.96471095E+00
             1095                4   1.40631363E+02   1.62188141E+02   1.62188141E+02   2.14165688E+01   2.16974106E+01   1.62188141E+02   1.62188141E+02   2.16974106E+01   2.14165688E+01   1.40771576E+02  -6.84340439E+01   1.40630722E+02   2.15104961E+01   1.62094208E+02   2.16974106E+01   3.63508773E+00
             1096                1   3.96415100E+01   3.56143265E+01   3.56143265E+01  -1.61946023E+00  -6.06082392E+00   3.56143265E+01   3.56143265E+01  -1.61946023E+00  -6.06082392E+00   4.16751480E+01  -9.31134701E+00   3.90758743E+01   9.30117220E-02   3.39018555E+01  -6.06082392E+00   7.79930735E+00
             1096                2   3.91768951E+01   3.52835503E+01   3.52835503E+01  -1.28867948E+00  -6.06082392E+00   3.52835503E+01   3.52835503E+01  -1.28867948E+00  -6.06082392E+00   4.13443718E+01  -9.31134892E+00   3.85148544E+01   4.41488296E-01   3.35533791E+01  -6.06082392E+00   7.76419163E+00
             1096                3   3.94959068E+01   3.55108833E+01   3.55108833E+01  -1.51601696E+00  -6.06082392E+00   3.55108833E+01   3.55108833E+01  -1.51601696E+00  -6.06082392E+00   4.15717049E+01  -9.31134701E+00   3.89010887E+01   4.34724949E-02   3.39513931E+01  -6.06082392E+00   7.43713951E+00
             1096                4   3.90289917E+01   3.51778145E+01   3.51778145E+01  -1.18295026E+00  -6.06082392E+00   3.51778145E+01   3.51778145E+01  -1.18295026E+00  -6.06082392E+00   4.12386398E+01  -9.31134701E+00   3.83342056E+01   3.91948849E-01   3.36029167E+01  -6.06082392E+00   7.40163660E+00
             1097                1   6.33761177E+01   5.75120506E+01   5.75120506E+01  -5.26857090E+00  -6.44323301E+00   5.75120506E+01   5.75120506E+01  -5.26857090E+00  -6.44323301E+00   6.39552841E+01  -1.52667494E+01   6.33516197E+01  -2.92531943E+00   5.51688004E+01  -6.44323301E+00   1.19004183E+01
             1097                2   6.28434372E+01   5.71530151E+01   5.71530151E+01  -4.90953541E+00  -6.44323301E+00   5.71530151E+01   5.71530151E+01  -4.90953541E+00  -6.44323301E+00   6.35962486E+01  -1.52667494E+01   6.28013077E+01  -2.48585653E+00   5.47293358E+01  -6.44323301E+00   1.20227098E+01
             1097                3   6.30389862E+01   5.72849464E+01   5.72849464E+01  -5.04146814E+00  -6.44323301E+00   5.72849464E+01   5.72849464E+01  -5.04146814E+00  -6.44323301E+00   6.37281761E+01  -1.52667475E+01   6.30039062E+01  -2.84493566E+00   5.50884132E+01  -6.44323301E+00   1.14924841E+01
             1097                4   6.24796906E+01   5.69072037E+01   5.69072037E+01  -4.66372204E+00  -6.44323301E+00   5.69072037E+01   5.69072037E+01  -4.66372204E+00  -6.44323301E+00   6.33504372E+01  -1.52667494E+01   6.24226341E+01  -2.39493346E+00   5.46384125E+01  -6.44323301E+00   1.15993147E+01
             1098                1   2.16325821E+02   2.23865463E+02   2.23865463E+02  -2.76879334E+00   1.95837975E+01   2.23865463E+02   2.23865463E+02   1.95837975E+01  -2.76879334E+00   2.26634247E+02  -8.02268219E+01   2.13704498E+02  -2.76872277E+00   2.23865387E+02   1.95837975E+01   1.26634538E-01
             1098                2   2.16449356E+02   2.23857437E+02   2.23857437E+02  -3.60764432E+00   2.04306889E+01   2.23857437E+02   2.23857437E+02   2.04306889E+01  -3.60764432E+00   2.27465073E+02  -8.02268295E+01   2.13415268E+02  -3.56860948E+00   2.23818390E+02   2.04306889E+01   2.97974443E+00
             1098                3   2.16062775E+02   2.23817429E+02   2.23817429E+02  -1.43472314E+00   1.82977638E+01   2.23817429E+02   2.23817429E+02   1.82977638E+01  -1.43472314E+00   2.25252151E+02  -8.02268219E+01   2.14021439E+02  -1.41776240E+00   2.23800461E+02   1.82977638E+01   1.95493865E+00
             1098                4   2.16270096E+02   2.23871109E+02   2.23871109E+02  -2.34983182E+00   1.91591911E+01   2.23871109E+02   2.23871109E+02   1.91591911E+01  -2.34983182E+00   2.26220932E+02  -8.02268219E+01   2.13843872E+02  -2.24685287E+00   2.23768127E+02   1.91591911E+01   4.82540655E+00
             1099                1   1.34477341E+02   1.62619751E+02   1.62619751E+02   2.68835850E+01   2.94376354E+01   1.62619751E+02   1.62619751E+02   2.94376354E+01   2.68835850E+01   1.35736176E+02  -7.29803238E+01   1.34422745E+02   2.72435722E+01   1.62259766E+02   2.94376354E+01   6.98099422E+00
             1099                2   1.34050400E+02   1.62337631E+02   1.62337631E+02   2.71657104E+01   2.94376354E+01   1.62337631E+02   1.62337631E+02   2.94376354E+01   2.71657104E+01   1.35171921E+02  -7.29803238E+01   1.34007065E+02   2.76126595E+01   1.61890686E+02   2.94376354E+01   7.75981760E+00
             1099                3   1.33284027E+02   1.61830505E+02   1.61830505E+02   2.76728344E+01   2.94376354E+01   1.61830505E+02   1.61830505E+02   2.94376354E+01   2.76728344E+01   1.34157669E+02  -7.29803238E+01   1.33257751E+02   2.79958401E+01   1.61507507E+02   2.94376354E+01   6.57485437E+00
             1099                4   1.32845703E+02   1.61540039E+02   1.61540039E+02   2.79632874E+01   2.94376354E+01   1.61540039E+02   1.61540039E+02   2.94376354E+01   2.79632874E+01   1.33576752E+02  -7.29803238E+01   1.32827301E+02   2.83684158E+01   1.61134918E+02   2.94376354E+01   7.34511042E+00
             1100                1   3.13727970E+01   2.57516041E+01   2.57516041E+01  -8.50435793E-01  -8.84497738E+00   2.57516041E+01   2.57516041E+01  -8.50435793E-01  -8.84497738E+00   3.45965805E+01  -5.35206366E+00   2.89449596E+01   4.15046901E-01   2.44861221E+01  -8.84497738E+00   5.66241741E+00
             1100                2   3.08841724E+01   2.53648033E+01   2.53648033E+01  -4.63635415E-01  -8.84497738E+00   2.53648033E+01   2.53648033E+01  -4.63635415E-01  -8.84497738E+00   3.42097816E+01  -5.35206366E+00   2.81501083E+01   8.01218867E-01   2.40999508E+01  -8.84497738E+00   5.57398748E+00
             1100                3   3.12890816E+01   2.56857109E+01   2.56857109E+01  -7.84541368E-01  -8.84497738E+00   2.56857109E+01   2.56857109E+01  -7.84541368E-01  -8.84497738E+00   3.45306892E+01  -5.35206366E+00   2.88110027E+01   3.12068701E-01   2.45890999E+01  -8.84497738E+00   5.27494049E+00
             1100                4   3.07981358E+01   2.52961311E+01   2.52961311E+01  -3.94962043E-01  -8.84497738E+00   2.52961311E+01   2.52961311E+01  -3.94962043E-01  -8.84497738E+00   3.41411095E+01  -5.35206366E+00   2.80067577E+01   6.97006702E-01   2.42041626E+01  -8.84497738E+00   5.18280458E+00
             1101                1   4.64131279E+01   4.98955688E+01   4.98955688E+01   3.54833126E+00   3.41683388E+00   4.98955688E+01   4.98955688E+01   3.54833126E+00   3.41683388E+00   4.64787369E+01  -1.89535770E+01   4.64127083E+01   3.64894295E+00   4.97949562E+01   3.41683388E+00   2.15708971E+00
             1101                2   4.64554253E+01   4.99238052E+01   4.99238052E+01   3.52009368E+00   3.41683388E+00   4.99238052E+01   4.99238052E+01   3.52009368E+00   3.41683388E+00   4.65069695E+01  -1.89535770E+01   4.64551659E+01   3.60024714E+00   4.98436508E+01   3.41683388E+00   1.92690349E+00
             1101                3   4.67651978E+01   5.01303215E+01   5.01303215E+01   3.31357718E+00   3.41683388E+00   5.01303215E+01   5.01303215E+01   3.41683388E+00   3.31357718E+00   4.68167419E+01  -1.89535770E+01   4.67649422E+01   3.41764593E+00   5.00262527E+01   3.41683388E+00   2.20482707E+00
             1101                4   4.68074150E+01   5.01584320E+01   5.01584320E+01   3.28547049E+00   3.41683388E+00   5.01584320E+01   5.01584320E+01   3.41683388E+00   3.28547049E+00   4.68729591E+01  -1.89535770E+01   4.68070030E+01   3.36881971E+00   5.00750809E+01   3.41683388E+00   1.97481608E+00
             1102                1   3.31804466E+01   3.05301113E+01   3.05301113E+01  -2.02826709E-01  -4.64940834E+00   3.05301113E+01   3.05301113E+01  -2.02826709E-01  -4.64940834E+00   3.51795197E+01  -8.55929184E+00   3.24999771E+01   3.30607474E-01   2.99966755E+01  -4.64940834E+00   4.01366091E+00
             1102                2   3.28026352E+01   3.02573051E+01   3.02573051E+01   6.99787065E-02  -4.64940834E+00   3.02573051E+01   3.02573051E+01   6.99787065E-02  -4.64940834E+00   3.49067154E+01  -8.55929184E+00   3.20254669E+01   5.90326667E-01   2.97369576E+01  -4.64940834E+00   3.92901278E+00
             1102                3   3.32072220E+01   3.05493793E+01   3.05493793E+01  -2.22096860E-01  -4.64940834E+00   3.05493793E+01   3.05493793E+01  -2.22096860E-01  -4.64940834E+00   3.51987877E+01  -8.55929089E+00   3.25332909E+01   2.42790967E-01   3.00844917E+01  -4.64940834E+00   3.75355053E+00
             1102                4   3.28294144E+01   3.02766991E+01   3.02766991E+01   5.05839363E-02  -4.64940834E+00   3.02766991E+01   3.02766991E+01   5.05839363E-02  -4.64940834E+00   3.49261093E+01  -8.55929184E+00   3.20593834E+01   5.02687395E-01   2.98245964E+01  -4.64940834E+00   3.66891479E+00
             1103                1   1.19272705E+02   1.45193085E+02   1.45193085E+02   2.55472813E+01   2.62970161E+01   1.45193085E+02   1.45193085E+02   2.62970161E+01   2.55472813E+01   1.19645805E+02  -6.56791306E+01   1.19267410E+02   2.57134590E+01   1.45026917E+02   2.62970161E+01   4.45582342E+00
             1103                2   1.19340401E+02   1.45238068E+02   1.45238068E+02   2.55022964E+01   2.62970161E+01   1.45238068E+02   1.45238068E+02   2.62970161E+01   2.55022964E+01   1.19735779E+02  -6.56791306E+01   1.19334450E+02   2.56906242E+01   1.45049744E+02   2.62970161E+01   4.74493980E+00
             1103                3   1.18843582E+02   1.44907730E+02   1.44907730E+02   2.58326397E+01   2.62970161E+01   1.44907730E+02   1.44907730E+02   2.62970161E+01   2.58326397E+01   1.19075089E+02  -6.56791306E+01   1.18841545E+02   2.60007973E+01   1.44739578E+02   2.62970161E+01   4.47153044E+00
             1103                4   1.18911659E+02   1.44953018E+02   1.44953018E+02   2.57873478E+01   2.62970161E+01   1.44953018E+02   1.44953018E+02   2.62970161E+01   2.57873478E+01   1.19165672E+02  -6.56791306E+01   1.18909203E+02   2.59778595E+01   1.44762512E+02   2.62970161E+01   4.76089001E+00
             1104                1   2.13930542E+02   2.16342178E+02   2.16342178E+02  -4.48863602E+00   1.00539808E+01   2.16342178E+02   2.16342178E+02   1.00539808E+01  -4.48863602E+00   2.20830811E+02  -7.39691772E+01   2.12814178E+02  -4.45554876E+00   2.16309097E+02   1.00539808E+01   2.70278668E+00
             1104                2   2.14103638E+02   2.16416916E+02   2.16416916E+02  -5.10357761E+00   1.05942001E+01   2.16416916E+02   2.16416916E+02   1.05942001E+01  -5.10357761E+00   2.21520493E+02  -7.39691772E+01   2.12803131E+02  -4.99768305E+00   2.16311020E+02   1.05942001E+01   4.84222794E+00
             1104                3   2.13527649E+02   2.16134018E+02   2.16134018E+02  -3.42891026E+00   9.20242596E+00   2.16134018E+02   2.16134018E+02   9.20242596E+00  -3.42891026E+00   2.19562927E+02  -7.39691772E+01   2.12684631E+02  -3.36382532E+00   2.16068939E+02   9.20242596E+00   3.77953148E+00
             1104                4   2.13688110E+02   2.16206940E+02   2.16206940E+02  -4.01871824E+00   9.71931171E+00   2.16206940E+02   2.16206940E+02   9.71931171E+00  -4.01871824E+00   2.20225647E+02  -7.39691772E+01   2.12691116E+02  -3.85505629E+00   2.16043274E+02   9.71931171E+00   6.00130606E+00
             1105                1   1.19387505E+02   1.46505081E+02   1.46505081E+02   2.68902931E+01   2.73461628E+01   1.46505081E+02   1.46505081E+02   2.73461628E+01   2.68902931E+01   1.19614784E+02  -6.69138412E+01   1.19385551E+02   2.69618893E+01   1.46433487E+02   2.73461628E+01   2.92551851E+00
             1105                2   1.19383324E+02   1.46502289E+02   1.46502289E+02   2.68930759E+01   2.73461628E+01   1.46502289E+02   1.46502289E+02   2.73461628E+01   2.68930759E+01   1.19609215E+02  -6.69138412E+01   1.19381393E+02   2.69771328E+01   1.46418243E+02   2.73461628E+01   3.16963673E+00
             1105                3   1.19021294E+02   1.46261276E+02   1.46261276E+02   2.71340923E+01   2.73461628E+01   1.46261276E+02   1.46261276E+02   2.73461628E+01   2.71340923E+01   1.19127190E+02  -6.69138412E+01   1.19020882E+02   2.72050533E+01   1.46190323E+02   2.73461628E+01   2.90657902E+00
             1105                4   1.19017097E+02   1.46258484E+02   1.46258484E+02   2.71368885E+01   2.73461628E+01   1.46258484E+02   1.46258484E+02   2.73461628E+01   2.71368885E+01   1.19121590E+02  -6.69138412E+01   1.19016693E+02   2.72202816E+01   1.46175095E+02   2.73461628E+01   3.15066123E+00
             1106                1   1.16240341E+02   1.34419571E+02   1.34419571E+02   1.76663761E+01   1.86989746E+01   1.34419571E+02   1.34419571E+02   1.86989746E+01   1.76663761E+01   1.16753204E+02  -5.69283104E+01   1.16230011E+02   1.83393040E+01   1.33746643E+02   1.86989746E+01   8.83820724E+00
             1106                2   1.16366409E+02   1.34503235E+02   1.34503235E+02   1.75827160E+01   1.86989746E+01   1.34503235E+02   1.34503235E+02   1.86989746E+01   1.75827160E+01   1.16920525E+02  -5.69283104E+01   1.16354370E+02   1.82706203E+01   1.33815338E+02   1.86989746E+01   8.94185734E+00
             1106                3   1.16097977E+02   1.34325073E+02   1.34325073E+02   1.77608871E+01   1.86989746E+01   1.34325073E+02   1.34325073E+02   1.86989746E+01   1.77608871E+01   1.16564178E+02  -5.69283104E+01   1.16089447E+02   1.84445648E+01   1.33641388E+02   1.86989746E+01   8.90084171E+00
             1106                4   1.16224358E+02   1.34408966E+02   1.34408966E+02   1.76769886E+01   1.86989746E+01   1.34408966E+02   1.34408966E+02   1.86989746E+01   1.76769886E+01   1.16731979E+02  -5.69283104E+01   1.16214241E+02   1.83757763E+01   1.33710175E+02   1.86989746E+01   9.00459957E+00
             1107                1   2.15086426E+02   2.19569260E+02   2.19569260E+02  -3.52867913E+00   1.35075731E+01   2.19569260E+02   2.19569260E+02   1.35075731E+01  -3.52867913E+00   2.23097931E+02  -7.65160446E+01   2.13560547E+02  -3.51605749E+00   2.19556625E+02   1.35075731E+01   1.67834830E+00
             1107                2   2.15232071E+02   2.19612930E+02   2.19612930E+02  -4.20176506E+00   1.41369677E+01   2.19612930E+02   2.19612930E+02   1.41369677E+01  -4.20176506E+00   2.23814697E+02  -7.65160446E+01   2.13463730E+02  -4.13181448E+00   2.19542984E+02   1.41369677E+01   3.95596981E+00
             1107                3   2.14799286E+02   2.19457230E+02   2.19457230E+02  -2.40039515E+00   1.24913044E+01   2.19457230E+02   2.19457230E+02   1.24913044E+01  -2.40039515E+00   2.21857635E+02  -7.65160446E+01   2.13633240E+02  -2.36004829E+00   2.19416885E+02   1.24913044E+01   2.99166179E+00
             1107                4   2.14951065E+02   2.19509308E+02   2.19509308E+02  -3.10562897E+00   1.31444559E+01   2.19509308E+02   2.19509308E+02   1.31444559E+01  -3.10562897E+00   2.22614929E+02  -7.65160446E+01   2.13562531E+02  -2.98007083E+00   2.19383743E+02   1.31444559E+01   5.28536606E+00
             1108                1   2.17247421E+02   2.24242935E+02   2.24242935E+02  -5.83728361E+00   2.26363392E+01   2.24242935E+02   2.24242935E+02   2.26363392E+01  -5.83728361E+00   2.30080215E+02  -8.03473282E+01   2.12988678E+02  -5.80393076E+00   2.24209579E+02   2.26363392E+01  -2.77021885E+00
             1108                2   2.17463943E+02   2.24159760E+02   2.24159760E+02  -7.43378830E+00   2.43160248E+01   2.24159760E+02   2.24159760E+02   2.43160248E+01  -7.43378830E+00   2.31593552E+02  -8.03473282E+01   2.12155365E+02  -7.16223478E+00   2.23888199E+02   2.43160248E+01  -7.92572451E+00
             1108                3   2.17510620E+02   2.24118225E+02   2.24118225E+02  -7.90077305E+00   2.48245354E+01   2.24118225E+02   2.24118225E+02   2.48245354E+01  -7.90077305E+00   2.32018997E+02  -8.03473282E+01   2.11865616E+02  -7.89751959E+00   2.24114975E+02   2.48245354E+01   8.68497729E-01
             1108                4   2.17712830E+02   2.24014236E+02   2.24014236E+02  -9.36044121E+00   2.63881969E+01   2.24014236E+02   2.24014236E+02   2.63881969E+01  -9.36044121E+00   2.33374680E+02  -8.03473282E+01   2.10957596E+02  -9.28175735E+00   2.23935547E+02   2.63881969E+01  -4.28456402E+00
             1109                1   1.91527618E+02   1.83294205E+02   1.83294205E+02  -1.10552206E+01  -5.28101206E+00   1.83294205E+02   1.83294205E+02  -5.28101206E+00  -1.10552206E+01   1.94349426E+02  -5.56526604E+01   1.91331619E+02  -1.10281687E+01   1.83267151E+02  -5.28101206E+00  -2.29281712E+00
             1109                2   1.93564514E+02   1.84606155E+02   1.84606155E+02  -1.29856892E+01  -4.66249752E+00   1.84606155E+02   1.84606155E+02  -4.66249752E+00  -1.29856892E+01   1.97591843E+02  -5.56526604E+01   1.93161255E+02  -1.28771257E+01   1.84497589E+02  -4.66249752E+00  -4.63037729E+00
             1109                3   1.93433853E+02   1.84526077E+02   1.84526077E+02  -1.27775297E+01  -4.79058075E+00   1.84526077E+02   1.84526077E+02  -4.79058075E+00  -1.27775297E+01   1.97303604E+02  -5.56526604E+01   1.93062317E+02  -1.27774553E+01   1.84526001E+02  -4.79058075E+00   1.24980025E-01
             1109                4   1.95303192E+02   1.85715027E+02   1.85715027E+02  -1.46014271E+01  -4.15563917E+00   1.85715027E+02   1.85715027E+02  -4.15563917E+00  -1.46014271E+01   2.00316452E+02  -5.56526527E+01   1.94673187E+02  -1.45771980E+01   1.85690796E+02  -4.15563917E+00  -2.20309472E+00
             1110                1   2.12219803E+02   2.13236969E+02   2.13236969E+02  -4.46274853E+00   6.95830345E+00   2.13236969E+02   2.13236969E+02   6.95830345E+00  -4.46274853E+00   2.17699707E+02  -7.19108353E+01   2.11526688E+02  -4.27145958E+00   2.13045670E+02   6.95830345E+00   6.45043945E+00
             1110                2   2.12235382E+02   2.13253387E+02   2.13253387E+02  -4.35801506E+00   6.83714914E+00   2.13253387E+02   2.13253387E+02   6.83714914E+00  -4.35801506E+00   2.17611404E+02  -7.19108353E+01   2.11569534E+02  -4.27923536E+00   2.13174606E+02   6.83714914E+00   4.13968897E+00
             1110                3   2.12747345E+02   2.13533218E+02   2.13533218E+02  -5.56893969E+00   7.76824808E+00   2.13533218E+02   2.13533218E+02   7.76824808E+00  -5.56893969E+00   2.19102158E+02  -7.19108429E+01   2.11803680E+02  -5.44072580E+00   2.13404999E+02   7.76824808E+00   5.29876232E+00
             1110                4   2.12653503E+02   2.13489609E+02   2.13489609E+02  -5.23668051E+00   7.47958088E+00   2.13489609E+02   2.13489609E+02   7.47958088E+00  -5.23668051E+00   2.18726288E+02  -7.19108353E+01   2.11795547E+02  -5.18178988E+00   2.13434723E+02   7.47958088E+00   3.46443415E+00
             1111                1   3.00159073E+01   4.08365555E+01   4.08365555E+01   1.05476646E+01   1.11012888E+01   4.08365555E+01   4.08365555E+01   1.11012888E+01   1.05476646E+01   3.02888908E+01  -2.08285027E+01   3.00044174E+01   1.15425301E+01   3.98416901E+01   1.11012888E+01   5.39848185E+00
             1111                2   3.03953629E+01   4.10867653E+01   4.10867653E+01   1.02974596E+01   1.11012888E+01   4.10867653E+01   4.10867653E+01   1.11012888E+01   1.02974596E+01   3.07893047E+01  -2.08285046E+01   3.03714333E+01   1.13064222E+01   4.00778008E+01   1.11012888E+01   5.48153925E+00
             1111                3   3.00319004E+01   4.08471222E+01   4.08471222E+01   1.05371017E+01   1.11012888E+01   4.08471222E+01   4.08471222E+01   1.11012888E+01   1.05371017E+01   3.03100204E+01  -2.08285046E+01   3.00199718E+01   1.16231709E+01   3.97610512E+01   1.11012888E+01   5.63375950E+00
             1111                4   3.04112854E+01   4.10972404E+01   4.10972404E+01   1.02869778E+01   1.11012888E+01   4.10972404E+01   4.10972404E+01   1.11012888E+01   1.02869778E+01   3.08102646E+01  -2.08285027E+01   3.03867435E+01   1.13870974E+01   3.99971237E+01   1.11012888E+01   5.71705103E+00
             1112                1   1.74756302E+02   1.79198578E+02   1.79198578E+02   3.13041508E-01   8.88712692E+00   1.79198578E+02   1.79198578E+02   8.88712692E+00   3.13041508E-01   1.78885529E+02  -6.27995796E+01   1.74282120E+02   3.99405986E-01   1.79112213E+02   8.88712692E+00   3.92945457E+00
             1112                2   1.73726700E+02   1.78564102E+02   1.78564102E+02   1.87514067E+00   7.95951271E+00   1.78564102E+02   1.78564102E+02   7.95951271E+00   1.87514067E+00   1.76688965E+02  -6.27995872E+01   1.73486725E+02   2.12705278E+00   1.78312180E+02   7.95951271E+00   6.66692543E+00
             1112                3   1.73527512E+02   1.78431961E+02   1.78431961E+02   1.96155262E+00   8.00523758E+00   1.78431961E+02   1.78431961E+02   8.00523758E+00   1.96155262E+00   1.76470398E+02  -6.27995796E+01   1.73290482E+02   1.97143304E+00   1.78422073E+02   8.00523758E+00   1.32058537E+00
             1112                4   1.72470184E+02   1.77762680E+02   1.77762680E+02   3.60458398E+00   7.03148222E+00   1.77762680E+02   1.77762680E+02   7.03148222E+00   3.60458398E+00   1.74158096E+02  -6.27995796E+01   1.72393555E+02   3.69882274E+00   1.77668442E+02   7.03148222E+00   4.05011654E+00
             1113                1   5.88219414E+01   5.23325958E+01   5.23325958E+01  -4.65293884E+00  -8.16809559E+00   5.23325958E+01   5.23325958E+01  -4.65293884E+00  -8.16809559E+00   6.05006905E+01  -1.31705208E+01   5.85849266E+01  -7.42975175E-01   4.84226303E+01  -8.16809559E+00   1.44056807E+01
             1113                2   5.95665512E+01   5.28436584E+01   5.28436584E+01  -5.16400623E+00  -8.16809559E+00   5.28436584E+01   5.28436584E+01  -5.16400623E+00  -8.16809559E+00   6.10117569E+01  -1.31705198E+01   5.93957558E+01  -1.34040511E+00   4.90200577E+01  -8.16809559E+00   1.43936892E+01
             1113                3   5.92345581E+01   5.26161232E+01   5.26161232E+01  -4.93646955E+00  -8.16809559E+00   5.26161232E+01   5.26161232E+01  -4.93646955E+00  -8.16809559E+00   6.07842178E+01  -1.31705198E+01   5.90357285E+01  -7.40749955E-01   4.84204025E+01  -8.16809559E+00   1.49623032E+01
             1113                4   5.99784508E+01   5.31252480E+01   5.31252480E+01  -5.44559479E+00  -8.16809559E+00   5.31252480E+01   5.31252480E+01  -5.44559479E+00  -8.16809559E+00   6.12933426E+01  -1.31705198E+01   5.98391953E+01  -1.33607316E+00   4.90157280E+01  -8.16809559E+00   1.49602776E+01
             1114                1   1.32258453E+02   1.58594193E+02   1.58594193E+02   2.56837730E+01   2.69974861E+01   1.58594193E+02   1.58594193E+02   2.69974861E+01   2.56837730E+01   1.32910416E+02  -7.04251480E+01   1.32243790E+02   2.57966824E+01   1.58481293E+02   2.69974861E+01   3.87210703E+00
             1114                2   1.31631027E+02   1.58177643E+02   1.58177643E+02   2.61003361E+01   2.69974861E+01   1.58177643E+02   1.58177643E+02   2.69974861E+01   2.61003361E+01   1.32077316E+02  -7.04251556E+01   1.31624161E+02   2.62488232E+01   1.58029160E+02   2.69974861E+01   4.42605305E+00
             1114                3   1.31403885E+02   1.58026672E+02   1.58026672E+02   2.62512913E+01   2.69974861E+01   1.58026672E+02   1.58026672E+02   2.69974861E+01   2.62512913E+01   1.31775391E+02  -7.04251480E+01   1.31399124E+02   2.63396950E+01   1.57938278E+02   2.69974861E+01   3.41192198E+00
             1114                4   1.30773529E+02   1.57607300E+02   1.57607300E+02   2.66706676E+01   2.69974861E+01   1.57607300E+02   1.57607300E+02   2.69974861E+01   2.66706676E+01   1.30936630E+02  -7.04251480E+01   1.30772614E+02   2.67908039E+01   1.57487167E+02   2.69974861E+01   3.96429753E+00
             1115                1   3.24561729E+01   3.18137951E+01   3.18137951E+01   7.67313540E-02  -1.31661046E+00   3.18137951E+01   3.18137951E+01   7.67313540E-02  -1.31661046E+00   3.31304054E+01  -1.01913052E+01   3.23887787E+01   2.50497609E-01   3.16400280E+01  -1.31661046E+00   2.34193134E+00
             1115                2   3.21197090E+01   3.15839252E+01   3.15839252E+01   3.06600183E-01  -1.31661046E+00   3.15839252E+01   3.15839252E+01   3.06600183E-01  -1.31661046E+00   3.29005356E+01  -1.01913052E+01   3.20272293E+01   4.67277288E-01   3.14232483E+01  -1.31661046E+00   2.23600984E+00
             1115                3   3.25678825E+01   3.18899040E+01   3.18899040E+01   6.21216488E-04  -1.31661046E+00   3.18899040E+01   3.18899040E+01   6.21216488E-04  -1.31661046E+00   3.32065163E+01  -1.01913052E+01   3.25078697E+01   1.42816678E-01   3.17477093E+01  -1.31661046E+00   2.12468529E+00
             1115                4   3.22324982E+01   3.16610909E+01   3.16610909E+01   2.29435533E-01  -1.31661046E+00   3.16610909E+01   3.16610909E+01   2.29435533E-01  -1.31661046E+00   3.29776993E+01  -1.01913052E+01   3.21489143E+01   3.59636426E-01   3.15308895E+01  -1.31661046E+00   2.01878023E+00
             1116                1   1.17987442E+02   1.43897308E+02   1.43897308E+02   2.57146931E+01   2.61060123E+01   1.43897308E+02   1.43897308E+02   2.61060123E+01   2.57146931E+01   1.18182610E+02  -6.52393417E+01   1.17985985E+02   2.57937832E+01   1.43818222E+02   2.61060123E+01   3.05623007E+00
             1116                2   1.18064674E+02   1.43948715E+02   1.43948715E+02   2.56632919E+01   2.61060123E+01   1.43948715E+02   1.43948715E+02   2.61060123E+01   2.56632919E+01   1.18285416E+02  -6.52393417E+01   1.18062805E+02   2.57535725E+01   1.43858429E+02   2.61060123E+01   3.26658535E+00
             1116                3   1.17675522E+02   1.43689621E+02   1.43689621E+02   2.59223843E+01   2.61060123E+01   1.43689621E+02   1.43689621E+02   2.61060123E+01   2.59223843E+01   1.17767227E+02  -6.52393417E+01   1.17675201E+02   2.60036850E+01   1.43608322E+02   2.61060123E+01   3.09312415E+00
             1116                4   1.17753075E+02   1.43741272E+02   1.43741272E+02   2.58707314E+01   2.61060123E+01   1.43741272E+02   1.43741272E+02   2.61060123E+01   2.58707314E+01   1.17870537E+02  -6.52393417E+01   1.17752548E+02   2.59634018E+01   1.43648605E+02   2.61060123E+01   3.30364990E+00
             1117                1   1.97043472E+02   1.78035675E+02   1.78035675E+02  -1.94882851E+01  -1.85237598E+01   1.78035675E+02   1.78035675E+02  -1.85237598E+01  -1.94882851E+01   1.97523956E+02  -4.66745453E+01   1.97038162E+02  -1.94070358E+01   1.77954437E+02  -1.85237598E+01   4.00505257E+00
             1117                2   1.97487991E+02   1.78326736E+02   1.78326736E+02  -2.02819042E+01  -1.80211983E+01   1.78326736E+02   1.78326736E+02  -1.80211983E+01  -2.02819042E+01   1.98608643E+02  -4.66745453E+01   1.97458878E+02  -2.02527103E+01   1.78297546E+02  -1.80211983E+01   2.40754175E+00
             1117                3   1.97597504E+02   1.78397522E+02   1.78397522E+02  -2.04983025E+01  -1.78755703E+01   1.78397522E+02   1.78397522E+02  -1.78755703E+01  -2.04983025E+01   1.98895828E+02  -4.66745491E+01   1.97558334E+02  -2.03537121E+01   1.78252930E+02  -1.78755703E+01   5.36071062E+00
             1117                4   1.98030518E+02   1.78675827E+02   1.78675827E+02  -2.12691803E+01  -1.73830051E+01   1.78675827E+02   1.78675827E+02  -1.73830051E+01  -2.12691803E+01   1.99945007E+02  -4.66745453E+01   1.97944702E+02  -2.11981754E+01   1.78604828E+02  -1.73830051E+01   3.76705885E+00
             1118                1   1.30025879E+02   1.56184158E+02   1.56184158E+02   2.57540379E+01   2.65663567E+01   1.56184158E+02   1.56184158E+02   2.65663567E+01   2.57540379E+01   1.30430130E+02  -6.95015182E+01   1.30020157E+02   2.58096542E+01   1.56128540E+02   2.65663567E+01   2.69294000E+00
             1118                2   1.29404617E+02   1.55770966E+02   1.55770966E+02   2.61672440E+01   2.65663567E+01   1.55770966E+02   1.55770966E+02   2.65663567E+01   2.61672440E+01   1.29603714E+02  -6.95015182E+01   1.29403229E+02   2.62404804E+01   1.55697723E+02   2.65663567E+01   3.07996559E+00
             1118                3   1.29430237E+02   1.55788010E+02   1.55788010E+02   2.61501923E+01   2.65663567E+01   1.55788010E+02   1.55788010E+02   2.65663567E+01   2.61501923E+01   1.29637817E+02  -6.95015182E+01   1.29428726E+02   2.61895733E+01   1.55748627E+02   2.65663567E+01   2.25918269E+00
             1118                4   1.28806198E+02   1.55372314E+02   1.55372314E+02   2.65658836E+01   2.65663567E+01   1.55372314E+02   1.55372314E+02   2.65663567E+01   2.65658836E+01   1.28806442E+02  -6.95015182E+01   1.28806198E+02   2.66202660E+01   1.55317932E+02   2.65663567E+01   2.64619160E+00
             1119                1   1.26337036E+02   1.53840805E+02   1.53840805E+02   2.71551266E+01   2.78553009E+01   1.53840805E+02   1.53840805E+02   2.78553009E+01   2.71551266E+01   1.26685677E+02  -6.96170731E+01   1.26332664E+02   2.72129612E+01   1.53782959E+02   2.78553009E+01   2.70624733E+00
             1119                2   1.25916931E+02   1.53561340E+02   1.53561340E+02   2.74345703E+01   2.78553009E+01   1.53561340E+02   1.53561340E+02   2.78553009E+01   2.74345703E+01   1.26126770E+02  -6.96170731E+01   1.25915352E+02   2.75088654E+01   1.53487045E+02   2.78553009E+01   3.06022406E+00
             1119                3   1.25795441E+02   1.53480469E+02   1.53480469E+02   2.75154400E+01   2.78553009E+01   1.53480469E+02   1.53480469E+02   2.78553009E+01   2.75154400E+01   1.25965027E+02  -6.96170731E+01   1.25794403E+02   2.75614414E+01   1.53434464E+02   2.78553009E+01   2.40679932E+00
             1119                4   1.25373810E+02   1.53199600E+02   1.53199600E+02   2.77963085E+01   2.78553009E+01   1.53199600E+02   1.53199600E+02   2.78553009E+01   2.77963085E+01   1.25403297E+02  -6.96170731E+01   1.25373779E+02   2.78571053E+01   1.53138809E+02   2.78553009E+01   2.76044226E+00
             1120                1   1.74165237E+02   1.85159348E+02   1.85159348E+02   7.86040878E+00   1.43068066E+01   1.85159348E+02   1.85159348E+02   1.43068066E+01   7.86040878E+00   1.77298935E+02  -6.91088562E+01   1.73896515E+02   8.21103859E+00   1.84808716E+02   1.43068066E+01   7.87682247E+00
             1120                2   1.71861481E+02   1.83647736E+02   1.83647736E+02   9.37200260E+00   1.43068066E+01   1.83647736E+02   1.83647736E+02   1.43068066E+01   9.37200260E+00   1.74275742E+02  -6.91088486E+01   1.71701965E+02   9.89195633E+00   1.83127792E+02   1.43068066E+01   9.50496483E+00
             1120                3   1.71607605E+02   1.83480804E+02   1.83480804E+02   9.53895569E+00   1.43068066E+01   1.83480804E+02   1.83480804E+02   1.43068066E+01   9.53895569E+00   1.73941849E+02  -6.91088562E+01   1.71458481E+02   9.74850368E+00   1.83271255E+02   1.43068066E+01   6.03369045E+00
             1120                4   1.69229477E+02   1.81913361E+02   1.81913361E+02   1.11063776E+01   1.43068066E+01   1.81913361E+02   1.81913361E+02   1.43068066E+01   1.11063776E+01   1.70806992E+02  -6.91088486E+01   1.69161362E+02   1.14522762E+01   1.81567474E+02   1.43068066E+01   7.67861986E+00
             1121                1   4.72448311E+01   4.85922470E+01   4.85922470E+01   1.50839293E+00   1.18806815E+00   4.85922470E+01   4.85922470E+01   1.50839293E+00   1.18806815E+00   4.74041786E+01  -1.70962353E+01   4.72423859E+01   2.52140546E+00   4.75792351E+01   1.18806815E+00   6.83156538E+00
             1121                2   4.73905907E+01   4.86897011E+01   4.86897011E+01   1.41093791E+00   1.18806815E+00   4.86897011E+01   4.86897011E+01   1.41093791E+00   1.18806815E+00   4.75016327E+01  -1.70962353E+01   4.73894119E+01   2.36792445E+00   4.77327156E+01   1.18806815E+00   6.65802431E+00
             1121                3   4.76368179E+01   4.88540993E+01   4.88540993E+01   1.24654579E+00   1.18806815E+00   4.88540993E+01   4.88540993E+01   1.24654579E+00   1.18806815E+00   4.76660309E+01  -1.70962372E+01   4.76367340E+01   2.30443072E+00   4.77962112E+01   1.18806815E+00   7.01742458E+00
             1121                4   4.77773399E+01   4.89477882E+01   4.89477882E+01   1.15284944E+00   1.18806815E+00   4.89477882E+01   4.89477882E+01   1.18806815E+00   1.15284944E+00   4.77949409E+01  -1.70962353E+01   4.77773132E+01   2.15615225E+00   4.79444885E+01   1.18806815E+00   6.85172367E+00
             1122                1   5.86439171E+01   5.40737762E+01   5.40737762E+01  -4.08010006E+00  -5.04819584E+00   5.40737762E+01   5.40737762E+01  -4.08010006E+00  -5.04819584E+00   5.91219711E+01  -1.49818268E+01   5.86259308E+01  -2.16101241E+00   5.21546860E+01  -5.04819584E+00   1.03884354E+01
             1122                2   5.82235680E+01   5.37908173E+01   5.37908173E+01  -3.79714489E+00  -5.04819584E+00   5.37908173E+01   5.37908173E+01  -3.79714489E+00  -5.04819584E+00   5.88390121E+01  -1.49818258E+01   5.81933136E+01  -1.81205487E+00   5.18057251E+01  -5.04819584E+00   1.05060349E+01
             1122                3   5.82997704E+01   5.38421669E+01   5.38421669E+01  -3.84849596E+00  -5.04819584E+00   5.38421669E+01   5.38421669E+01  -3.84849596E+00  -5.04819584E+00   5.88903618E+01  -1.49818258E+01   5.82719879E+01  -2.05196285E+00   5.20456352E+01  -5.04819584E+00   1.00207586E+01
             1122                4   5.78851547E+01   5.35624733E+01   5.35624733E+01  -3.56880331E+00  -5.04819584E+00   5.35624733E+01   5.35624733E+01  -3.56880331E+00  -5.04819584E+00   5.86106720E+01  -1.49818258E+01   5.78425941E+01  -1.70608568E+00   5.16997566E+01  -5.04819584E+00   1.01464157E+01
             1123                1   3.42831116E+01   3.97327614E+01   3.97327614E+01   4.53258324E+00   6.44693232E+00   3.97327614E+01   3.97327614E+01   6.44693232E+00   4.53258324E+00   3.52001762E+01  -1.69040928E+01   3.41625481E+01   7.23541069E+00   3.70299339E+01   6.44693232E+00   9.37201691E+00
             1123                2   3.41478348E+01   3.96448822E+01   3.96448822E+01   4.62046576E+00   6.44693232E+00   3.96448822E+01   3.96448822E+01   6.44693232E+00   4.62046576E+00   3.50244141E+01  -1.69040928E+01   3.40376740E+01   7.22334242E+00   3.70420036E+01   6.44693232E+00   9.18636417E+00
             1123                3   3.45398674E+01   3.98993073E+01   3.98993073E+01   4.36603546E+00   6.44693232E+00   3.98993073E+01   3.98993073E+01   6.44693232E+00   4.36603546E+00   3.55332718E+01  -1.69040928E+01   3.43984108E+01   7.04700947E+00   3.72183342E+01   6.44693232E+00   9.38488865E+00
             1123                4   3.44060249E+01   3.98125305E+01   3.98125305E+01   4.45281267E+00   6.44693232E+00   3.98125305E+01   3.98125305E+01   6.44693232E+00   4.45281267E+00   3.53597183E+01  -1.69040928E+01   3.42756462E+01   7.03495598E+00   3.72303886E+01   6.44693232E+00   9.19980240E+00
             1124                1   3.60340118E+01   3.84082031E+01   3.84082031E+01   2.50367105E-01   4.96145201E+00   3.84082031E+01   3.84082031E+01   4.96145201E+00   2.50367105E-01   3.81578369E+01  -1.45400076E+01   3.53311844E+01   4.86290634E-01   3.81722794E+01   4.96145201E+00   2.99109459E+00
             1124                2   3.63807487E+01   3.86262970E+01   3.86262970E+01   3.22744884E-02   4.96145201E+00   3.86262970E+01   3.86262970E+01   4.96145201E+00   3.22744884E-02   3.85940247E+01  -1.45400085E+01   3.56178551E+01   2.95503676E-01   3.83630676E+01   4.96145201E+00   3.17645311E+00
             1124                3   3.57913094E+01   3.82553101E+01   3.82553101E+01   4.03260559E-01   4.96145201E+00   3.82553101E+01   3.82553101E+01   4.96145201E+00   4.03260559E-01   3.78520470E+01  -1.45400076E+01   3.51293907E+01   6.72803283E-01   3.79857674E+01   4.96145201E+00   3.18277264E+00
             1124                4   3.61403618E+01   3.84751396E+01   3.84751396E+01   1.83431551E-01   4.96145201E+00   3.84751396E+01   3.84751396E+01   4.96145201E+00   1.83431551E-01   3.82917061E+01  -1.45400076E+01   3.54193153E+01   4.82033491E-01   3.81765366E+01   4.96145201E+00   3.36820245E+00
             1125                1   1.52837448E+02   1.82781342E+02   1.82781342E+02   2.69055252E+01   3.31752090E+01   1.82781342E+02   1.82781342E+02   3.31752090E+01   2.69055252E+01   1.55875809E+02  -8.09540176E+01   1.52547714E+02   2.85163612E+01   1.81170502E+02   3.31752090E+01   1.57637253E+01
             1125                2   1.54718094E+02   1.84008560E+02   1.84008560E+02   2.56782951E+01   3.31752090E+01   1.84008560E+02   1.84008560E+02   3.31752090E+01   2.56782951E+01   1.58330276E+02  -8.09540176E+01   1.54308655E+02   2.73063812E+01   1.82380478E+02   3.31752090E+01   1.59726229E+01
             1125                3   1.52754257E+02   1.82726944E+02   1.82726944E+02   2.69599094E+01   3.31752090E+01   1.82726944E+02   1.82726944E+02   3.31752090E+01   2.69599094E+01   1.55767044E+02  -8.09540176E+01   1.52469376E+02   2.88823338E+01   1.80804520E+02   3.31752090E+01   1.71975422E+01
             1125                4   1.54563766E+02   1.83908020E+02   1.83908020E+02   2.57788467E+01   3.31752090E+01   1.83908020E+02   1.83908020E+02   3.31752090E+01   2.57788467E+01   1.58129166E+02  -8.09540176E+01   1.54164856E+02   2.76526165E+01   1.82034241E+02   3.31752090E+01   1.71110191E+01
             1126                1   2.00106125E+01   1.06306534E+01   1.06306534E+01  -3.69989276E-01  -1.24669409E+01   1.06306534E+01  -1.24669409E+01  -3.69989276E-01  -1.24669409E+01   2.30975933E+01   7.35425651E-01  -8.69701195E+00   4.04886693E-01   9.85577774E+00  -1.24669409E+01   2.81490612E+00
             1126                2   1.96376381E+01   1.01626558E+01   1.01626558E+01   9.80092958E-02  -1.24669409E+01   1.01626558E+01  -1.24669409E+01   9.80092958E-02  -1.24669409E+01   2.26295967E+01   7.35425293E-01  -1.12885065E+01   8.76727283E-01   9.38393784E+00  -1.24669409E+01   2.68907380E+00
             1126                3   1.99222412E+01   1.05226612E+01   1.05226612E+01  -2.61996716E-01  -1.24669409E+01   1.05226612E+01  -1.24669409E+01  -2.61996716E-01  -1.24669409E+01   2.29896030E+01   7.35425293E-01  -9.45080948E+00   2.74138361E-01   9.98652649E+00  -1.24669409E+01   2.34405494E+00
             1126                4   1.95472984E+01   1.00440149E+01   1.00440149E+01   2.16649950E-01  -1.24669409E+01   1.00440149E+01  -1.24669409E+01   2.16649950E-01  -1.24669409E+01   2.25109558E+01   7.35425293E-01  -1.17575941E+01   7.46094584E-01   9.51457024E+00  -1.24669409E+01   2.21872377E+00
             1127                1   1.35214508E+02   1.61785095E+02   1.61785095E+02   2.55949993E+01   2.75677586E+01   1.61785095E+02   1.61785095E+02   2.75677586E+01   2.55949993E+01   1.36190094E+02  -7.16492844E+01   1.35182129E+02   2.57985573E+01   1.61581543E+02   2.75677586E+01   5.26122952E+00
             1127                2   1.34573090E+02   1.61360229E+02   1.61360229E+02   2.60198669E+01   2.75677586E+01   1.61360229E+02   1.61360229E+02   2.75677586E+01   2.60198669E+01   1.35340363E+02  -7.16492844E+01   1.34553055E+02   2.62829151E+01   1.61097183E+02   2.75677586E+01   5.96082735E+00
             1127                3   1.34127609E+02   1.61064774E+02   1.61064774E+02   2.63153439E+01   2.75677586E+01   1.61064774E+02   1.61064774E+02   2.75677586E+01   2.63153439E+01   1.34749420E+02  -7.16492920E+01   1.34114441E+02   2.64835796E+01   1.60896530E+02   2.75677586E+01   4.75833273E+00
             1127                4   1.33479996E+02   1.60634674E+02   1.60634674E+02   2.67454185E+01   2.75677586E+01   1.60634674E+02   1.60634674E+02   2.75677586E+01   2.67454185E+01   1.33889267E+02  -7.16492844E+01   1.33474289E+02   2.69681988E+01   1.60411896E+02   2.75677586E+01   5.45697451E+00
             1128                1   2.16122681E+02   1.91259491E+02   1.91259491E+02  -3.50347672E+01  -1.30040340E+01   1.91259491E+02   1.91259491E+02  -1.30040340E+01  -3.50347672E+01   2.26294250E+02  -4.77402306E+01   2.13574524E+02  -3.50314598E+01   1.91256180E+02  -1.30040340E+01   8.64656568E-01
             1128                2   2.15259583E+02   1.90890793E+02   1.90890793E+02  -3.25814400E+01  -1.50886536E+01   1.90890793E+02   1.90890793E+02  -1.50886536E+01  -3.25814400E+01   2.23472244E+02  -4.77402344E+01   2.13651672E+02  -3.25254288E+01   1.90834778E+02  -1.50886536E+01  -3.53773308E+00
             1128                3   2.16560867E+02   1.91302887E+02   1.91302887E+02  -3.72771111E+01  -1.08050900E+01   1.91302887E+02   1.91302887E+02  -1.08050900E+01  -3.72771111E+01   2.28579987E+02  -4.77402306E+01   2.12875153E+02  -3.72146301E+01   1.91240402E+02  -1.08050900E+01  -3.77859545E+00
             1128                4   2.16140884E+02   1.91253387E+02   1.91253387E+02  -3.52089653E+01  -1.28237247E+01   1.91253387E+02   1.91253387E+02  -1.28237247E+01  -3.52089653E+01   2.26462357E+02  -4.77402306E+01   2.13509552E+02  -3.49084816E+01   1.90952896E+02  -1.28237247E+01  -8.24373055E+00
             1129                1   1.66614426E+02   1.78158981E+02   1.78158981E+02   9.44627190E+00   1.37252731E+01   1.78158981E+02   1.78158981E+02   1.37252731E+01   9.44627190E+00   1.68712708E+02  -6.71101761E+01   1.66490723E+02   9.65160561E+00   1.77953644E+02   1.37252731E+01   5.88227654E+00
             1129                2   1.65039505E+02   1.77120605E+02   1.77120605E+02   1.04846373E+01   1.37252731E+01   1.77120605E+02   1.77120605E+02   1.37252731E+01   1.04846373E+01   1.66635971E+02  -6.71101685E+01   1.64967911E+02   1.07911673E+01   1.76814072E+02   1.37252731E+01   7.14038801E+00
             1129                3   1.64655075E+02   1.76866684E+02   1.76866684E+02   1.07385712E+01   1.37252731E+01   1.76866684E+02   1.76866684E+02   1.37252731E+01   1.07385712E+01   1.66128113E+02  -6.71101761E+01   1.64594101E+02   1.08713808E+01   1.76733871E+02   1.37252731E+01   4.69534254E+00
             1129                4   1.63046127E+02   1.75801926E+02   1.75801926E+02   1.18033142E+01   1.37252731E+01   1.75801926E+02   1.75801926E+02   1.37252731E+01   1.18033142E+01   1.63998611E+02  -6.71101685E+01   1.63020645E+02   1.20197210E+01   1.75585526E+02   1.37252731E+01   5.95335340E+00
             1130                1   1.74724686E+02   1.75549286E+02   1.75549286E+02  -2.33313131E+00   4.16354990E+00   1.75549286E+02   1.75549286E+02   4.16354990E+00  -2.33313131E+00   1.77882416E+02  -5.91265678E+01   1.74452637E+02  -2.29837179E+00   1.75514526E+02   4.16354990E+00   2.48639226E+00
             1130                2   1.73499847E+02   1.74770981E+02   1.74770981E+02  -6.55646563E-01   3.26437235E+00   1.74770981E+02   1.74770981E+02   3.26437235E+00  -6.55646563E-01   1.75426636E+02  -5.91265717E+01   1.73400162E+02  -5.31831801E-01   1.74647171E+02   3.26437235E+00   4.65890741E+00
             1130                3   1.73687073E+02   1.74888977E+02   1.74888977E+02  -9.97819901E-01   3.48853707E+00   1.74888977E+02   1.74888977E+02   3.48853707E+00  -9.97819901E-01   1.75886795E+02  -5.91265678E+01   1.73556641E+02  -9.97676492E-01   1.74888840E+02   3.48853707E+00  -1.56486794E-01
             1130                4   1.72419830E+02   1.74068405E+02   1.74068405E+02   7.52752006E-01   2.55856395E+00   1.74068405E+02   1.74068405E+02   2.55856395E+00   7.52752006E-01   1.73315643E+02  -5.91265717E+01   1.72398560E+02   7.75902450E-01   1.74045242E+02   2.55856395E+00   2.00324917E+00
             1131                1   1.18380600E+02   1.45477524E+02   1.45477524E+02   2.70025597E+01   2.71915245E+01   1.45477524E+02   1.45477524E+02   2.71915245E+01   2.70025597E+01   1.18474968E+02  -6.65572052E+01   1.18380264E+02   2.70280361E+01   1.45452057E+02   2.71915245E+01   1.73706508E+00
             1131                2   1.18380264E+02   1.45477310E+02   1.45477310E+02   2.70027905E+01   2.71915245E+01   1.45477310E+02   1.45477310E+02   2.71915245E+01   2.70027905E+01   1.18474518E+02  -6.65572128E+01   1.18379921E+02   2.70329266E+01   1.45447174E+02   2.71915245E+01   1.88934922E+00
             1131                3   1.18152916E+02   1.45325821E+02   1.45325821E+02   2.71542854E+01   2.71915245E+01   1.45325821E+02   1.45325821E+02   2.71915245E+01   2.71542854E+01   1.18171532E+02  -6.65572128E+01   1.18152901E+02   2.71796398E+01   1.45300461E+02   2.71915245E+01   1.73082018E+00
             1131                4   1.18152504E+02   1.45325531E+02   1.45325531E+02   2.71545506E+01   2.71915245E+01   1.45325531E+02   1.45325531E+02   2.71915245E+01   2.71545506E+01   1.18170990E+02  -6.65572052E+01   1.18152496E+02   2.71845608E+01   1.45295532E+02   2.71915245E+01   1.88287950E+00
             1132                1   6.10196762E+01   5.45173645E+01   5.45173645E+01  -4.34692430E+00  -8.45054340E+00   5.45173645E+01   5.45173645E+01  -4.34692430E+00  -8.45054340E+00   6.29679070E+01  -1.39066324E+01   6.07080574E+01   1.86386347E+00   4.83065758E+01  -8.45054340E+00   1.80836887E+01
             1132                2   6.20437584E+01   5.52225761E+01   5.52225761E+01  -5.05213404E+00  -8.45054340E+00   5.52225761E+01   5.52225761E+01  -5.05213404E+00  -8.45054340E+00   6.36731186E+01  -1.39066324E+01   6.18338280E+01   9.60644305E-01   4.92097969E+01  -8.45054340E+00   1.80628052E+01
             1132                3   6.17211494E+01   5.50009499E+01   5.50009499E+01  -4.83051062E+00  -8.45054340E+00   5.50009499E+01   5.50009499E+01  -4.83051062E+00  -8.45054340E+00   6.34514961E+01  -1.39066324E+01   6.14816170E+01   1.94757068E+00   4.82228699E+01  -8.45054340E+00   1.89631252E+01
             1132                4   6.27130318E+01   5.56808472E+01   5.56808472E+01  -5.51040602E+00  -8.45054340E+00   5.56808472E+01   5.56808472E+01  -5.51040602E+00  -8.45054340E+00   6.41313934E+01  -1.39066324E+01   6.25576859E+01   1.04570520E+00   4.91247368E+01  -8.45054340E+00   1.89260139E+01
             1133                1   6.45112915E+01   5.97628517E+01   5.97628517E+01  -4.31148672E+00  -5.17668056E+00   5.97628517E+01   5.97628517E+01  -4.31148672E+00  -5.17668056E+00   6.49395370E+01  -1.67582283E+01   6.44982300E+01  -3.03387499E+00   5.84852409E+01  -5.17668056E+00   8.95711327E+00
             1133                2   6.48716888E+01   6.00045204E+01   6.00045204E+01  -4.55315447E+00  -5.17668056E+00   6.00045204E+01   6.00045204E+01  -4.55315447E+00  -5.17668056E+00   6.51811981E+01  -1.67582283E+01   6.48649445E+01  -3.32554650E+00   5.87769127E+01  -5.17668056E+00   8.81728554E+00
             1133                3   6.48320465E+01   5.99779663E+01   5.99779663E+01  -4.52659845E+00  -5.17668056E+00   5.99779663E+01   5.99779663E+01  -4.52659845E+00  -5.17668056E+00   6.51546478E+01  -1.67582283E+01   6.48247147E+01  -3.17184615E+00   5.86232109E+01  -5.17668056E+00   9.24945641E+00
             1133                4   6.51906357E+01   6.02180061E+01   6.02180061E+01  -4.76664066E+00  -5.17668056E+00   6.02180061E+01   6.02180061E+01  -4.76664066E+00  -5.17668056E+00   6.53946838E+01  -1.67582283E+01   6.51877365E+01  -3.46351337E+00   5.89148788E+01  -5.17668056E+00   9.10962009E+00
             1134                1   1.28508469E+02   1.54570740E+02   1.54570740E+02   2.58314610E+01   2.62943459E+01   1.54570740E+02   1.54570740E+02   2.62943459E+01   2.58314610E+01   1.28739288E+02  -6.88988495E+01   1.28506592E+02   2.58524609E+01   1.54549744E+02   2.62943459E+01   1.64414608E+00
             1134                2   1.27895599E+02   1.54162582E+02   1.54162582E+02   2.62396297E+01   2.62943459E+01   1.54162582E+02   1.54162582E+02   2.62943459E+01   2.62396297E+01   1.27922951E+02  -6.88988495E+01   1.27895576E+02   2.62673950E+01   1.54134811E+02   2.62943459E+01   1.88442540E+00
             1134                3   1.28140366E+02   1.54325668E+02   1.54325668E+02   2.60765419E+01   2.62943459E+01   1.54325668E+02   1.54325668E+02   2.62943459E+01   2.60765419E+01   1.28249115E+02  -6.88988495E+01   1.28139938E+02   2.60883179E+01   1.54313889E+02   2.62943459E+01   1.22883093E+00
             1134                4   1.27525810E+02   1.53915985E+02   1.53915985E+02   2.64862309E+01   2.62943459E+01   1.53915985E+02   1.53915985E+02   2.64862309E+01   2.62943459E+01   1.27621643E+02  -6.88988571E+01   1.27525482E+02   2.65031662E+01   1.53899048E+02   2.62943459E+01   1.46910059E+00
             1135                1   4.02711487E+01   4.75645447E+01   4.75645447E+01   3.70549059E+00   1.22539511E+01   4.75645447E+01   4.75645447E+01   1.22539511E+01   3.70549059E+00   4.38590546E+01  -2.11746616E+01   3.81488075E+01   6.58789492E+00   4.46821404E+01   1.22539511E+01   1.08678999E+01
             1135                2   4.25794525E+01   4.89728050E+01   4.89728050E+01   2.29723144E+00   1.22539511E+01   4.89728050E+01   4.89728050E+01   1.22539511E+01   2.29723144E+00   4.66755714E+01  -2.11746616E+01   3.98318634E+01   5.38397264E+00   4.58860626E+01   1.22539511E+01   1.15994577E+01
             1135                3   4.02851334E+01   4.75731049E+01   4.75731049E+01   3.69692993E+00   1.22539511E+01   4.75731049E+01   4.75731049E+01   1.22539511E+01   3.69692993E+00   4.38761749E+01  -2.11746616E+01   3.81591644E+01   7.34118700E+00   4.39288483E+01   1.22539511E+01   1.21084862E+01
             1135                4   4.25928154E+01   4.89809303E+01   4.89809303E+01   2.28910398E+00   1.22539511E+01   4.89809303E+01   4.89809303E+01   1.22539511E+01   2.28910398E+00   4.66918259E+01  -2.11746616E+01   3.98414612E+01   6.13754702E+00   4.51324883E+01   1.22539511E+01   1.28405724E+01
             1136                1   1.24954506E+02   1.52368958E+02   1.52368958E+02   2.72267342E+01   2.76030102E+01   1.52368958E+02   1.52368958E+02   2.76030102E+01   2.72267342E+01   1.25142220E+02  -6.90662308E+01   1.24953232E+02   2.72482891E+01   1.52347397E+02   2.76030102E+01   1.64234030E+00
             1136                2   1.24536232E+02   1.52090363E+02   1.52090363E+02   2.75053215E+01   2.76030102E+01   1.52090363E+02   1.52090363E+02   2.76030102E+01   2.75053215E+01   1.24585045E+02  -6.90662308E+01   1.24536140E+02   2.75330029E+01   1.52062683E+02   2.76030102E+01   1.85691905E+00
             1136                3   1.24626846E+02   1.52150742E+02   1.52150742E+02   2.74449406E+01   2.76030102E+01   1.52150742E+02   1.52150742E+02   2.76030102E+01   2.74449406E+01   1.24705803E+02  -6.90662308E+01   1.24626617E+02   2.74597015E+01   1.52135986E+02   2.76030102E+01   1.35667133E+00
             1136                4   1.24207397E+02   1.51871140E+02   1.51871140E+02   2.77245541E+01   2.76030102E+01   1.51871140E+02   1.51871140E+02   2.77245541E+01   2.76030102E+01   1.24268120E+02  -6.90662308E+01   1.24207260E+02   2.77444496E+01   1.51851242E+02   2.76030102E+01   1.57133436E+00
             1137                1   2.98024521E+01   4.01350632E+01   4.01350632E+01   9.86687660E+00   1.08212700E+01   4.01350632E+01   4.01350632E+01   1.08212700E+01   9.86687660E+00   3.02681847E+01  -2.02744026E+01   2.97680397E+01   1.14971771E+01   3.85047607E+01   1.08212700E+01   6.83288813E+00
             1137                2   2.97728996E+01   4.01156616E+01   4.01156616E+01   9.88627815E+00   1.08212700E+01   4.01156616E+01   4.01156616E+01   1.08212700E+01   9.88627815E+00   3.02293816E+01  -2.02744026E+01   2.97398396E+01   1.14101915E+01   3.85917473E+01   1.08212700E+01   6.61397266E+00
             1137                3   3.01631851E+01   4.03714371E+01   4.03714371E+01   9.63050079E+00   1.08212700E+01   4.03714371E+01   4.03714371E+01   1.08212700E+01   9.63050079E+00   3.07409363E+01  -2.02744026E+01   3.01102333E+01   1.12771578E+01   3.87247810E+01   1.08212700E+01   6.92158031E+00
             1137                4   3.01338577E+01   4.03522491E+01   4.03522491E+01   9.64968777E+00   1.08212700E+01   4.03522491E+01   4.03522491E+01   1.08212700E+01   9.64968777E+00   3.07025623E+01  -2.02744026E+01   3.00825520E+01   1.11903706E+01   3.88115692E+01   1.08212700E+01   6.70292234E+00
             1138                1   3.31137695E+01   3.97964134E+01   3.97964134E+01   5.00072670E+00   8.67024708E+00   3.97964134E+01   3.97964134E+01   8.67024708E+00   5.00072670E+00   3.47956886E+01  -1.78224621E+01   3.26516418E+01   8.49113750E+00   3.63060036E+01   8.67024708E+00   1.04531479E+01
             1138                2   3.27457237E+01   3.95626373E+01   3.95626373E+01   5.23450375E+00   8.67024708E+00   3.95626373E+01   3.95626373E+01   8.67024708E+00   5.23450375E+00   3.43281364E+01  -1.78224621E+01   3.23364830E+01   8.59571648E+00   3.62014236E+01   8.67024708E+00   1.02022762E+01
             1138                3   3.33384819E+01   3.99388809E+01   3.99388809E+01   4.85826063E+00   8.67024708E+00   3.99388809E+01   3.99388809E+01   8.67024708E+00   4.85826063E+00   3.50806198E+01  -1.78224621E+01   3.28428040E+01   8.23725891E+00   3.65598831E+01   8.67024708E+00   1.03498659E+01
             1138                4   3.29738579E+01   3.97076073E+01   3.97076073E+01   5.08953381E+00   8.67024708E+00   3.97076073E+01   3.97076073E+01   8.67024708E+00   5.08953381E+00   3.46180725E+01  -1.78224621E+01   3.25321388E+01   8.34168530E+00   3.64554558E+01   8.67024708E+00   1.00998392E+01
             1139                1   1.21213600E+02   1.49255753E+02   1.49255753E+02   2.80730209E+01   2.80113087E+01   1.49255753E+02   1.49255753E+02   2.80730209E+01   2.80113087E+01   1.21244453E+02  -6.84466934E+01   1.21213577E+02   2.80780678E+01   1.49250717E+02   2.80113087E+01   7.81662822E-01
             1139                2   1.21090675E+02   1.49173767E+02   1.49173767E+02   2.81550102E+01   2.80113087E+01   1.49173767E+02   1.49173767E+02   2.81550102E+01   2.80113087E+01   1.21162460E+02  -6.84466934E+01   1.21090485E+02   2.81581402E+01   1.49170639E+02   2.80113087E+01   6.15686834E-01
             1139                3   1.21460762E+02   1.49420517E+02   1.49420517E+02   2.79082661E+01   2.80113087E+01   1.49420517E+02   1.49420517E+02   2.80113087E+01   2.79082661E+01   1.21512245E+02  -6.84466934E+01   1.21460670E+02   2.79123135E+01   1.49416473E+02   2.80113087E+01   7.01072752E-01
             1139                4   1.21337822E+02   1.49338562E+02   1.49338562E+02   2.79901962E+01   2.80113087E+01   1.49338562E+02   1.49338562E+02   2.80113087E+01   2.79901962E+01   1.21348373E+02  -6.84466934E+01   1.21337822E+02   2.79925613E+01   1.49336212E+02   2.80113087E+01   5.35243928E-01
             1140                1   4.87757149E+01   4.74893150E+01   4.74893150E+01  -8.85084748E-01  -1.67805207E+00   4.74893150E+01   4.74893150E+01  -8.85084748E-01  -1.67805207E+00   4.91673660E+01  -1.49753923E+01   4.87612114E+01   7.14878738E-01   4.58893509E+01  -1.67805207E+00   8.65085888E+00
             1140                2   4.90658646E+01   4.76841469E+01   4.76841469E+01  -1.07991993E+00  -1.67805207E+00   4.76841469E+01   4.76841469E+01  -1.07991993E+00  -1.67805207E+00   4.93621979E+01  -1.49753914E+01   4.90576630E+01   5.90466738E-01   4.60137596E+01  -1.67805207E+00   8.86930656E+00
             1140                3   4.85687943E+01   4.73501129E+01   4.73501129E+01  -7.45889246E-01  -1.67805207E+00   4.73501129E+01   4.73501129E+01  -7.45889246E-01  -1.67805207E+00   4.90281677E+01  -1.49753914E+01   4.85486603E+01   8.98960948E-01   4.57052650E+01  -1.67805207E+00   8.74100399E+00
             1140                4   4.88673935E+01   4.75509186E+01   4.75509186E+01  -9.46691751E-01  -1.67805207E+00   4.75509186E+01   4.75509186E+01  -9.46691751E-01  -1.67805207E+00   4.92289696E+01  -1.49753914E+01   4.88550758E+01   7.68159866E-01   4.58360672E+01  -1.67805207E+00   8.95686340E+00
             1141                1   1.97648544E+02   1.89091385E+02   1.89091385E+02  -9.93345070E+00  -7.15150356E+00   1.89091385E+02   1.89091385E+02  -7.15150356E+00  -9.93345070E+00   1.99024826E+02  -5.73354759E+01   1.97604492E+02  -9.84174728E+00   1.88999680E+02  -7.15150356E+00   4.27106524E+00
             1141                2   1.96903320E+02   1.88600174E+02   1.88600174E+02  -9.20478630E+00  -7.38895845E+00   1.88600174E+02   1.88600174E+02  -7.38895845E+00  -9.20478630E+00   1.97804962E+02  -5.73354759E+01   1.96884491E+02  -9.08204556E+00   1.88477432E+02  -7.38895845E+00   4.92579460E+00
             1141                3   1.97287582E+02   1.88854980E+02   1.88854980E+02  -9.47075653E+00  -7.37778807E+00   1.88854980E+02   1.88854980E+02  -7.37778807E+00  -9.47075653E+00   1.98325729E+02  -5.73354759E+01   1.97262589E+02  -9.41809750E+00   1.88802307E+02  -7.37778807E+00   3.23144507E+00
             1141                4   1.96520203E+02   1.88347427E+02   1.88347427E+02  -8.71620655E+00  -7.62479591E+00   1.88347427E+02   1.88347427E+02  -7.62479591E+00  -8.71620655E+00   1.97063644E+02  -5.73354759E+01   1.96513397E+02  -8.64010906E+00   1.88271332E+02  -7.62479591E+00   3.87179852E+00
             1142                1   1.15691345E+02   1.36154877E+02   1.36154877E+02   2.02278481E+01   2.07006588E+01   1.36154877E+02   1.36154877E+02   2.07006588E+01   2.02278481E+01   1.15927025E+02  -5.90277901E+01   1.15689178E+02   2.04456806E+01   1.35937042E+02   2.07006588E+01   5.02045488E+00
             1142                2   1.15872154E+02   1.36275131E+02   1.36275131E+02   2.01075840E+01   2.07006588E+01   1.36275131E+02   1.36275131E+02   2.07006588E+01   2.01075840E+01   1.16167549E+02  -5.90277901E+01   1.15868744E+02   2.03371315E+01   1.36045593E+02   2.07006588E+01   5.15876102E+00
             1142                3   1.15496498E+02   1.36025208E+02   1.36025208E+02   2.03575153E+01   2.07006588E+01   1.36025208E+02   1.36025208E+02   2.07006588E+01   2.03575153E+01   1.15667686E+02  -5.90277901E+01   1.15495369E+02   2.05850449E+01   1.35797684E+02   2.07006588E+01   5.12498999E+00
             1142                4   1.15677505E+02   1.36145660E+02   1.36145660E+02   2.02370567E+01   2.07006588E+01   1.36145660E+02   1.36145660E+02   2.07006588E+01   2.02370567E+01   1.15908607E+02  -5.90277901E+01   1.15675423E+02   2.04765511E+01   1.35906174E+02   2.07006588E+01   5.26324654E+00
             1143                1   1.04310295E+02   1.06516411E+02   1.06516411E+02   2.13645601E+00   2.27591562E+00   1.06516411E+02   1.06516411E+02   2.27591562E+00   2.13645601E+00   1.04379959E+02  -3.69762611E+01   1.04310089E+02   2.84720922E+00   1.05805664E+02   2.27591562E+00   8.58387375E+00
             1143                2   1.04298103E+02   1.06508293E+02   1.06508293E+02   2.14458489E+00   2.27591562E+00   1.06508293E+02   1.06508293E+02   2.27591562E+00   2.14458489E+00   1.04363708E+02  -3.69762650E+01   1.04297913E+02   2.82497168E+00   1.05827904E+02   2.27591562E+00   8.39910698E+00
             1143                3   1.04588791E+02   1.06701866E+02   1.06701866E+02   1.95100033E+00   2.27591562E+00   1.06701866E+02   1.06701866E+02   2.27591562E+00   1.95100033E+00   1.04750870E+02  -3.69762611E+01   1.04587654E+02   2.66347027E+00   1.05989403E+02   2.27591562E+00   8.60952568E+00
             1143                4   1.04576591E+02   1.06693756E+02   1.06693756E+02   1.95912361E+00   2.27591562E+00   1.06693756E+02   1.06693756E+02   2.27591562E+00   1.95912361E+00   1.04734634E+02  -3.69762650E+01   1.04575516E+02   2.64126468E+00   1.06011612E+02   2.27591562E+00   8.42488003E+00
             1144                1   2.20000000E+02   2.07957932E+02   2.07957932E+02  -2.99998074E+01   1.19590607E+01   2.07957932E+02   2.07957932E+02   1.19590607E+01  -2.99998074E+01   2.37957748E+02  -6.33057289E+01   2.10713730E+02  -2.99694233E+01   2.07927551E+02   1.19590607E+01  -2.68876815E+00
             1144                2   2.20000000E+02   2.07640182E+02   2.07640182E+02  -3.14226589E+01   1.36996555E+01   2.07640182E+02   2.07640182E+02   1.36996555E+01  -3.14226589E+01   2.39062851E+02  -6.33057289E+01   2.09205414E+02  -3.14187737E+01   2.07636307E+02   1.36996555E+01  -9.63379323E-01
             1144                3   2.20000000E+02   2.08183868E+02   2.08183868E+02  -2.89090500E+01   1.06423845E+01   2.08183868E+02   2.08183868E+02   1.06423845E+01  -2.89090500E+01   2.37092911E+02  -6.33057289E+01   2.11778503E+02  -2.89089661E+01   2.08183777E+02   1.06423845E+01   1.41776443E-01
             1144                4   2.20000000E+02   2.07880615E+02   2.07880615E+02  -3.03571625E+01   1.23937368E+01   2.07880615E+02   2.07880615E+02   1.23937368E+01  -3.03571625E+01   2.38237778E+02  -6.33057289E+01   2.10347855E+02  -3.03408661E+01   2.07864319E+02   1.23937368E+01   1.97032726E+00
             1145                1   1.24171410E+02   1.51577896E+02   1.51577896E+02   2.73262596E+01   2.74868832E+01   1.51577896E+02   1.51577896E+02   2.74868832E+01   2.73262596E+01   1.24251640E+02  -6.87970123E+01   1.24171181E+02   2.73302021E+01   1.51573959E+02   2.74868832E+01   6.99764252E-01
             1145                2   1.23757355E+02   1.51301895E+02   1.51301895E+02   2.76022663E+01   2.74868832E+01   1.51301895E+02   1.51301895E+02   2.76022663E+01   2.74868832E+01   1.23815010E+02  -6.87970123E+01   1.23757233E+02   2.76073246E+01   1.51296829E+02   2.74868832E+01   7.91173458E-01
             1145                3   1.24031342E+02   1.51484558E+02   1.51484558E+02   2.74195843E+01   2.74868832E+01   1.51484558E+02   1.51484558E+02   2.74868832E+01   2.74195843E+01   1.24064980E+02  -6.87970047E+01   1.24031311E+02   2.74210281E+01   1.51483124E+02   2.74868832E+01   4.22684163E-01
             1145                4   1.23616539E+02   1.51207947E+02   1.51207947E+02   2.76962090E+01   2.74868832E+01   1.51207947E+02   1.51207947E+02   2.76962090E+01   2.74868832E+01   1.23721069E+02  -6.87970123E+01   1.23616142E+02   2.76983452E+01   1.51205811E+02   2.74868832E+01   5.14199734E-01
             1146                1   5.54887695E+01   4.91388664E+01   4.91388664E+01  -4.79816055E+00  -7.78129625E+00   4.91388664E+01   4.91388664E+01  -4.79816055E+00  -7.78129625E+00   5.69201622E+01  -1.21864700E+01   5.53079185E+01  -1.29128587E+00   4.56319923E+01  -7.78129625E+00   1.32985783E+01
             1146                2   5.48580666E+01   4.87052765E+01   4.87052765E+01  -4.36456919E+00  -7.78129625E+00   4.87052765E+01   4.87052765E+01  -4.36456919E+00  -7.78129625E+00   5.64865723E+01  -1.21864700E+01   5.46179047E+01  -7.64551461E-01   4.51052589E+01  -7.78129625E+00   1.33451185E+01
             1146                3   5.50758362E+01   4.88552208E+01   4.88552208E+01  -4.51451349E+00  -7.78129625E+00   4.88552208E+01   4.88552208E+01  -4.51451349E+00  -7.78129625E+00   5.66365166E+01  -1.21864700E+01   5.48572197E+01  -1.27884197E+00   4.56195488E+01  -7.78129625E+00   1.27364559E+01
             1146                4   5.44392128E+01   4.84161568E+01   4.84161568E+01  -4.07544994E+00  -7.78129625E+00   4.84161568E+01   4.84161568E+01  -4.07544994E+00  -7.78129625E+00   5.61974525E+01  -1.21864700E+01   5.41543312E+01  -7.52396405E-01   4.50931015E+01  -7.78129625E+00   1.27824011E+01
             1147                1   3.28199806E+01   4.02288742E+01   4.02288742E+01   6.81258154E+00   8.03961754E+00   4.02288742E+01   4.02288742E+01   8.03961754E+00   6.81258154E+00   3.34162903E+01  -1.83603573E+01   3.27683144E+01   9.13145542E+00   3.79099998E+01   8.03961754E+00   8.49181747E+00
             1147                2   3.27756615E+01   4.01998482E+01   4.01998482E+01   6.84160614E+00   8.03961754E+00   4.01998482E+01   4.01998482E+01   8.03961754E+00   6.84160614E+00   3.33582420E+01  -1.83603573E+01   3.27263451E+01   9.05004406E+00   3.79914093E+01   8.03961754E+00   8.29412079E+00
             1147                3   3.31465607E+01   4.04424057E+01   4.04424057E+01   6.59904861E+00   8.03961754E+00   4.04424057E+01   4.04424057E+01   8.03961754E+00   6.59904861E+00   3.38433571E+01  -1.83603573E+01   3.30760193E+01   8.93223572E+00   3.81092186E+01   8.03961754E+00   8.57432938E+00
             1147                4   3.31026573E+01   4.04137344E+01   4.04137344E+01   6.62771940E+00   8.03961754E+00   4.04137344E+01   4.04137344E+01   8.03961754E+00   6.62771940E+00   3.37860146E+01  -1.83603573E+01   3.30348091E+01   8.85091686E+00   3.81905365E+01   8.03961754E+00   8.37677765E+00
             1148                1   6.93680344E+01   6.28679924E+01   6.28679924E+01  -5.33064413E+00  -7.61309958E+00   6.28679924E+01   6.28679924E+01  -5.33064413E+00  -7.61309958E+00   7.04810944E+01  -1.66414165E+01   6.92834702E+01  -1.47934413E+00   5.90166931E+01  -7.61309958E+00   1.57423296E+01
             1148                2   7.01803284E+01   6.34176025E+01   6.34176025E+01  -5.88025665E+00  -7.61309958E+00   6.34176025E+01   6.34176025E+01  -5.88025665E+00  -7.61309958E+00   7.10307007E+01  -1.66414165E+01   7.01321716E+01  -2.18361139E+00   5.97209587E+01  -7.61309958E+00   1.55725508E+01
             1148                3   6.98621140E+01   6.32025795E+01   6.32025795E+01  -5.66522932E+00  -7.61309958E+00   6.32025795E+01   6.32025795E+01  -5.66522932E+00  -7.61309958E+00   7.08156815E+01  -1.66414165E+01   6.98009720E+01  -1.50275934E+00   5.90401077E+01  -7.61309958E+00   1.64114017E+01
             1148                4   7.06686935E+01   6.37469101E+01   6.37469101E+01  -6.20955944E+00  -7.61309958E+00   6.37469101E+01   6.37469101E+01  -6.20955944E+00  -7.61309958E+00   7.13600082E+01  -1.66414165E+01   7.06373215E+01  -2.20869994E+00   5.97460480E+01  -7.61309958E+00   1.62443600E+01
             1149                1   1.17809212E+02   1.44918243E+02   1.44918243E+02   2.71002560E+01   2.71178093E+01   1.44918243E+02   1.44918243E+02   2.71178093E+01   2.71002560E+01   1.17817986E+02  -6.63787689E+01   1.17809212E+02   2.71047897E+01   1.44913712E+02   2.71178093E+01   7.30589092E-01
             1149                2   1.17811943E+02   1.44920059E+02   1.44920059E+02   2.70984344E+01   2.71178093E+01   1.44920059E+02   1.44920059E+02   2.71178093E+01   2.70984344E+01   1.17821625E+02  -6.63787689E+01   1.17811943E+02   2.71037960E+01   1.44914703E+02   2.71178093E+01   7.94663668E-01
             1149                3   1.17713219E+02   1.44854248E+02   1.44854248E+02   2.71642590E+01   2.71178093E+01   1.44854248E+02   1.44854248E+02   2.71642590E+01   2.71178093E+01   1.17736443E+02  -6.63787766E+01   1.17713188E+02   2.71688023E+01   1.44849701E+02   2.71178093E+01   7.31393218E-01
             1149                4   1.17715981E+02   1.44856079E+02   1.44856079E+02   2.71624069E+01   2.71178093E+01   1.44856079E+02   1.44856079E+02   2.71624069E+01   2.71178093E+01   1.17738274E+02  -6.63787689E+01   1.17715958E+02   2.71677856E+01   1.44850708E+02   2.71178093E+01   7.95563459E-01
             1150                1   3.40585480E+01   2.96831627E+01   2.96831627E+01  -8.37806642E-01  -7.05609274E+00   2.96831627E+01   2.96831627E+01  -8.37806642E-01  -7.05609274E+00   3.67392540E+01  -7.26308775E+00   3.27446747E+01   2.78033525E-01   2.85673218E+01  -7.05609274E+00   5.72812748E+00
             1150                2   3.35907593E+01   2.93335419E+01   2.93335419E+01  -4.88185108E-01  -7.05609274E+00   2.93335419E+01   2.93335419E+01  -4.88185108E-01  -7.05609274E+00   3.63896332E+01  -7.26308775E+00   3.20980568E+01   6.22375667E-01   2.82229805E+01  -7.05609274E+00   5.64672375E+00
             1150                3   3.39994316E+01   2.96391563E+01   2.96391563E+01  -7.93800414E-01  -7.05609274E+00   2.96391563E+01   2.96391563E+01  -7.93800414E-01  -7.05609274E+00   3.66952477E+01  -7.26308775E+00   3.26638756E+01   1.89760715E-01   2.86555958E+01  -7.05609274E+00   5.38193893E+00
             1150                4   3.35305481E+01   2.92882996E+01   2.92882996E+01  -4.42943931E-01  -7.05609274E+00   2.92882996E+01   2.92882996E+01  -4.42943931E-01  -7.05609274E+00   3.63443909E+01  -7.26308775E+00   3.20135841E+01   5.33381581E-01   2.83119736E+01  -7.05609274E+00   5.29850769E+00
             1151                1   1.16605782E+02   1.42534668E+02   1.42534668E+02   2.59347343E+01   2.59230442E+01   1.42534668E+02   1.42534668E+02   2.59347343E+01   2.59230442E+01   1.16611626E+02  -6.47974854E+01   1.16605774E+02   2.59396954E+01   1.42529709E+02   2.59230442E+01   7.60754704E-01
             1151                2   1.16692047E+02   1.42592178E+02   1.42592178E+02   2.58772297E+01   2.59230442E+01   1.42592178E+02   1.42592178E+02   2.59230442E+01   2.58772297E+01   1.16714943E+02  -6.47974854E+01   1.16692017E+02   2.58829155E+01   1.42586487E+02   2.59230442E+01   8.14868331E-01
             1151                3   1.16525635E+02   1.42481232E+02   1.42481232E+02   2.59881649E+01   2.59230442E+01   1.42481232E+02   1.42481232E+02   2.59881649E+01   2.59230442E+01   1.16558182E+02  -6.47974777E+01   1.16525597E+02   2.59939041E+01   1.42475494E+02   2.59230442E+01   8.17419171E-01
             1151                4   1.16611908E+02   1.42538757E+02   1.42538757E+02   2.59306469E+01   2.59230442E+01   1.42538757E+02   1.42538757E+02   2.59306469E+01   2.59230442E+01   1.16615715E+02  -6.47974854E+01   1.16611900E+02   2.59371586E+01   1.42532242E+02   2.59230442E+01   8.71513665E-01
             1152                1   3.12321930E+01   3.94651871E+01   3.94651871E+01   7.42780399E+00   9.10583687E+00   3.94651871E+01   3.94651871E+01   9.10583687E+00   7.42780399E+00   3.20373802E+01  -1.86662750E+01   3.11305294E+01   1.00750990E+01   3.68178902E+01   9.10583687E+00   8.82067204E+00
             1152                2   3.11503696E+01   3.94119911E+01   3.94119911E+01   7.48100042E+00   9.10583687E+00   3.94119911E+01   3.94119911E+01   9.10583687E+00   7.48100042E+00   3.19309883E+01  -1.86662750E+01   3.10548115E+01   1.00082970E+01   3.68846931E+01   9.10583687E+00   8.62043190E+00
             1152                3   3.15498581E+01   3.96713638E+01   3.96713638E+01   7.22162628E+00   9.10583687E+00   3.96713638E+01   3.96713638E+01   9.10583687E+00   7.22162628E+00   3.24497375E+01  -1.86662750E+01   3.14228973E+01   9.87331295E+00   3.70196762E+01   9.10583687E+00   8.88904476E+00
             1152                4   3.14688625E+01   3.96188469E+01   3.96188469E+01   7.27414370E+00   9.10583687E+00   3.96188469E+01   3.96188469E+01   9.10583687E+00   7.27414370E+00   3.23447037E+01  -1.86662750E+01   3.13485889E+01   9.80642319E+00   3.70865669E+01   9.10583687E+00   8.68869305E+00
             1153                1   1.32907440E+02   1.56720047E+02   1.56720047E+02   2.35352345E+01   2.40917149E+01   1.56720047E+02   1.56720047E+02   2.40917149E+01   2.35352345E+01   1.33184814E+02  -6.81156693E+01   1.32904816E+02   2.35556812E+01   1.56699600E+02   2.40917149E+01   1.64997900E+00
             1153                2   1.32082489E+02   1.56170654E+02   1.56170654E+02   2.40846214E+01   2.40917149E+01   1.56170654E+02   1.56170654E+02   2.40917149E+01   2.40846214E+01   1.32086044E+02  -6.81156693E+01   1.32082474E+02   2.41122818E+01   1.56142990E+02   2.40917149E+01   1.91151762E+00
             1153                3   1.32504532E+02   1.56451874E+02   1.56451874E+02   2.38034115E+01   2.40917149E+01   1.56451874E+02   1.56451874E+02   2.40917149E+01   2.38034115E+01   1.32648453E+02  -6.81156693E+01   1.32503830E+02   2.38124123E+01   1.56442871E+02   2.40917149E+01   1.09241128E+00
             1153                4   1.31677719E+02   1.55900681E+02   1.55900681E+02   2.43545990E+01   2.40917149E+01   1.55900681E+02   1.55900681E+02   2.43545990E+01   2.40917149E+01   1.31808960E+02  -6.81156693E+01   1.31677124E+02   2.43685322E+01   1.55886749E+02   2.40917149E+01   1.35366023E+00
             1154                1   1.15809624E+02   1.40147369E+02   1.40147369E+02   2.43050995E+01   2.43704243E+01   1.40147369E+02   1.40147369E+02   2.43704243E+01   2.43050995E+01   1.15842270E+02  -6.29409637E+01   1.15809593E+02   2.43111782E+01   1.40141296E+02   2.43704243E+01   8.38973105E-01
             1154                2   1.15743591E+02   1.40103363E+02   1.40103363E+02   2.43491116E+01   2.43704243E+01   1.40103363E+02   1.40103363E+02   2.43704243E+01   2.43491116E+01   1.15754242E+02  -6.29409637E+01   1.15743591E+02   2.43566895E+01   1.40095779E+02   2.43704243E+01   9.36533689E-01
             1154                3   1.15662033E+02   1.40048981E+02   1.40048981E+02   2.44034863E+01   2.43704243E+01   1.40048981E+02   1.40048981E+02   2.44034863E+01   2.43704243E+01   1.15678558E+02  -6.29409637E+01   1.15662025E+02   2.44089394E+01   1.40043533E+02   2.43704243E+01   7.93839753E-01
             1154                4   1.15596069E+02   1.40005005E+02   1.40005005E+02   2.44474792E+01   2.43704243E+01   1.40005005E+02   1.40005005E+02   2.44474792E+01   2.43704243E+01   1.15634583E+02  -6.29409676E+01   1.15596008E+02   2.44543533E+01   1.39998123E+02   2.43704243E+01   8.91423941E-01
             1155                1   1.69407597E+01   6.05502176E+00   6.05502176E+00  -1.91418976E-01  -1.31220398E+01   6.05502176E+00  -1.31220398E+01  -1.91418976E-01  -1.31220398E+01   1.91770611E+01   2.41947913E+00  -1.39729300E+01  -1.21948242E-01   5.98555088E+00  -1.31220398E+01   6.55071497E-01
             1155                2   1.69531803E+01   6.07740784E+00   6.07740784E+00  -2.13805020E-01  -1.31220398E+01   6.07740784E+00  -1.31220398E+01  -2.13805020E-01  -1.31220398E+01   1.91994476E+01   2.41947913E+00  -1.39382277E+01   9.75455903E-03   5.85384798E+00  -1.31220398E+01   1.16468132E+00
             1155                3   1.66724739E+01   5.52959490E+00   5.52959490E+00   3.34007859E-01  -1.31220398E+01   5.52959490E+00  -1.31220398E+01   3.34007859E-01  -1.31220398E+01   1.86516342E+01   2.41947913E+00  -1.46782293E+01   3.87421519E-01   5.47618103E+00  -1.31220398E+01   5.24082720E-01
             1155                4   1.66850700E+01   5.55641174E+00   5.55641174E+00   3.07190418E-01  -1.31220398E+01   5.55641174E+00  -1.31220398E+01   3.07190418E-01  -1.31220398E+01   1.86784515E+01   2.41947913E+00  -1.46468554E+01   5.19162774E-01   5.34443951E+00  -1.31220398E+01   1.03332329E+00
             1156                1   1.08185928E+02   1.14004776E+02   1.14004776E+02   5.74425173E+00   5.89360619E+00   1.14004776E+02   1.14004776E+02   5.89360619E+00   5.74425173E+00   1.08260529E+02  -4.18808784E+01   1.08185692E+02   5.88498783E+00   1.13864044E+02   5.89360619E+00   3.90080333E+00
             1156                2   1.08082390E+02   1.13935791E+02   1.13935791E+02   5.81324387E+00   5.89360619E+00   1.13935791E+02   1.13935791E+02   5.89360619E+00   5.81324387E+00   1.08122551E+02  -4.18808823E+01   1.08082321E+02   5.95831871E+00   1.13790718E+02   5.89360619E+00   3.95790458E+00
             1156                3   1.08093178E+02   1.13942986E+02   1.13942986E+02   5.80605602E+00   5.89360619E+00   1.13942986E+02   1.13942986E+02   5.89360619E+00   5.80605602E+00   1.08136925E+02  -4.18808823E+01   1.08093094E+02   5.94167852E+00   1.13807358E+02   5.89360619E+00   3.82722807E+00
             1156                4   1.07989525E+02   1.13873894E+02   1.13873894E+02   5.87513590E+00   5.89360619E+00   1.13873894E+02   1.13873894E+02   5.89360619E+00   5.87513590E+00   1.07998756E+02  -4.18808784E+01   1.07989525E+02   6.01502514E+00   1.13734009E+02   5.89360619E+00   3.88432407E+00
             1157                1   6.33371544E+01   6.03009911E+01   6.03009911E+01  -2.93199515E+00  -3.13982034E+00   6.03009911E+01   6.03009911E+01  -2.93199515E+00  -3.13982034E+00   6.34408112E+01  -1.80763912E+01   6.33363876E+01  -2.73277593E+00   6.01017723E+01  -3.13982034E+00   3.54365516E+00
             1157                2   6.34590836E+01   6.03823853E+01   6.03823853E+01  -3.01338673E+00  -3.13982034E+00   6.03823853E+01   6.03823853E+01  -3.01338673E+00  -3.13982034E+00   6.35222054E+01  -1.80763931E+01   6.34588013E+01  -2.83594632E+00   6.02049446E+01  -3.13982034E+00   3.34926248E+00
             1157                3   6.36445198E+01   6.05060730E+01   6.05060730E+01  -3.13707614E+00  -3.13982034E+00   6.05060730E+01   6.05060730E+01  -3.13707614E+00  -3.13982034E+00   6.36458931E+01  -1.80763912E+01   6.36445198E+01  -2.92733741E+00   6.02963333E+01  -3.13982034E+00   3.64752269E+00
             1157                4   6.37657127E+01   6.05868454E+01   6.05868454E+01  -3.21784878E+00  -3.13982034E+00   6.05868454E+01   6.05868454E+01  -3.13982034E+00  -3.21784878E+00   6.38046913E+01  -1.80763912E+01   6.37656097E+01  -3.03040886E+00   6.03994064E+01  -3.13982034E+00   3.45315576E+00
             1158                1   1.49379044E+02   1.65948761E+02   1.65948761E+02   1.56390533E+01   1.75181217E+01   1.65948761E+02   1.65948761E+02   1.75181217E+01   1.56390533E+01   1.50309708E+02  -6.63686447E+01   1.49352432E+02   1.57227020E+01   1.65865112E+02   1.75181217E+01   3.54487967E+00
             1158                2   1.48084259E+02   1.65089737E+02   1.65089737E+02   1.64980984E+01   1.75181217E+01   1.65089737E+02   1.65089737E+02   1.75181217E+01   1.64980984E+01   1.48591629E+02  -6.63686523E+01   1.48076340E+02   1.66211166E+01   1.64966705E+02   1.75181217E+01   4.27380419E+00
             1158                3   1.48245972E+02   1.65197144E+02   1.65197144E+02   1.63906670E+01   1.75181217E+01   1.65197144E+02   1.65197144E+02   1.75181217E+01   1.63906670E+01   1.48806473E+02  -6.63686447E+01   1.48236313E+02   1.64373322E+01   1.65150482E+02   1.75181217E+01   2.63474703E+00
             1158                4   1.46941544E+02   1.64329559E+02   1.64329559E+02   1.72582588E+01   1.75181217E+01   1.64329559E+02   1.64329559E+02   1.75181217E+01   1.72582588E+01   1.47071289E+02  -6.63686447E+01   1.46941010E+02   1.73351898E+01   1.64252625E+02   1.75181217E+01   3.36278558E+00
             1159                1   6.32959442E+01   5.78157806E+01   5.78157806E+01  -5.01660395E+00  -5.93376064E+00   5.78157806E+01   5.78157806E+01  -5.01660395E+00  -5.93376064E+00   6.37495384E+01  -1.56218042E+01   6.32809944E+01  -3.01511645E+00   5.58142929E+01  -5.93376064E+00   1.10341387E+01
             1159                2   6.28309822E+01   5.75031090E+01   5.75031090E+01  -4.70392942E+00  -5.93376064E+00   5.75031090E+01   5.75031090E+01  -4.70392942E+00  -5.93376064E+00   6.34368706E+01  -1.56218061E+01   6.28038902E+01  -2.64164543E+00   5.54408226E+01  -5.93376064E+00   1.11371307E+01
             1159                3   6.29636803E+01   5.75924263E+01   5.75924263E+01  -4.79324818E+00  -5.93376064E+00   5.75924263E+01   5.75924263E+01  -4.79324818E+00  -5.93376064E+00   6.35261879E+01  -1.56218061E+01   6.29404335E+01  -2.91511178E+00   5.57142906E+01  -5.93376064E+00   1.06602736E+01
             1159                4   6.24960594E+01   5.72773705E+01   5.72773705E+01  -4.47819042E+00  -5.93376064E+00   5.72773705E+01   5.72773705E+01  -4.47819042E+00  -5.93376064E+00   6.32111282E+01  -1.56218061E+01   6.24579048E+01  -2.54146171E+00   5.53406410E+01  -5.93376064E+00   1.07634954E+01
             1160                1   1.07773468E+02   1.13276955E+02   1.13276955E+02   5.28128147E+00   5.72707510E+00   1.13276955E+02   1.13276955E+02   5.72707510E+00   5.28128147E+00   1.07995674E+02  -4.14284363E+01   1.07771393E+02   5.99113369E+00   1.12567101E+02   5.72707510E+00   8.72680855E+00
             1160                2   1.07723923E+02   1.13243988E+02   1.13243988E+02   5.31424665E+00   5.72707510E+00   1.13243988E+02   1.13243988E+02   5.72707510E+00   5.31424665E+00   1.07929741E+02  -4.14284363E+01   1.07722137E+02   6.04887199E+00   1.12509361E+02   5.72707510E+00   8.87403107E+00
             1160                3   1.07547935E+02   1.13126854E+02   1.13126854E+02   5.43137932E+00   5.72707510E+00   1.13126854E+02   1.13126854E+02   5.72707510E+00   5.43137932E+00   1.07695473E+02  -4.14284363E+01   1.07547020E+02   6.13339138E+00   1.12424843E+02   5.72707510E+00   8.66664886E+00
             1160                4   1.07498405E+02   1.13093880E+02   1.13093880E+02   5.46435070E+00   5.72707510E+00   1.13093880E+02   1.13093880E+02   5.72707510E+00   5.46435070E+00   1.07629524E+02  -4.14284325E+01   1.07497688E+02   6.19094419E+00   1.12367287E+02   5.72707510E+00   8.81332111E+00
             1161                1   1.27029755E+02   1.53286713E+02   1.53286713E+02   2.63468513E+01   2.61672459E+01   1.53286713E+02   1.53286713E+02   2.63468513E+01   2.61672459E+01   1.27119461E+02  -6.86002731E+01   1.27029472E+02   2.63519802E+01   1.53281586E+02   2.61672459E+01   8.06650579E-01
             1161                2   1.26874428E+02   1.53183060E+02   1.53183060E+02   2.64505100E+01   2.61672459E+01   1.53183060E+02   1.53183060E+02   2.64505100E+01   2.61672459E+01   1.27015823E+02  -6.86002731E+01   1.26873711E+02   2.64517822E+01   1.53181793E+02   2.61672459E+01   4.01640087E-01
             1161                3   1.27636040E+02   1.53690872E+02   1.53690872E+02   2.59427071E+01   2.61672459E+01   1.53690872E+02   1.53690872E+02   2.61672459E+01   2.59427071E+01   1.27748161E+02  -6.86002731E+01   1.27635582E+02   2.59466038E+01   1.53686966E+02   2.61672459E+01   7.05751538E-01
             1161                4   1.27482094E+02   1.53588303E+02   1.53588303E+02   2.60452671E+01   2.61672459E+01   1.53588303E+02   1.53588303E+02   2.61672459E+01   2.60452671E+01   1.27543045E+02  -6.86002731E+01   1.27481956E+02   2.60459747E+01   1.53587601E+02   2.61672459E+01   3.00505906E-01
             1162                1   2.18303543E+02   2.34113113E+02   2.34113113E+02  -1.15747857E+00   3.81052895E+01   2.34113113E+02   2.34113113E+02   3.81052895E+01  -1.15747857E+00   2.35270584E+02  -9.03536377E+01   2.10138474E+02  -1.03529441E+00   2.33990921E+02   3.81052895E+01  -5.36018610E+00
             1162                2   2.18530975E+02   2.33870773E+02   2.33870773E+02  -3.10100245E+00   4.02911377E+01   2.33870773E+02   2.33870773E+02   4.02911377E+01  -3.10100245E+00   2.36971786E+02  -9.03536377E+01   2.08505249E+02  -3.09238505E+00   2.33862167E+02   4.02911377E+01  -1.42841625E+00
             1162                3   2.18178024E+02   2.34311630E+02   2.34311630E+02   3.66567731E-01   3.63827286E+01   2.34311630E+02   2.34311630E+02   3.63827286E+01   3.66567731E-01   2.33945053E+02  -9.03536377E+01   2.11334213E+02   3.66630971E-01   2.34311554E+02   3.63827286E+01   1.28376305E-01
             1162                4   2.18417664E+02   2.34081741E+02   2.34081741E+02  -1.72842014E+00   3.87076035E+01   2.34081741E+02   2.34081741E+02   3.87076035E+01  -1.72842014E+00   2.35810150E+02  -9.03536377E+01   2.09747040E+02  -1.65923905E+00   2.34012558E+02   3.87076035E+01   4.03837061E+00
             1163                1   1.71326385E+02   1.98346832E+02   1.98346832E+02   1.97725964E+01   3.53293839E+01   1.98346832E+02   1.98346832E+02   3.53293839E+01   1.97725964E+01   1.78574234E+02  -8.44829407E+01   1.69726425E+02   2.83418636E+01   1.89777573E+02   3.53293839E+01   3.81682739E+01
             1163                2   1.75267746E+02   2.00861359E+02   2.00861359E+02   1.72580776E+01   3.53293839E+01   2.00861359E+02   2.00861359E+02   3.53293839E+01   1.72580776E+01   1.83603271E+02  -8.44829407E+01   1.73153122E+02   2.61386089E+01   1.91980820E+02   3.53293839E+01   3.93907509E+01
             1163                3   1.70533142E+02   1.97839203E+02   1.97839203E+02   2.02802391E+01   3.53293839E+01   1.97839203E+02   1.97839203E+02   3.53293839E+01   2.02802391E+01   1.77558975E+02  -8.44829407E+01   1.69029510E+02   3.00041161E+01   1.88115326E+02   3.53293839E+01   4.03981247E+01
             1163                4   1.74426834E+02   2.00325928E+02   2.00325928E+02   1.77935257E+01   3.53293839E+01   2.00325928E+02   2.00325928E+02   3.53293839E+01   1.77935257E+01   1.82532394E+02  -8.44829407E+01   1.72426941E+02   2.78716049E+01   1.90247833E+02   3.53293839E+01   4.16894417E+01
             1164                1   4.55392303E+01   4.88872261E+01   4.88872261E+01   3.42208791E+00   3.27426744E+00   4.88872261E+01   4.88872261E+01   3.42208791E+00   3.27426744E+00   4.56129608E+01  -1.85278606E+01   4.55386887E+01   3.83875322E+00   4.84705620E+01   3.27426744E+00   4.33244896E+00
             1164                2   4.56220665E+01   4.89425278E+01   4.89425278E+01   3.36679196E+00   3.27426744E+00   4.89425278E+01   4.89425278E+01   3.36679196E+00   3.27426744E+00   4.56682587E+01  -1.85278625E+01   4.56218529E+01   3.74118662E+00   4.85681305E+01   3.27426744E+00   4.11378241E+00
             1164                3   4.58933601E+01   4.91233902E+01   4.91233902E+01   3.18592358E+00   3.27426744E+00   4.91233902E+01   4.91233902E+01   3.27426744E+00   3.18592358E+00   4.59374657E+01  -1.85278606E+01   4.58931656E+01   3.61685610E+00   4.86924591E+01   3.27426744E+00   4.42834330E+00
             1164                4   4.59758759E+01   4.91783333E+01   4.91783333E+01   3.13098049E+00   3.27426744E+00   4.91783333E+01   4.91783333E+01   3.27426744E+00   3.13098049E+00   4.60473557E+01  -1.85278606E+01   4.59753761E+01   3.51928091E+00   4.87900352E+01   3.27426744E+00   4.21062565E+00
             1165                1   1.08067383E+02   1.14006493E+02   1.14006493E+02   5.95019960E+00   5.92802954E+00   1.14006493E+02   1.14006493E+02   5.95019960E+00   5.92802954E+00   1.08078468E+02  -4.19615746E+01   1.08067375E+02   6.00163221E+00   1.13955063E+02   5.92802954E+00   2.35691047E+00
             1165                2   1.08182098E+02   1.14082970E+02   1.14082970E+02   5.87372589E+00   5.92802954E+00   1.14082970E+02   1.14082970E+02   5.92802954E+00   5.87372589E+00   1.08209244E+02  -4.19615746E+01   1.08182068E+02   5.92365408E+00   1.14033043E+02   5.92802954E+00   2.32380462E+00
             1165                3   1.08121750E+02   1.14042747E+02   1.14042747E+02   5.91395187E+00   5.92802954E+00   1.14042747E+02   1.14042747E+02   5.92802954E+00   5.91395187E+00   1.08128792E+02  -4.19615746E+01   1.08121750E+02   5.96881199E+00   1.13987885E+02   5.92802954E+00   2.43492579E+00
             1165                4   1.08236359E+02   1.14119133E+02   1.14119133E+02   5.83756638E+00   5.92802954E+00   1.14119133E+02   1.14119133E+02   5.92802954E+00   5.83756638E+00   1.08281563E+02  -4.19615746E+01   1.08236275E+02   5.89087009E+00   1.14065826E+02   5.92802954E+00   2.40184784E+00
             1166                1   1.14965225E+02   1.35470978E+02   1.35470978E+02   2.03959389E+01   2.06158772E+01   1.35470978E+02   1.35470978E+02   2.06158772E+01   2.03959389E+01   1.15075035E+02  -5.88275948E+01   1.14964760E+02   2.05010605E+01   1.35365860E+02   2.06158772E+01   3.47639441E+00
             1166                2   1.15161011E+02   1.35601334E+02   1.35601334E+02   2.02655773E+01   2.06158772E+01   1.35601334E+02   1.35601334E+02   2.06158772E+01   2.02655773E+01   1.15335754E+02  -5.88275948E+01   1.15159821E+02   2.03766251E+01   1.35490295E+02   2.06158772E+01   3.57699847E+00
             1166                3   1.14823898E+02   1.35376831E+02   1.35376831E+02   2.04900856E+01   2.06158772E+01   1.35376831E+02   1.35376831E+02   2.06158772E+01   2.04900856E+01   1.14886742E+02  -5.88275948E+01   1.14823753E+02   2.06029263E+01   1.35263992E+02   2.06158772E+01   3.59873414E+00
             1166                4   1.15020340E+02   1.35507675E+02   1.35507675E+02   2.03592339E+01   2.06158772E+01   1.35507675E+02   1.35507675E+02   2.06158772E+01   2.03592339E+01   1.15148445E+02  -5.88275948E+01   1.15019707E+02   2.04782181E+01   1.35388702E+02   2.06158772E+01   3.69948077E+00
             1167                1   1.14786575E+02   1.30766479E+02   1.30766479E+02   1.55516405E+01   1.64130135E+01   1.30766479E+02   1.30766479E+02   1.64130135E+01   1.55516405E+01   1.15214836E+02  -5.42437096E+01   1.14779312E+02   1.62488022E+01   1.30069321E+02   1.64130135E+01   8.93514919E+00
             1167                2   1.14918640E+02   1.30854187E+02   1.30854187E+02   1.54639511E+01   1.64130135E+01   1.30854187E+02   1.30854187E+02   1.64130135E+01   1.54639511E+01   1.15390228E+02  -5.42437134E+01   1.14909821E+02   1.61686821E+01   1.30149445E+02   1.64130135E+01   8.99015427E+00
             1167                3   1.14717995E+02   1.30720932E+02   1.30720932E+02   1.55972013E+01   1.64130135E+01   1.30720932E+02   1.30720932E+02   1.64130135E+01   1.55972013E+01   1.15123726E+02  -5.42437134E+01   1.14711472E+02   1.63071136E+01   1.30011017E+02   1.64130135E+01   9.01242447E+00
             1167                4   1.14851212E+02   1.30809402E+02   1.30809402E+02   1.55087204E+01   1.64130135E+01   1.30809402E+02   1.30809402E+02   1.64130135E+01   1.55087204E+01   1.15300690E+02  -5.42437134E+01   1.14843208E+02   1.62263165E+01   1.30091812E+02   1.64130135E+01   9.06777573E+00
             1168                1   1.56952866E+02   1.68139603E+02   1.68139603E+02   1.01656466E+01   1.22281532E+01   1.68139603E+02   1.68139603E+02   1.22281532E+01   1.01656466E+01   1.57973953E+02  -6.35111351E+01   1.56922379E+02   1.02368374E+01   1.68068420E+02   1.22281532E+01   3.35265326E+00
             1168                2   1.55387817E+02   1.67101334E+02   1.67101334E+02   1.12039337E+01   1.22281532E+01   1.67101334E+02   1.67101334E+02   1.22281532E+01   1.12039337E+01   1.55897400E+02  -6.35111389E+01   1.55380234E+02   1.13137074E+01   1.66991562E+02   1.22281532E+01   4.13534021E+00
             1168                3   1.55737930E+02   1.67333893E+02   1.67333893E+02   1.09713745E+01   1.22281532E+01   1.67333893E+02   1.67333893E+02   1.22281532E+01   1.09713745E+01   1.56362518E+02  -6.35111389E+01   1.55726532E+02   1.10042105E+01   1.67301056E+02   1.22281532E+01   2.26569819E+00
             1168                4   1.54161087E+02   1.66285126E+02   1.66285126E+02   1.20201378E+01   1.22281532E+01   1.66285126E+02   1.66285126E+02   1.22281532E+01   1.20201378E+01   1.54264999E+02  -6.35111389E+01   1.54160782E+02   1.20803518E+01   1.66224915E+02   1.22281532E+01   3.04720497E+00
             1169                1   1.61175552E+02   1.72606766E+02   1.72606766E+02   9.95654488E+00   1.29474888E+01   1.72606766E+02   1.72606766E+02   1.29474888E+01   9.95654488E+00   1.62650223E+02  -6.51702652E+01   1.61113098E+02   1.00748205E+01   1.72488495E+02   1.29474888E+01   4.38433790E+00
             1169                2   1.59684189E+02   1.71620102E+02   1.71620102E+02   1.09432192E+01   1.29474888E+01   1.71620102E+02   1.71620102E+02   1.29474888E+01   1.09432192E+01   1.60676880E+02  -6.51702728E+01   1.59655869E+02   1.11267223E+01   1.71436600E+02   1.29474888E+01   5.42691469E+00
             1169                3   1.59556931E+02   1.71535782E+02   1.71535782E+02   1.10275326E+01   1.29474888E+01   1.71535782E+02   1.71535782E+02   1.29474888E+01   1.10275326E+01   1.60508240E+02  -6.51702652E+01   1.59530930E+02   1.10958567E+01   1.71467453E+02   1.29474888E+01   3.31086063E+00
             1169                4   1.58047623E+02   1.70534027E+02   1.70534027E+02   1.20293036E+01   1.29474888E+01   1.70534027E+02   1.70534027E+02   1.29474888E+01   1.20293036E+01   1.58504715E+02  -6.51702728E+01   1.58041611E+02   1.21489201E+01   1.70414398E+02   1.29474888E+01   4.35274363E+00
             1170                1   8.40450592E+01   7.88303452E+01   7.88303452E+01  -4.75457001E+00  -5.66741371E+00   7.88303452E+01   7.88303452E+01  -4.75457001E+00  -5.66741371E+00   8.44977570E+01  -2.28027878E+01   8.40338974E+01  -1.78139055E+00   7.58571625E+01  -5.66741371E+00   1.54813890E+01
             1170                2   8.48079224E+01   7.93409271E+01   7.93409271E+01  -5.26514864E+00  -5.66741371E+00   7.93409271E+01   7.93409271E+01  -5.26514864E+00  -5.66741371E+00   8.50083389E+01  -2.28027878E+01   8.48057709E+01  -2.35606575E+00   7.64318390E+01  -5.66741371E+00   1.54163370E+01
             1170                3   8.44570160E+01   7.91062622E+01   7.91062622E+01  -5.03049469E+00  -5.66741371E+00   7.91062622E+01   7.91062622E+01  -5.03049469E+00  -5.66741371E+00   8.47736740E+01  -2.28027859E+01   8.44516144E+01  -1.84516776E+00   7.59209366E+01  -5.66741371E+00   1.60579166E+01
             1170                4   8.52125168E+01   7.96110764E+01   7.96110764E+01  -5.53530312E+00  -5.66741371E+00   7.96110764E+01   7.96110764E+01  -5.53530312E+00  -5.66741371E+00   8.52784958E+01  -2.28027878E+01   8.52122803E+01  -2.41436768E+00   7.64901428E+01  -5.66741371E+00   1.59998789E+01
             1171                1   2.58597488E+01   4.02942810E+01   4.02942810E+01   1.45042038E+01   1.43654194E+01   4.02942810E+01   4.02942810E+01   1.45042038E+01   1.43654194E+01   2.59288616E+01  -2.30546341E+01   2.58589153E+01   1.45107441E+01   4.02877426E+01   1.43654194E+01   4.10629302E-01
             1171                2   2.58602276E+01   4.02946014E+01   4.02946014E+01   1.45038834E+01   1.43654194E+01   4.02946014E+01   4.02946014E+01   1.45038834E+01   1.43654194E+01   2.59291821E+01  -2.30546341E+01   2.58593960E+01   1.45043983E+01   4.02940865E+01   1.43654194E+01   1.15199625E-01
             1171                3   2.63094158E+01   4.05939980E+01   4.05939980E+01   1.42044859E+01   1.43654194E+01   4.05939980E+01   4.05939980E+01   1.43654194E+01   1.42044859E+01   2.63895130E+01  -2.30546341E+01   2.63083115E+01   1.42110987E+01   4.05873871E+01   1.43654194E+01   4.17663574E-01
             1171                4   2.63091488E+01   4.05938225E+01   4.05938225E+01   1.42046661E+01   1.43654194E+01   4.05938225E+01   4.05938225E+01   1.43654194E+01   1.42046661E+01   2.63891563E+01  -2.30546360E+01   2.63080406E+01   1.42052450E+01   4.05932426E+01   1.43654194E+01   1.23727016E-01
             1172                1   3.94146461E+01   4.44580536E+01   4.44580536E+01   1.73871791E+00   9.50396633E+00   4.44580536E+01   4.44580536E+01   9.50396633E+00   1.73871791E+00   4.27193336E+01  -1.85669117E+01   3.76354637E+01   3.48540115E+00   4.27113686E+01   9.50396633E+00   8.45968342E+00
             1172                2   4.01306534E+01   4.48979340E+01   4.48979340E+01   1.29883409E+00   9.50396633E+00   4.48979340E+01   4.48979340E+01   9.50396633E+00   1.29883409E+00   4.35991020E+01  -1.85669117E+01   3.81743469E+01   3.00698900E+00   4.31897812E+01   9.50396633E+00   8.45909023E+00
             1172                3   3.97442436E+01   4.46606712E+01   4.46606712E+01   1.53609717E+00   9.50396633E+00   4.46606712E+01   4.46606712E+01   9.50396633E+00   1.53609717E+00   4.31245766E+01  -1.85669117E+01   3.78842278E+01   3.48679876E+00   4.27099724E+01   9.50396633E+00   8.96202469E+00
             1172                4   4.04570885E+01   4.50981407E+01   4.50981407E+01   1.09862983E+00   9.50396633E+00   4.50981407E+01   4.50981407E+01   9.50396633E+00   1.09862983E+00   4.39995117E+01  -1.85669117E+01   3.84181900E+01   3.00688195E+00   4.31898880E+01   9.50396633E+00   8.96218300E+00
             1173                1   1.02064888E+02   1.02672737E+02   1.02672737E+02   5.42548776E-01   6.73271418E-01   1.02672737E+02   1.02672737E+02   6.73271418E-01   5.42548776E-01   1.02130188E+02  -3.46295204E+01   1.02064705E+02   1.53971839E+00   1.01675568E+02   6.73271418E-01   1.00422506E+01
             1173                2   1.02000237E+02   1.02629662E+02   1.02629662E+02   5.85626662E-01   6.73271418E-01   1.02629662E+02   1.02629662E+02   6.73271418E-01   5.85626662E-01   1.02044029E+02  -3.46295204E+01   1.02000153E+02   1.53582168E+00   1.01679466E+02   6.73271418E-01   9.80095387E+00
             1173                3   1.02416847E+02   1.02907097E+02   1.02907097E+02   3.08197796E-01   6.73271418E-01   1.02907097E+02   1.02907097E+02   6.73271418E-01   3.08197796E-01   1.02598900E+02  -3.46295204E+01   1.02415382E+02   1.30260265E+00   1.01912689E+02   6.73271418E-01   1.00516768E+01
             1173                4   1.02351967E+02   1.02863907E+02   1.02863907E+02   3.51377100E-01   6.73271418E-01   1.02863907E+02   1.02863907E+02   6.73271418E-01   3.51377100E-01   1.02512535E+02  -3.46295204E+01   1.02350830E+02   1.29873073E+00   1.01916557E+02   6.73271418E-01   9.80907536E+00
             1174                1   4.38161469E+01   3.92151871E+01   3.92151871E+01  -2.49698305E+00  -6.43859625E+00   3.92151871E+01   3.92151871E+01  -2.49698305E+00  -6.43859625E+00   4.56537857E+01  -1.00932026E+01   4.34145851E+01  -2.40764961E-01   3.69589691E+01  -6.43859625E+00   9.43510723E+00
             1174                2   4.33069534E+01   3.88576088E+01   3.88576088E+01  -2.13940454E+00  -6.43859625E+00   3.88576088E+01   3.88576088E+01  -2.13940454E+00  -6.43859625E+00   4.52962036E+01  -1.00932026E+01   4.28229027E+01   1.52731061E-01   3.65654716E+01  -6.43859625E+00   9.41896439E+00
             1174                3   4.36017685E+01   3.90648842E+01   3.90648842E+01  -2.34668112E+00  -6.43859625E+00   3.90648842E+01   3.90648842E+01  -2.34668112E+00  -6.43859625E+00   4.55034828E+01  -1.00932026E+01   4.31666145E+01  -2.72414207E-01   3.69906197E+01  -6.43859625E+00   9.03305149E+00
             1174                4   4.30924072E+01   3.87063370E+01   3.87063370E+01  -1.98813152E+00  -6.43859625E+00   3.87063370E+01   3.87063370E+01  -1.98813152E+00  -6.43859625E+00   4.51449318E+01  -1.00932026E+01   4.25707626E+01   1.22239627E-01   3.65959663E+01  -6.43859625E+00   9.02367496E+00
             1175                1   1.92292053E+02   1.83113190E+02   1.83113190E+02  -9.19841003E+00  -9.15931797E+00   1.83113190E+02   1.83113190E+02  -9.15931797E+00  -9.19841003E+00   1.92311600E+02  -5.49184875E+01   1.92292053E+02  -9.16320229E+00   1.83077988E+02  -9.15931797E+00   2.60162616E+00
             1175                2   1.92889557E+02   1.83511276E+02   1.83511276E+02  -9.59605503E+00  -9.15976048E+00   1.83511276E+02   1.83511276E+02  -9.15976048E+00  -9.59605503E+00   1.93107330E+02  -5.49184875E+01   1.92888443E+02  -9.57250786E+00   1.83487732E+02  -9.15976048E+00   2.13219070E+00
             1175                3   1.93011948E+02   1.83592773E+02   1.83592773E+02  -9.67736912E+00  -9.15993786E+00   1.83592773E+02   1.83592773E+02  -9.15993786E+00  -9.67736912E+00   1.93270142E+02  -5.49184875E+01   1.93010391E+02  -9.63023472E+00   1.83545639E+02  -9.15993786E+00   3.01788616E+00
             1175                4   1.93608414E+02   1.83989685E+02   1.83989685E+02  -1.00738430E+01  -9.16038132E+00   1.83989685E+02   1.83989685E+02  -9.16038132E+00  -1.00738430E+01   1.94063538E+02  -5.49184875E+01   1.93603577E+02  -1.00403328E+01   1.83956177E+02  -9.16038132E+00   2.55003548E+00
             1176                1   1.74009689E+02   1.80341873E+02   1.80341873E+02   3.32382631E+00   9.50526428E+00   1.80341873E+02   1.80341873E+02   9.50526428E+00   3.32382631E+00   1.77018036E+02  -6.43903198E+01   1.73762405E+02   3.48834753E+00   1.80177353E+02   9.50526428E+00   5.39400005E+00
             1176                2   1.73455444E+02   1.79999405E+02   1.79999405E+02   4.38665915E+00   8.78490734E+00   1.79999405E+02   1.79999405E+02   8.78490734E+00   4.38665915E+00   1.75612747E+02  -6.43903275E+01   1.73329910E+02   4.72292900E+00   1.79663132E+02   8.78490734E+00   7.67727423E+00
             1176                3   1.72855804E+02   1.79604614E+02   1.79604614E+02   4.79312658E+00   8.77322197E+00   1.79604614E+02   1.79604614E+02   8.77322197E+00   4.79312658E+00   1.74811478E+02  -6.43903198E+01   1.72752655E+02   4.86374092E+00   1.79533997E+02   8.77322197E+00   3.51267505E+00
             1176                4   1.72285522E+02   1.79240631E+02   1.79240631E+02   5.89066696E+00   8.03966236E+00   1.79240631E+02   1.79240631E+02   8.03966236E+00   5.89066696E+00   1.73349960E+02  -6.43903198E+01   1.72255371E+02   6.08375072E+00   1.79047546E+02   8.03966236E+00   5.78226328E+00
             1177                1   1.89651993E+02   1.83443802E+02   1.83443802E+02  -6.30464792E+00  -6.11158276E+00   1.83443802E+02   1.83443802E+02  -6.11158276E+00  -6.30464792E+00   1.89748459E+02  -5.70091896E+01   1.89651779E+02  -6.30270767E+00   1.83441864E+02  -6.11158276E+00   6.07362866E-01
             1177                2   1.89512115E+02   1.83350586E+02   1.83350586E+02  -6.21155310E+00  -6.11147404E+00   1.83350586E+02   1.83350586E+02  -6.11147404E+00  -6.21155310E+00   1.89562149E+02  -5.70091858E+01   1.89512070E+02  -6.20681095E+00   1.83345856E+02  -6.11147404E+00   9.47418511E-01
             1177                3   1.89138626E+02   1.83101578E+02   1.83101578E+02  -5.96287394E+00  -6.11112356E+00   1.83101578E+02   1.83101578E+02  -5.96287394E+00  -6.11112356E+00   1.89212708E+02  -5.70091896E+01   1.89138489E+02  -5.96148729E+00   1.83100189E+02  -6.11112356E+00   5.12126684E-01
             1177                4   1.88998779E+02   1.83008301E+02   1.83008301E+02  -5.86970234E+00  -6.11101532E+00   1.83008301E+02   1.83008301E+02  -5.86970234E+00  -6.11101532E+00   1.89119308E+02  -5.70091972E+01   1.88998413E+02  -5.86586237E+00   1.83004456E+02  -6.11101532E+00   8.51901472E-01
             1178                1   1.88287186E+02   1.84927872E+02   1.84927872E+02  -3.30665398E+00  -3.41193724E+00   1.84927872E+02   1.84927872E+02  -3.30665398E+00  -3.41193724E+00   1.88339813E+02  -5.94030914E+01   1.88287125E+02  -3.30560565E+00   1.84926819E+02  -3.41193724E+00   4.44791913E-01
             1178                2   1.88678589E+02   1.85188782E+02   1.85188782E+02  -3.56721830E+00  -3.41227841E+00   1.85188782E+02   1.85188782E+02  -3.41227841E+00  -3.56721830E+00   1.88755997E+02  -5.94030952E+01   1.88678436E+02  -3.56561875E+00   1.85187180E+02  -3.41227841E+00   5.50498009E-01
             1178                3   1.88131744E+02   1.84824188E+02   1.84824188E+02  -3.20308566E+00  -3.41183472E+00   1.84824188E+02   1.84824188E+02  -3.20308566E+00  -3.41183472E+00   1.88236023E+02  -5.94030914E+01   1.88131485E+02  -3.20045352E+00   1.84821564E+02  -3.41183472E+00   7.03350008E-01
             1178                4   1.88525803E+02   1.85086960E+02   1.85086960E+02  -3.46550107E+00  -3.41217780E+00   1.85086960E+02   1.85086960E+02  -3.41217780E+00  -3.46550107E+00   1.88552460E+02  -5.94030952E+01   1.88525787E+02  -3.46203446E+00   1.85083496E+02  -3.41217780E+00   8.08280468E-01
             1179                1   1.14465462E+02   1.35008560E+02   1.35008560E+02   2.05199699E+01   2.05662537E+01   1.35008560E+02   1.35008560E+02   2.05662537E+01   2.05199699E+01   1.14488594E+02  -5.86982613E+01   1.14465439E+02   2.05572529E+01   1.34971283E+02   2.05662537E+01   2.06565762E+00
             1179                2   1.14670731E+02   1.35145340E+02   1.35145340E+02   2.03831882E+01   2.05662537E+01   1.35145340E+02   1.35145340E+02   2.05662537E+01   2.03831882E+01   1.14762161E+02  -5.86982613E+01   1.14670410E+02   2.04227180E+01   1.35105820E+02   2.05662537E+01   2.12945271E+00
             1179                3   1.14375984E+02   1.34948914E+02   1.34948914E+02   2.05796146E+01   2.05662537E+01   1.34948914E+02   1.34948914E+02   2.05796146E+01   2.05662537E+01   1.14382668E+02  -5.86982613E+01   1.14375977E+02   2.06219254E+01   1.34906601E+02   2.05662537E+01   2.19945669E+00
             1179                4   1.14581665E+02   1.35085999E+02   1.35085999E+02   2.04425297E+01   2.05662537E+01   1.35085999E+02   1.35085999E+02   2.05662537E+01   2.04425297E+01   1.14643478E+02  -5.86982613E+01   1.14581512E+02   2.04872265E+01   1.35041306E+02   2.05662537E+01   2.26328659E+00
             1180                1   1.06486900E+02   1.10350243E+02   1.10350243E+02   3.72270966E+00   4.00453854E+00   1.10350243E+02   1.10350243E+02   4.00453854E+00   3.72270966E+00   1.06627533E+02  -3.93591652E+01   1.06486061E+02   4.17971230E+00   1.09893242E+02   4.00453854E+00   6.96563101E+00
             1180                2   1.06444992E+02   1.10322334E+02   1.10322334E+02   3.75061512E+00   4.00453854E+00   1.10322334E+02   1.10322334E+02   4.00453854E+00   3.75061512E+00   1.06571724E+02  -3.93591652E+01   1.06444305E+02   4.22523212E+00   1.09847717E+02   4.00453854E+00   7.09618187E+00
             1180                3   1.06286194E+02   1.10216568E+02   1.10216568E+02   3.85638142E+00   4.00453854E+00   1.10216568E+02   1.10216568E+02   4.00453854E+00   3.85638142E+00   1.06360191E+02  -3.93591652E+01   1.06285950E+02   4.30838394E+00   1.09764565E+02   4.00453854E+00   6.91889954E+00
             1180                4   1.06244293E+02   1.10188660E+02   1.10188660E+02   3.88429618E+00   4.00453854E+00   1.10188660E+02   1.10188660E+02   4.00453854E+00   3.88429618E+00   1.06304359E+02  -3.93591652E+01   1.06244133E+02   4.35376787E+00   1.09719185E+02   4.00453854E+00   7.04886103E+00
             1181                1   8.84050751E+01   8.32033234E+01   8.32033234E+01  -5.22056198E+00  -5.18294144E+00   8.32033234E+01   8.32033234E+01  -5.18294144E+00  -5.22056198E+00   8.84238815E+01  -2.42666073E+01   8.84050598E+01  -3.02242875E+00   8.10051880E+01  -5.18294144E+00   1.37671909E+01
             1181                2   8.77889481E+01   8.27921753E+01   8.27921753E+01  -4.80941439E+00  -5.18294144E+00   8.27921753E+01   8.27921753E+01  -4.80941439E+00  -5.18294144E+00   8.79751129E+01  -2.42666073E+01   8.77871552E+01  -2.56330752E+00   8.05460663E+01  -5.18294144E+00   1.38462057E+01
             1181                3   8.80908737E+01   8.29937744E+01   8.29937744E+01  -5.01101494E+00  -5.18294144E+00   8.29937744E+01   8.29937744E+01  -5.01101494E+00  -5.18294144E+00   8.81767120E+01  -2.42666073E+01   8.80904999E+01  -2.95283365E+00   8.09355927E+01  -5.18294144E+00   1.33001347E+01
             1181                4   8.74732819E+01   8.25811539E+01   8.25811539E+01  -4.59839249E+00  -5.18294144E+00   8.25811539E+01   8.25811539E+01  -4.59839249E+00  -5.18294144E+00   8.77640915E+01  -2.42666073E+01   8.74688873E+01  -2.49368095E+00   8.04764404E+01  -5.18294144E+00   1.33812494E+01
             1182                1   1.15232216E+02   1.37778091E+02   1.37778091E+02   2.25096931E+01   2.25820904E+01   1.37778091E+02   1.37778091E+02   2.25820904E+01   2.25096931E+01   1.15268394E+02  -6.09566231E+01   1.15232170E+02   2.25437832E+01   1.37744003E+02   2.25820904E+01   1.98192644E+00
             1182                2   1.15414215E+02   1.37899353E+02   1.37899353E+02   2.23884277E+01   2.25820904E+01   1.37899353E+02   1.37899353E+02   2.25820904E+01   2.23884277E+01   1.15510925E+02  -6.09566231E+01   1.15413849E+02   2.24253693E+01   1.37862411E+02   2.25820904E+01   2.06535935E+00
             1182                3   1.15112274E+02   1.37698135E+02   1.37698135E+02   2.25896397E+01   2.25820904E+01   1.37698135E+02   1.37698135E+02   2.25896397E+01   2.25820904E+01   1.15116051E+02  -6.09566231E+01   1.15112267E+02   2.26279392E+01   1.37659836E+02   2.25820904E+01   2.09938598E+00
             1182                4   1.15294472E+02   1.37819580E+02   1.37819580E+02   2.24682045E+01   2.25820904E+01   1.37819580E+02   1.37819580E+02   2.25820904E+01   2.24682045E+01   1.15351372E+02  -6.09566231E+01   1.15294350E+02   2.25095291E+01   1.37778259E+02   2.25820904E+01   2.18280816E+00
             1183                1   2.15670074E+02   2.24179626E+02   2.24179626E+02  -4.64093208E-01   1.87718868E+01   2.24179626E+02   2.24179626E+02   1.87718868E+01  -4.64093208E-01   2.24643723E+02  -8.08291397E+01   2.13727280E+02  -4.32996631E-01   2.24148529E+02   1.87718868E+01   2.64276910E+00
             1183                2   2.15582993E+02   2.24180389E+02   2.24180389E+02   2.19192669E-01   1.80878258E+01   2.24180389E+02   2.24180389E+02   1.80878258E+01   2.19192669E-01   2.23961197E+02  -8.08291397E+01   2.13907410E+02   2.19667956E-01   2.24179916E+02   1.80878258E+01   3.25425565E-01
             1183                3   2.15786926E+02   2.24159195E+02   2.24159195E+02  -1.49910069E+00   1.98273258E+01   2.24159195E+02   2.24159195E+02   1.98273258E+01  -1.49910069E+00   2.25658295E+02  -8.08291397E+01   2.13396622E+02  -1.49282753E+00   2.24152924E+02   1.98273258E+01   1.18968689E+00
             1183                4   2.15702866E+02   2.24166229E+02   2.24166229E+02  -8.44511569E-01   1.91656952E+01   2.24166229E+02   2.24166229E+02   1.91656952E+01  -8.44511569E-01   2.25010742E+02  -8.08291397E+01   2.13599731E+02  -8.39001477E-01   2.24160721E+02   1.91656952E+01  -1.11315525E+00
             1184                1   2.15160889E+02   2.22791031E+02   2.22791031E+02   1.79885656E-01   1.59479542E+01   2.22791031E+02   2.22791031E+02   1.59479542E+01   1.79885656E-01   2.22611145E+02  -7.96396255E+01   2.13855148E+02   1.80153340E-01   2.22790756E+02   1.59479542E+01   2.47360185E-01
             1184                2   2.15248047E+02   2.22776993E+02   2.22776993E+02  -7.42524564E-01   1.68844013E+01   2.22776993E+02   2.22776993E+02   1.68844013E+01  -7.42524564E-01   2.23519516E+02  -7.96396255E+01   2.13615173E+02  -7.38403916E-01   2.22772873E+02   1.68844013E+01  -9.59768474E-01
             1184                3   2.15245895E+02   2.22803848E+02   2.22803848E+02  -4.04337376E-01   1.65193481E+01   2.22803848E+02   2.22803848E+02   1.65193481E+01  -4.04337376E-01   2.23208176E+02  -7.96396179E+01   2.13741364E+02  -3.81600082E-01   2.22781113E+02   1.65193481E+01   2.25234914E+00
             1184                4   2.15330994E+02   2.22785156E+02   2.22785156E+02  -1.30491459E+00   1.74386292E+01   2.22785156E+02   2.22785156E+02   1.74386292E+01  -1.30491459E+00   2.24090073E+02  -7.96396255E+01   2.13484070E+02  -1.29987037E+00   2.22780106E+02   1.74386292E+01   1.06366360E+00
             1185                1   2.15419708E+02   2.21532410E+02   2.21532410E+02  -2.61870408E+00   1.60606308E+01   2.21532410E+02   2.21532410E+02   1.60606308E+01  -2.61870408E+00   2.24151123E+02  -7.83247757E+01   2.13586258E+02  -2.58975267E+00   2.21503464E+02   1.60606308E+01   2.54730034E+00
             1185                2   2.15240738E+02   2.21494186E+02   2.21494186E+02  -1.61145616E+00   1.50916042E+01   2.21494186E+02   2.21494186E+02   1.50916042E+01  -1.61145616E+00   2.23105652E+02  -7.83247757E+01   2.13775330E+02  -1.54634964E+00   2.21429092E+02   1.50916042E+01   3.81050181E+00
             1185                3   2.15312790E+02   2.21511093E+02   2.21511093E+02  -2.01255417E+00   1.54758091E+01   2.21511093E+02   2.21511093E+02   1.54758091E+01  -2.01255417E+00   2.23523651E+02  -7.83247833E+01   2.13706116E+02  -2.01188397E+00   2.21510422E+02   1.54758091E+01   3.86302292E-01
             1185                4   2.15130219E+02   2.21466583E+02   2.21466583E+02  -9.80662465E-01   1.44884167E+01   2.21466583E+02   2.21466583E+02   1.44884167E+01  -9.80662465E-01   2.22447235E+02  -7.83247757E+01   2.13873566E+02  -9.68575478E-01   2.21454498E+02   1.44884167E+01   1.63923156E+00
             1186                1   1.36134598E+02   1.57079193E+02   1.57079193E+02   2.11075096E+01   2.07822723E+01   1.57079193E+02   1.57079193E+02   2.11075096E+01   2.07822723E+01   1.36296921E+02  -6.63229904E+01   1.36133728E+02   2.11127110E+01   1.57073990E+02   2.07822723E+01   8.41494977E-01
             1186                2   1.35952972E+02   1.56957947E+02   1.56957947E+02   2.12287655E+01   2.07822723E+01   1.56957947E+02   1.56957947E+02   2.12287655E+01   2.07822723E+01   1.36175674E+02  -6.63229904E+01   1.35951324E+02   2.12289124E+01   1.56957794E+02   2.07822723E+01   1.41509697E-01
             1186                3   1.37182068E+02   1.57777451E+02   1.57777451E+02   2.04092426E+01   2.07822723E+01   1.57777451E+02   1.57777451E+02   2.07822723E+01   2.04092426E+01   1.37368210E+02  -6.63229904E+01   1.37180939E+02   2.04130459E+01   1.57773651E+02   2.07822723E+01   7.22216487E-01
             1186                4   1.37000412E+02   1.57656479E+02   1.57656479E+02   2.05302238E+01   2.07822723E+01   1.57656479E+02   1.57656479E+02   2.07822723E+01   2.05302238E+01   1.37126251E+02  -6.63229904E+01   1.36999878E+02   2.05302219E+01   1.57656479E+02   2.07822723E+01   2.26278976E-02
             1187                1   4.03021927E+01   4.68703079E+01   4.68703079E+01   6.50321817E+00   6.63333035E+00   4.68703079E+01   4.68703079E+01   6.63333035E+00   6.50321817E+00   4.03670921E+01  -2.00022869E+01   4.03017197E+01   6.56031275E+00   4.68132133E+01   6.63333035E+00   1.51708329E+00
             1187                2   3.99266281E+01   4.66199455E+01   4.66199455E+01   6.75357819E+00   6.63333035E+00   4.66199455E+01   4.66199455E+01   6.75357819E+00   6.63333035E+00   3.99866142E+01  -2.00022850E+01   3.99262199E+01   6.80895329E+00   4.65645714E+01   6.63333035E+00   1.48475301E+00
             1187                3   4.03231659E+01   4.68842659E+01   4.68842659E+01   6.48925686E+00   6.63333035E+00   4.68842659E+01   4.68842659E+01   6.63333035E+00   6.48925686E+00   4.03950119E+01  -2.00022850E+01   4.03225861E+01   6.52924824E+00   4.68442764E+01   6.63333035E+00   1.27036333E+00
             1187                4   3.99478188E+01   4.66340942E+01   4.66340942E+01   6.73943138E+00   6.63333035E+00   4.66340942E+01   4.66340942E+01   6.73943138E+00   6.63333035E+00   4.00007629E+01  -2.00022850E+01   3.99474983E+01   6.77788925E+00   4.65956345E+01   6.63333035E+00   1.23805702E+00
             1188                1   5.88834877E+01   5.23140335E+01   5.23140335E+01  -4.33719110E+00  -8.57297325E+00   5.23140335E+01   5.23140335E+01  -4.33719110E+00  -8.57297325E+00   6.08870049E+01  -1.31346235E+01   5.85392456E+01   3.41832852E+00   4.45585136E+01  -8.57297325E+00   1.94733543E+01
             1188                2   5.81599655E+01   5.18112984E+01   5.18112984E+01  -3.83445168E+00  -8.57297325E+00   5.18112984E+01   5.18112984E+01  -3.83445168E+00  -8.57297325E+00   6.03842697E+01  -1.31346235E+01   5.77232704E+01   3.24653053E+00   4.47303123E+01  -8.57297325E+00   1.85441723E+01
             1188                3   6.00373955E+01   5.31102600E+01   5.31102600E+01  -5.13341904E+00  -8.57297325E+00   5.31102600E+01   5.31102600E+01  -5.13341904E+00  -8.57297325E+00   6.16832352E+01  -1.31346235E+01   5.98151169E+01   2.48131251E+00   4.54955292E+01  -8.57297325E+00   1.96348114E+01
             1188                4   5.93603783E+01   5.26439056E+01   5.26439056E+01  -4.66706133E+00  -8.57297325E+00   5.26439056E+01   5.26439056E+01  -4.66706133E+00  -8.57297325E+00   6.12168808E+01  -1.31346235E+01   5.90702209E+01   2.30750966E+00   4.56693344E+01  -8.57297325E+00   1.87369900E+01
             1189                1   6.40671005E+01   6.09044914E+01   6.09044914E+01  -3.21064782E+00  -3.11445832E+00   6.09044914E+01   6.09044914E+01  -3.11445832E+00  -3.21064782E+00   6.41151428E+01  -1.81931286E+01   6.40669403E+01  -3.09770536E+00   6.07915497E+01  -3.11445832E+00   2.68859315E+00
             1189                2   6.39715652E+01   6.08408356E+01   6.08408356E+01  -3.14699078E+00  -3.11445832E+00   6.08408356E+01   6.08408356E+01  -3.11445832E+00  -3.14699078E+00   6.39878235E+01  -1.81931286E+01   6.39715462E+01  -3.01659870E+00   6.07104416E+01  -3.11445832E+00   2.88557839E+00
             1189                3   6.37622414E+01   6.07012444E+01   6.07012444E+01  -3.00740123E+00  -3.11445832E+00   6.07012444E+01   6.07012444E+01  -3.00740123E+00  -3.11445832E+00   6.38157043E+01  -1.81931286E+01   6.37620430E+01  -2.90057492E+00   6.05944176E+01  -3.11445832E+00   2.60661244E+00
             1189                4   6.36661835E+01   6.06371384E+01   6.06371384E+01  -2.94329262E+00  -3.11445832E+00   6.06371384E+01   6.06371384E+01  -2.94329262E+00  -3.11445832E+00   6.37515945E+01  -1.81931286E+01   6.36656685E+01  -2.81942248E+00   6.05132675E+01  -3.11445832E+00   2.80362225E+00
             1190                1   8.58731384E+01   8.08269196E+01   8.08269196E+01  -4.67974377E+00  -5.40806389E+00   8.08269196E+01   8.08269196E+01  -4.67974377E+00  -5.40806389E+00   8.62349854E+01  -2.35797043E+01   8.58661957E+01  -2.16119814E+00   7.83083801E+01  -5.40806389E+00   1.44571466E+01
             1190                2   8.65454330E+01   8.12764359E+01   8.12764359E+01  -5.12925148E+00  -5.40806389E+00   8.12764359E+01   8.12764359E+01  -5.12925148E+00  -5.40806389E+00   8.66845016E+01  -2.35797062E+01   8.65444260E+01  -2.66312599E+00   7.88103104E+01  -5.40806389E+00   1.43876915E+01
             1190                3   8.62155991E+01   8.10560532E+01   8.10560532E+01  -4.90886497E+00  -5.40806389E+00   8.10560532E+01   8.10560532E+01  -4.90886497E+00  -5.40806389E+00   8.64641113E+01  -2.35797062E+01   8.62123489E+01  -2.21846819E+00   7.83656540E+01  -5.40806389E+00   1.49680166E+01
             1190                4   8.68857651E+01   8.15035400E+01   8.15035400E+01  -5.35635424E+00  -5.40806389E+00   8.15035400E+01   8.15035400E+01  -5.35635424E+00  -5.40806389E+00   8.69116058E+01  -2.35797062E+01   8.68857269E+01  -2.72024632E+00   7.88674316E+01  -5.40806389E+00   1.49004383E+01
             1191                1   3.45429993E+01   4.11097908E+01   4.11097908E+01   6.15178299E+00   6.99732447E+00   4.11097908E+01   4.11097908E+01   6.99732447E+00   6.15178299E+00   3.49580078E+01  -1.80862999E+01   3.45197029E+01   8.18869400E+00   3.90728798E+01   6.99732447E+00   8.18885517E+00
             1191                2   3.45347481E+01   4.11043549E+01   4.11043549E+01   6.15721798E+00   6.99732447E+00   4.11043549E+01   4.11043549E+01   6.99732447E+00   6.15721798E+00   3.49471397E+01  -1.80862999E+01   3.45117455E+01   8.09266567E+00   3.91689072E+01   6.99732447E+00   7.99327421E+00
             1191                3   3.48767052E+01   4.13293037E+01   4.13293037E+01   5.93226957E+00   6.99732447E+00   4.13293037E+01   4.13293037E+01   6.99732447E+00   5.93226957E+00   3.53970337E+01  -1.80862999E+01   3.48400879E+01   7.99228621E+00   3.92692871E+01   6.99732447E+00   8.28702736E+00
             1191                4   3.48681030E+01   4.13236542E+01   4.13236542E+01   5.93791962E+00   6.99732447E+00   4.13236542E+01   4.13236542E+01   6.99732447E+00   5.93791962E+00   3.53857346E+01  -1.80862999E+01   3.48318634E+01   7.89673424E+00   3.93648376E+01   6.99732447E+00   8.09179688E+00
             1192                1   1.65731384E+02   1.70178879E+02   1.70178879E+02   3.21894336E+00   5.70401335E+00   1.70178879E+02   1.70178879E+02   5.70401335E+00   3.21894336E+00   1.66959946E+02  -5.97006111E+01   1.65689453E+02   3.27680612E+00   1.70121017E+02   5.70401335E+00   3.10773492E+00
             1192                2   1.63753799E+02   1.68867706E+02   1.68867706E+02   4.53011417E+00   5.70401335E+00   1.68867706E+02   1.68867706E+02   5.70401335E+00   4.53011417E+00   1.64337601E+02  -5.97006111E+01   1.63744339E+02   4.62371826E+00   1.68774109E+02   5.70401335E+00   3.92095780E+00
             1192                3   1.64468689E+02   1.69342270E+02   1.69342270E+02   4.05555105E+00   5.70401335E+00   1.69342270E+02   1.69342270E+02   5.70401335E+00   4.05555105E+00   1.65286728E+02  -5.97006111E+01   1.64450104E+02   4.07411432E+00   1.69323715E+02   5.70401335E+00   1.75142670E+00
             1192                4   1.62477066E+02   1.68018494E+02   1.68018494E+02   5.37933540E+00   5.70401335E+00   1.68018494E+02   1.68018494E+02   5.70401335E+00   5.37933540E+00   1.62639160E+02  -5.97006111E+01   1.62476334E+02   5.41974688E+00   1.67978073E+02   5.70401335E+00   2.56359816E+00
             1193                1   3.21595383E+01   4.19501457E+01   4.19501457E+01   9.62886238E+00   9.95483112E+00   4.19501457E+01   4.19501457E+01   9.95483112E+00   9.62886238E+00   3.23212852E+01  -2.05112801E+01   3.21558189E+01   1.04902477E+01   4.10887604E+01   9.95483112E+00   5.20568085E+00
             1193                2   3.21648331E+01   4.19536591E+01   4.19536591E+01   9.62535095E+00   9.95483112E+00   4.19536591E+01   4.19536591E+01   9.95483112E+00   9.62535095E+00   3.23283081E+01  -2.05112801E+01   3.21610336E+01   1.04089909E+01   4.11700172E+01   9.95483112E+00   4.97189045E+00
             1193                3   3.25387001E+01   4.22011871E+01   4.22011871E+01   9.37781811E+00   9.95483112E+00   4.22011871E+01   4.22011871E+01   9.95483112E+00   9.37781811E+00   3.28233681E+01  -2.05112782E+01   3.25271873E+01   1.02540512E+01   4.13249550E+01   9.95483112E+00   5.29085350E+00
             1193                4   3.25438690E+01   4.22046051E+01   4.22046051E+01   9.37440205E+00   9.95483112E+00   4.22046051E+01   4.22046051E+01   9.95483112E+00   9.37440205E+00   3.28302002E+01  -2.05112782E+01   3.25322227E+01   1.01727791E+01   4.14062271E+01   9.95483112E+00   5.05702162E+00
             1194                1   3.15289497E+01   3.91790276E+01   3.91790276E+01   6.54062128E+00   8.89109230E+00   3.91790276E+01   3.91790276E+01   8.89109230E+00   6.54062128E+00   3.26384087E+01  -1.82035809E+01   3.13309250E+01   9.68172932E+00   3.60379219E+01   8.89109230E+00   9.62570381E+00
             1194                2   3.13652000E+01   3.90735054E+01   3.90735054E+01   6.64614487E+00   8.89109230E+00   3.90735054E+01   3.90735054E+01   8.89109230E+00   6.64614487E+00   3.24273605E+01  -1.82035809E+01   3.11836758E+01   9.66032696E+00   3.60593224E+01   8.89109230E+00   9.41576862E+00
             1194                3   3.18161945E+01   3.93638115E+01   3.93638115E+01   6.35583830E+00   8.89109230E+00   3.93638115E+01   3.93638115E+01   8.89109230E+00   6.35583830E+00   3.30079727E+01  -1.82035809E+01   3.15877399E+01   9.47046757E+00   3.62491837E+01   8.89109230E+00   9.64917946E+00
             1194                4   3.16537800E+01   3.92593803E+01   3.92593803E+01   6.46026945E+00   8.89109230E+00   3.92593803E+01   3.92593803E+01   8.89109230E+00   6.46026945E+00   3.27991104E+01  -1.82035809E+01   3.14427586E+01   9.44882679E+00   3.62708244E+01   8.89109230E+00   9.43877792E+00
             1195                1   2.26499481E+01   1.47912235E+01   1.47912235E+01  -1.82364330E-01  -1.12660828E+01   1.47912235E+01   1.47912235E+01  -1.82364330E-01  -1.12660828E+01   2.60573063E+01  -1.11425877E+00   1.43644819E+01   2.98672050E-01   1.43101873E+01  -1.12660828E+01   2.64034843E+00
             1195                2   2.22470722E+01   1.43771076E+01   1.43771076E+01   2.31752604E-01  -1.12660828E+01   1.43771076E+01   1.43771076E+01   2.31752604E-01  -1.12660828E+01   2.56431904E+01  -1.11425912E+00   1.25066319E+01   6.93017840E-01   1.39158421E+01  -1.12660828E+01   2.51236868E+00
             1195                3   2.26464310E+01   1.47876759E+01   1.47876759E+01  -1.78815559E-01  -1.12660828E+01   1.47876759E+01   1.47876759E+01  -1.78815559E-01  -1.12660828E+01   2.60537586E+01  -1.11425912E+00   1.43501253E+01   1.66498810E-01   1.44423609E+01  -1.12660828E+01   2.24697733E+00
             1195                4   2.22433949E+01   1.43732500E+01   1.43732500E+01   2.35609546E-01  -1.12660828E+01   1.43732500E+01   1.43732500E+01   2.35609546E-01  -1.12660828E+01   2.56393337E+01  -1.11425912E+00   1.24871750E+01   5.60538411E-01   1.40483217E+01  -1.12660828E+01   2.11852479E+00
             1196                1   1.14184410E+02   1.34756851E+02   1.34756851E+02   2.06007900E+01   2.05441055E+01   1.34756851E+02   1.34756851E+02   2.06007900E+01   2.05441055E+01   1.14212738E+02  -5.86339111E+01   1.14184387E+02   2.06073933E+01   1.34750244E+02   2.05441055E+01   8.68115485E-01
             1196                2   1.14395088E+02   1.34897293E+02   1.34897293E+02   2.04603462E+01   2.05441055E+01   1.34897293E+02   1.34897293E+02   2.05441055E+01   2.04603462E+01   1.14436943E+02  -5.86339111E+01   1.14395027E+02   2.04673424E+01   1.34890289E+02   2.05441055E+01   8.95041883E-01
             1196                3   1.14146866E+02   1.34731812E+02   1.34731812E+02   2.06258259E+01   2.05441055E+01   1.34731812E+02   1.34731812E+02   2.06258259E+01   2.05441055E+01   1.14187706E+02  -5.86339111E+01   1.14146797E+02   2.06347275E+01   1.34722900E+02   2.05441055E+01   1.00798619E+00
             1196                4   1.14357658E+02   1.34872345E+02   1.34872345E+02   2.04852924E+01   2.05441055E+01   1.34872345E+02   1.34872345E+02   2.05441055E+01   2.04852924E+01   1.14387054E+02  -5.86339111E+01   1.14357620E+02   2.04946518E+01   1.34862976E+02   2.05441055E+01   1.03491354E+00
             1197                1   2.32821465E+01   1.49203920E+01   1.49203920E+01  -6.33280277E-01  -1.18464632E+01   1.49203920E+01   1.49203920E+01  -6.33280277E-01  -1.18464632E+01   2.67668552E+01  -8.13549340E-01   1.51660233E+01   6.94797814E-01   1.35923138E+01  -1.18464632E+01   4.34657288E+00
             1197                2   2.28400555E+01   1.44703865E+01   1.44703865E+01  -1.83274120E-01  -1.18464632E+01   1.44703865E+01   1.44703865E+01  -1.83274120E-01  -1.18464632E+01   2.63168488E+01  -8.13549697E-01   1.32509031E+01   1.15597618E+00   1.31311359E+01  -1.18464632E+01   4.22271585E+00
             1197                3   2.31484585E+01   1.47862053E+01   1.47862053E+01  -4.99094367E-01  -1.18464632E+01   1.47862053E+01   1.47862053E+01  -4.99094367E-01  -1.18464632E+01   2.66326694E+01  -8.13549340E-01   1.46351748E+01   5.62648118E-01   1.37244635E+01  -1.18464632E+01   3.88609719E+00
             1197                4   2.27034664E+01   1.43274851E+01   1.43274851E+01  -4.03742306E-02  -1.18464632E+01   1.43274851E+01   1.43274851E+01  -4.03742306E-02  -1.18464632E+01   2.61739483E+01  -8.13549340E-01   1.25407333E+01   1.02409506E+00   1.32630167E+01  -1.18464632E+01   3.76311636E+00
             1198                1   2.02442535E+02   2.27129776E+02   2.27129776E+02   4.14737892E+00   5.48757973E+01   2.27129776E+02   2.27129776E+02   5.48757973E+01   4.14737892E+00   2.22982407E+02  -9.53843155E+01   1.87324905E+02   1.23497419E+01   2.18927414E+02   5.48757973E+01   4.19726677E+01
             1198                2   2.03610443E+02   2.27328491E+02   2.27328491E+02   1.80565095E+00   5.70188103E+01   2.27328491E+02   2.27328491E+02   5.70188103E+01   1.80565095E+00   2.25522842E+02  -9.53843155E+01   1.85615356E+02   1.12801647E+01   2.17853973E+02   5.70188103E+01   4.52432671E+01
             1198                3   2.01630402E+02   2.26892395E+02   2.26892395E+02   5.52994490E+00   5.37306328E+01   2.26892395E+02   2.26892395E+02   5.37306328E+01   5.52994490E+00   2.21362442E+02  -9.53843155E+01   1.88000778E+02   1.63872471E+01   2.16035080E+02   5.37306328E+01   4.78071022E+01
             1198                4   2.02820007E+02   2.27099899E+02   2.27099899E+02   3.06449533E+00   5.59885635E+01   2.27099899E+02   2.27099899E+02   5.59885635E+01   3.06449533E+00   2.24035400E+02  -9.53843155E+01   1.86310989E+02   1.53283958E+01   2.14835999E+02   5.59885635E+01   5.09621964E+01
             1199                1   3.41998405E+01   3.98701172E+01   3.98701172E+01   4.85644770E+00   6.54679441E+00   3.98701172E+01   3.98701172E+01   6.54679441E+00   4.85644770E+00   3.50136719E+01  -1.70911198E+01   3.41056633E+01   7.50592422E+00   3.72206421E+01   6.54679441E+00   9.26003075E+00
             1199                2   3.40933647E+01   3.98007545E+01   3.98007545E+01   4.92581177E+00   6.54679441E+00   3.98007545E+01   3.98007545E+01   6.54679441E+00   4.92581177E+00   3.48749428E+01  -1.70911198E+01   3.40065002E+01   7.47289705E+00   3.72536697E+01   6.54679441E+00   9.07423782E+00
             1199                3   3.44751740E+01   4.00492134E+01   4.00492134E+01   4.67735386E+00   6.54679441E+00   4.00492134E+01   4.00492134E+01   6.54679441E+00   4.67735386E+00   3.53718605E+01  -1.70911198E+01   3.43608551E+01   7.31704617E+00   3.74095192E+01   6.54679441E+00   9.29531479E+00
             1199                4   3.43695717E+01   3.99805679E+01   3.99805679E+01   4.74599886E+00   6.54679441E+00   3.99805679E+01   3.99805679E+01   6.54679441E+00   4.74599886E+00   3.52345695E+01  -1.70911198E+01   3.42631874E+01   7.28396225E+00   3.74426041E+01   6.54679441E+00   9.10948849E+00
             1200                1   3.12315216E+01   3.96468773E+01   3.96468773E+01   7.69615746E+00   9.18802071E+00   3.96468773E+01   3.96468773E+01   9.18802071E+00   7.69615746E+00   3.19507179E+01  -1.88436832E+01   3.11512032E+01   1.01615953E+01   3.71814384E+01   9.18802071E+00   8.52608395E+00
             1200                2   3.11678600E+01   3.96053772E+01   3.96053772E+01   7.73765516E+00   9.18802071E+00   3.96053772E+01   3.96053772E+01   9.18802071E+00   7.73765516E+00   3.18677235E+01  -1.88436832E+01   3.10918007E+01   1.00857248E+01   3.72573090E+01   9.18802071E+00   8.32551384E+00
             1200                3   3.15577965E+01   3.98591957E+01   3.98591957E+01   7.48383665E+00   9.18802071E+00   3.98591957E+01   3.98591957E+01   9.18802071E+00   7.48383665E+00   3.23753586E+01  -1.88436832E+01   3.14540195E+01   9.95943832E+00   3.73835945E+01   9.18802071E+00   8.60348129E+00
             1200                4   3.14947376E+01   3.98182068E+01   3.98182068E+01   7.52482605E+00   9.18802071E+00   3.98182068E+01   3.98182068E+01   9.18802071E+00   7.52482605E+00   3.22933807E+01  -1.88436832E+01   3.13957043E+01   9.88364792E+00   3.74593849E+01   9.18802071E+00   8.40299320E+00
             1201                1   2.49914761E+01   1.86371193E+01   1.86371193E+01  -4.48069461E-02  -9.75149918E+00   1.86371193E+01   1.86371193E+01  -4.48069461E-02  -9.75149918E+00   2.83886185E+01  -2.94693756E+00   2.00391293E+01   2.35825345E-01   1.83564873E+01  -9.75149918E+00   2.27243996E+00
             1201                2   2.46132298E+01   1.82961178E+01   1.82961178E+01   2.96194524E-01  -9.75149918E+00   1.82961178E+01   1.82961178E+01   2.96194524E-01  -9.75149918E+00   2.80476170E+01  -2.94693756E+00   1.91064034E+01   5.56554496E-01   1.80357571E+01  -9.75149918E+00   2.14911079E+00
             1201                3   2.50465851E+01   1.86861897E+01   1.86861897E+01  -9.38781127E-02  -9.75149918E+00   1.86861897E+01   1.86861897E+01  -9.38781127E-02  -9.75149918E+00   2.84376888E+01  -2.94693756E+00   2.01690788E+01   1.11221686E-01   1.84810905E+01  -9.75149918E+00   1.95184922E+00
             1201                4   2.46692638E+01   1.83471127E+01   1.83471127E+01   2.45201305E-01  -9.75149918E+00   1.83471127E+01   1.83471127E+01   2.45201305E-01  -9.75149918E+00   2.80986118E+01  -2.94693828E+00   1.92494164E+01   4.31744933E-01   1.81605682E+01  -9.75149918E+00   1.82811606E+00
             1202                1   2.83672180E+01   4.13658524E+01   4.13658524E+01   1.30662813E+01   1.29314661E+01   4.13658524E+01   4.13658524E+01   1.30662813E+01   1.29314661E+01   2.84343853E+01  -2.24545345E+01   2.83664951E+01   1.30721292E+01   4.13600044E+01   1.29314661E+01   4.06742066E-01
             1202                2   2.83705559E+01   4.13680840E+01   4.13680840E+01   1.30640535E+01   1.29314661E+01   4.13680840E+01   4.13680840E+01   1.30640535E+01   1.29314661E+01   2.84366169E+01  -2.24545345E+01   2.83698578E+01   1.30645657E+01   4.13675690E+01   1.29314661E+01   1.20505020E-01
             1202                3   2.88000412E+01   4.16543541E+01   4.16543541E+01   1.27777767E+01   1.29314661E+01   4.16543541E+01   4.16543541E+01   1.29314661E+01   1.27777767E+01   2.88765793E+01  -2.24545345E+01   2.87991161E+01   1.27837563E+01   4.16483765E+01   1.29314661E+01   4.15486395E-01
             1202                4   2.88043118E+01   4.16571960E+01   4.16571960E+01   1.27749405E+01   1.29314661E+01   4.16571960E+01   4.16571960E+01   1.29314661E+01   1.27749405E+01   2.88822556E+01  -2.24545345E+01   2.88033543E+01   1.27755299E+01   4.16566048E+01   1.29314661E+01   1.30579278E-01
             1203                1   1.53851334E+02   1.64879440E+02   1.64879440E+02   1.03446817E+01   1.17207708E+01   1.64879440E+02   1.64879440E+02   1.17207708E+01   1.03446817E+01   1.54534760E+02  -6.23149605E+01   1.53837494E+02   1.03836231E+01   1.64840500E+02   1.17207708E+01   2.45275784E+00
             1203                2   1.52277069E+02   1.63832825E+02   1.63832825E+02   1.13912783E+01   1.17207708E+01   1.63832825E+02   1.63832825E+02   1.17207708E+01   1.13912783E+01   1.52441544E+02  -6.23149567E+01   1.52276276E+02   1.14496803E+01   1.63774429E+02   1.17207708E+01   2.98311424E+00
             1203                3   1.53028580E+02   1.64332886E+02   1.64332886E+02   1.08912134E+01   1.17207708E+01   1.64332886E+02   1.64332886E+02   1.17207708E+01   1.08912134E+01   1.53441681E+02  -6.23149567E+01   1.53023544E+02   1.09036932E+01   1.64320419E+02   1.17207708E+01   1.38339257E+00
             1203                4   1.51446793E+02   1.63279404E+02   1.63279404E+02   1.19447031E+01   1.17207708E+01   1.63279404E+02   1.63279404E+02   1.19447031E+01   1.17207708E+01   1.51558640E+02  -6.23149567E+01   1.51446426E+02   1.19688902E+01   1.63255219E+02   1.17207708E+01   1.91295433E+00
             1204                1   1.94097443E+02   1.87885544E+02   1.87885544E+02  -6.86747026E+00  -5.54961395E+00   1.87885544E+02   1.87885544E+02  -5.54961395E+00  -6.86747026E+00   1.94753006E+02  -5.84894829E+01   1.94087372E+02  -6.81436586E+00   1.87832428E+02  -5.54961395E+00   3.21563244E+00
             1204                2   1.93344284E+02   1.87384811E+02   1.87384811E+02  -6.36725712E+00  -5.54908562E+00   1.87384811E+02   1.87384811E+02  -5.54908562E+00  -6.36725712E+00   1.93752060E+02  -5.84894867E+01   1.93340378E+02  -6.30258608E+00   1.87320129E+02  -5.54908562E+00   3.53932428E+00
             1204                3   1.93586349E+02   1.87545807E+02   1.87545807E+02  -6.52821970E+00  -5.54913712E+00   1.87545807E+02   1.87545807E+02  -5.54913712E+00  -6.52821970E+00   1.94074036E+02  -5.84894867E+01   1.93580765E+02  -6.49100351E+00   1.87508591E+02  -5.54913712E+00   2.68747211E+00
             1204                4   1.92818298E+02   1.87034729E+02   1.87034729E+02  -6.01767492E+00  -5.54859829E+00   1.87034729E+02   1.87034729E+02  -5.54859829E+00  -6.01767492E+00   1.93052414E+02  -5.84894867E+01   1.92817017E+02  -5.97084045E+00   1.86987900E+02  -5.54859829E+00   3.00654292E+00
             1205                1   3.47103462E+01   3.62004929E+01   3.62004929E+01   3.38418126E-01   2.76971912E+00   3.62004929E+01   3.62004929E+01   2.76971912E+00   3.38418126E-01   3.58620720E+01  -1.31028757E+01   3.45179863E+01   6.61071241E-01   3.58778381E+01   2.76971912E+00   3.38628459E+00
             1205                2   3.49509506E+01   3.63556099E+01   3.63556099E+01   1.83300093E-01   2.76971912E+00   3.63556099E+01   3.63556099E+01   2.76971912E+00   1.83300093E-01   3.61723099E+01  -1.31028757E+01   3.47346573E+01   5.27628839E-01   3.60112801E+01   2.76971912E+00   3.51235533E+00
             1205                3   3.45559959E+01   3.61008415E+01   3.61008415E+01   4.38069433E-01   2.76971912E+00   3.61008415E+01   3.61008415E+01   2.76971912E+00   4.38069433E-01   3.56627693E+01  -1.31028757E+01   3.43783417E+01   7.88698912E-01   3.57502098E+01   2.76971912E+00   3.51873827E+00
             1205                4   3.47975655E+01   3.62567558E+01   3.62567558E+01   2.82155424E-01   2.76971912E+00   3.62567558E+01   3.62567558E+01   2.76971912E+00   2.82155424E-01   3.59745979E+01  -1.31028757E+01   3.45966721E+01   6.55325949E-01   3.58835831E+01   2.76971912E+00   3.64491916E+00
             1206                1   3.04060593E+01   3.88495903E+01   3.88495903E+01   7.07093859E+00   1.00329132E+01   3.88495903E+01   3.88495903E+01   1.00329132E+01   7.07093859E+00   3.17786522E+01  -1.86511478E+01   3.00789127E+01   1.06408434E+01   3.52796860E+01   1.00329132E+01   1.00350647E+01
             1206                2   3.01888905E+01   3.87109566E+01   3.87109566E+01   7.20957661E+00   1.00329132E+01   3.87109566E+01   3.87109566E+01   1.00329132E+01   7.20957661E+00   3.15013790E+01  -1.86511478E+01   2.98896961E+01   1.06421843E+01   3.52783470E+01   1.00329132E+01   9.81575775E+00
             1206                3   3.06763039E+01   3.90218048E+01   3.90218048E+01   6.89872408E+00   1.00329132E+01   3.90218048E+01   3.90218048E+01   1.00329132E+01   6.89872408E+00   3.21230812E+01  -1.86511478E+01   3.03129482E+01   1.04191599E+01   3.55013695E+01   1.00329132E+01   1.00346279E+01
             1206                4   3.04607563E+01   3.88844719E+01   3.88844719E+01   7.03605556E+00   1.00329132E+01   3.88844719E+01   3.88844719E+01   1.00329132E+01   7.03605556E+00   3.18484173E+01  -1.86511478E+01   3.01264076E+01   1.04203234E+01   3.55002060E+01   1.00329132E+01   9.81479931E+00
             1207                1   6.26562881E+01   5.83809929E+01   5.83809929E+01  -3.86351156E+00  -4.67910957E+00   5.83809929E+01   5.83809929E+01  -3.86351156E+00  -4.67910957E+00   6.30601044E+01  -1.66127911E+01   6.26443405E+01  -2.65512180E+00   5.71726036E+01  -4.67910957E+00   8.58810043E+00
             1207                2   6.29900208E+01   5.86047478E+01   5.86047478E+01  -4.08726549E+00  -4.67910957E+00   5.86047478E+01   5.86047478E+01  -4.08726549E+00  -4.67910957E+00   6.32838593E+01  -1.66127911E+01   6.29837685E+01  -2.92884326E+00   5.74463272E+01  -4.67910957E+00   8.44285583E+00
             1207                3   6.29763489E+01   5.85955887E+01   5.85955887E+01  -4.07810593E+00  -4.67910957E+00   5.85955887E+01   5.85955887E+01  -4.07810593E+00  -4.67910957E+00   6.32747002E+01  -1.66127911E+01   6.29698982E+01  -2.79875159E+00   5.73162346E+01  -4.67910957E+00   8.86256790E+00
             1207                4   6.33083572E+01   5.88177948E+01   5.88177948E+01  -4.30031347E+00  -4.67910957E+00   5.88177948E+01   5.88177948E+01  -4.30031347E+00  -4.67910957E+00   6.34969063E+01  -1.66127911E+01   6.33058090E+01  -3.07246828E+00   5.75899506E+01  -4.67910957E+00   8.71732140E+00
             1208                1   5.76270790E+01   5.38256989E+01   5.38256989E+01  -3.20238590E+00  -4.38224936E+00   5.38256989E+01   5.38256989E+01  -3.20238590E+00  -4.38224936E+00   5.82079506E+01  -1.54136887E+01   5.75998878E+01  -1.58075023E+00   5.22040634E+01  -4.38224936E+00   9.47887707E+00
             1208                2   5.79921074E+01   5.40713272E+01   5.40713272E+01  -3.44801497E+00  -4.38224936E+00   5.40713272E+01   5.40713272E+01  -3.44801497E+00  -4.38224936E+00   5.84535789E+01  -1.54136887E+01   5.79751663E+01  -1.88463748E+00   5.25079498E+01  -4.38224936E+00   9.35309505E+00
             1208                3   5.79474144E+01   5.40412865E+01   5.40412865E+01  -3.41797185E+00  -4.38224936E+00   5.40412865E+01   5.40412865E+01  -3.41797185E+00  -4.38224936E+00   5.84235344E+01  -1.54136887E+01   5.79293556E+01  -1.70100427E+00   5.23243179E+01  -4.38224936E+00   9.78303242E+00
             1208                4   5.83087769E+01   5.42839737E+01   5.42839737E+01  -3.66065860E+00  -4.38224936E+00   5.42839737E+01   5.42839737E+01  -3.66065860E+00  -4.38224936E+00   5.86662216E+01  -1.54136887E+01   5.82987251E+01  -2.00418544E+00   5.26274986E+01  -4.38224936E+00   9.65607929E+00
             1209                1   1.14111893E+02   1.32491928E+02   1.32491928E+02   1.82927914E+01   1.84674644E+01   1.32491928E+02   1.32491928E+02   1.84674644E+01   1.82927914E+01   1.14199135E+02  -5.64173927E+01   1.14111595E+02   1.84061146E+01   1.32378601E+02   1.84674644E+01   3.59561491E+00
             1209                2   1.14314987E+02   1.32627182E+02   1.32627182E+02   1.81575375E+01   1.84674644E+01   1.32627182E+02   1.32627182E+02   1.84674644E+01   1.81575375E+01   1.14469643E+02  -5.64173927E+01   1.14314041E+02   1.82749214E+01   1.32509796E+02   1.84674644E+01   3.66370463E+00
             1209                3   1.14020126E+02   1.32430786E+02   1.32430786E+02   1.83539314E+01   1.84674644E+01   1.32430786E+02   1.32430786E+02   1.84674644E+01   1.83539314E+01   1.14076851E+02  -5.64173927E+01   1.14019997E+02   1.84757385E+01   1.32308975E+02   1.84674644E+01   3.72565389E+00
             1209                4   1.14223541E+02   1.32566284E+02   1.32566284E+02   1.82184410E+01   1.84674644E+01   1.32566284E+02   1.32566284E+02   1.84674644E+01   1.82184410E+01   1.14347847E+02  -5.64174004E+01   1.14222916E+02   1.83444443E+01   1.32440277E+02   1.84674644E+01   3.79378486E+00
             1210                1   1.22170837E+02   1.50134399E+02   1.50134399E+02   2.78123932E+01   2.81152897E+01   1.50134399E+02   1.50134399E+02   2.81152897E+01   2.78123932E+01   1.22322006E+02  -6.86873627E+01   1.22169991E+02   2.78346882E+01   1.50112106E+02   2.81152897E+01   1.65119720E+00
             1210                2   1.21922646E+02   1.49969086E+02   1.49969086E+02   2.79777069E+01   2.81152897E+01   1.49969086E+02   1.49969086E+02   2.81152897E+01   2.79777069E+01   1.21991379E+02  -6.86873627E+01   1.21922478E+02   2.80056057E+01   1.49941193E+02   2.81152897E+01   1.84457648E+00
             1210                3   1.21876350E+02   1.49938232E+02   1.49938232E+02   2.80085545E+01   2.81152897E+01   1.49938232E+02   1.49938232E+02   2.81152897E+01   2.80085545E+01   1.21929680E+02  -6.86873627E+01   1.21876228E+02   2.80264835E+01   1.49920303E+02   2.81152897E+01   1.47847521E+00
             1210                4   1.21627426E+02   1.49772308E+02   1.49772308E+02   2.81744900E+01   2.81152897E+01   1.49772308E+02   1.49772308E+02   2.81744900E+01   2.81152897E+01   1.21657013E+02  -6.86873627E+01   1.21627396E+02   2.81974850E+01   1.49749313E+02   2.81152897E+01   1.67191923E+00
             1211                1   2.94089985E+01   3.86570587E+01   3.86570587E+01   7.61059380E+00   1.12184238E+01   3.86570587E+01   3.86570587E+01   1.12184238E+01   7.61059380E+00   3.10464668E+01  -1.91620255E+01   2.89048290E+01   1.16582117E+01   3.46094437E+01   1.12184238E+01   1.04537554E+01
             1211                2   2.91425896E+01   3.84886703E+01   3.84886703E+01   7.77898645E+00   1.12184238E+01   3.84886703E+01   3.84886703E+01   1.12184238E+01   7.77898645E+00   3.07096844E+01  -1.91620274E+01   2.86806278E+01   1.16805258E+01   3.45871315E+01   1.12184238E+01   1.02270746E+01
             1211                3   2.96548252E+01   3.88121758E+01   3.88121758E+01   7.45547819E+00   1.12184238E+01   3.88121758E+01   3.88121758E+01   1.12184238E+01   7.45547819E+00   3.13566971E+01  -1.91620255E+01   2.91104355E+01   1.14301043E+01   3.48375511E+01   1.12184238E+01   1.04323282E+01
             1211                4   2.93905373E+01   3.86454048E+01   3.86454048E+01   7.62225485E+00   1.12184238E+01   3.86454048E+01   3.86454048E+01   1.12184238E+01   7.62225485E+00   3.10231495E+01  -1.91620274E+01   2.88893356E+01   1.14522924E+01   3.48153648E+01   1.12184238E+01   1.02054234E+01
             1212                1   2.17057755E+02   1.90758682E+02   1.90758682E+02  -3.73170967E+01  -1.32799988E+01   1.90758682E+02   1.90758682E+02  -1.32799988E+01  -3.73170967E+01   2.28075775E+02  -4.67205315E+01   2.14032669E+02  -3.73003883E+01   1.90741974E+02  -1.32799988E+01   1.95226049E+00
             1212                2   2.16724030E+02   1.90774597E+02   1.90774597E+02  -3.49374199E+01  -1.56755962E+01   1.90774597E+02   1.90774597E+02  -1.56755962E+01  -3.49374199E+01   2.25712006E+02  -4.67205238E+01   2.14785583E+02  -3.49006462E+01   1.90737823E+02  -1.56755962E+01  -2.88057423E+00
             1212                3   2.17479599E+02   1.90765717E+02   1.90765717E+02  -3.95858841E+01  -1.10182562E+01   1.90765717E+02   1.90765717E+02  -1.10182562E+01  -3.95858841E+01   2.30351608E+02  -4.67205315E+01   2.13196976E+02  -3.95483017E+01   1.90728134E+02  -1.10182562E+01  -2.94235229E+00
             1212                4   2.17164902E+02   1.90825974E+02   1.90825974E+02  -3.73909492E+01  -1.32734499E+01   1.90825974E+02   1.90825974E+02  -1.32734499E+01  -3.73909492E+01   2.28216919E+02  -4.67205238E+01   2.14120880E+02  -3.71309814E+01   1.90566010E+02  -1.32734499E+01  -7.69814205E+00
             1213                1   1.94209244E+02   1.81950378E+02   1.81950378E+02  -1.29257793E+01  -1.15850239E+01   1.81950378E+02   1.81950378E+02  -1.15850239E+01  -1.29257793E+01   1.94876160E+02  -5.24798584E+01   1.94198837E+02  -1.28905582E+01   1.81915161E+02  -1.15850239E+01   2.61943698E+00
             1213                2   1.93741318E+02   1.81640030E+02   1.81640030E+02  -1.24718618E+01  -1.17285795E+01   1.81640030E+02   1.81640030E+02  -1.17285795E+01  -1.24718618E+01   1.94111893E+02  -5.24798622E+01   1.93738113E+02  -1.24143705E+01   1.81582535E+02  -1.17285795E+01   3.34020805E+00
             1213                3   1.93778503E+02   1.81665054E+02   1.81665054E+02  -1.24160957E+01  -1.18093777E+01   1.81665054E+02   1.81665054E+02  -1.18093777E+01  -1.24160957E+01   1.94081161E+02  -5.24798622E+01   1.93776367E+02  -1.23956776E+01   1.81644638E+02  -1.18093777E+01   1.99068499E+00
             1213                4   1.93306335E+02   1.81350754E+02   1.81350754E+02  -1.19571810E+01  -1.19540033E+01   1.81350754E+02   1.81350754E+02  -1.19540033E+01  -1.19571810E+01   1.93307938E+02  -5.24798546E+01   1.93306351E+02  -1.19190474E+01   1.81312622E+02  -1.19540033E+01   2.71462488E+00
             1214                1   2.83154526E+01   3.83172112E+01   3.83172112E+01   8.80789757E+00   1.13697195E+01   3.83172112E+01   3.83172112E+01   1.13697195E+01   8.80789757E+00   2.95093117E+01  -1.94982758E+01   2.80529423E+01   1.20506220E+01   3.50744858E+01   1.13697195E+01   9.22904587E+00
             1214                2   2.81861286E+01   3.82344398E+01   3.82344398E+01   8.89066887E+00   1.13697195E+01   3.82344398E+01   3.82344398E+01   1.13697195E+01   8.89066887E+00   2.93437691E+01  -1.94982758E+01   2.79392700E+01   1.20014458E+01   3.51236610E+01   1.13697195E+01   9.03354836E+00
             1214                3   2.86045094E+01   3.85019073E+01   3.85019073E+01   8.62320042E+00   1.13697195E+01   3.85019073E+01   3.85019073E+01   1.13697195E+01   8.62320042E+00   2.98787060E+01  -1.94982758E+01   2.83055763E+01   1.18543015E+01   3.52708054E+01   1.13697195E+01   9.27906799E+00
             1214                4   2.84763832E+01   3.84200897E+01   3.84200897E+01   8.70501614E+00   1.13697195E+01   3.84200897E+01   3.84200897E+01   1.13697195E+01   8.70501614E+00   2.97150745E+01  -1.94982758E+01   2.81938381E+01   1.18050823E+01   3.53200264E+01   1.13697195E+01   9.08340549E+00
             1215                1   1.51751404E+02   1.62736267E+02   1.62736267E+02   1.05423965E+01   1.14312382E+01   1.62736267E+02   1.62736267E+02   1.14312382E+01   1.05423965E+01   1.52193878E+02  -6.15699730E+01   1.51745544E+02   1.05586128E+01   1.62720062E+02   1.14312382E+01   1.57070172E+00
             1215                2   1.50207825E+02   1.61708481E+02   1.61708481E+02   1.15701828E+01   1.14312382E+01   1.61708481E+02   1.61708481E+02   1.15701828E+01   1.14312382E+01   1.50277252E+02  -6.15699730E+01   1.50207672E+02   1.15943804E+01   1.61684296E+02   1.14312382E+01   1.90567911E+00
             1215                3   1.51233978E+02   1.62392136E+02   1.62392136E+02   1.08865547E+01   1.14312382E+01   1.62392136E+02   1.62392136E+02   1.14312382E+01   1.08865547E+01   1.51505585E+02  -6.15699768E+01   1.51231766E+02   1.08884420E+01   1.62390244E+02   1.14312382E+01   5.34929812E-01
             1215                4   1.49685883E+02   1.61360168E+02   1.61360168E+02   1.19185238E+01   1.14312382E+01   1.61360168E+02   1.61360168E+02   1.19185238E+01   1.14312382E+01   1.49928925E+02  -6.15699768E+01   1.49684082E+02   1.19235821E+01   1.61355103E+02   1.14312382E+01   8.69617641E-01
             1216                1   5.66683540E+01   5.05966225E+01   5.05966225E+01  -4.80149174E+00  -7.26182699E+00   5.05966225E+01   5.05966225E+01  -4.80149174E+00  -7.26182699E+00   5.78584518E+01  -1.28444357E+01   5.65479965E+01  -1.66266942E+00   4.74578018E+01  -7.26182699E+00   1.28075209E+01
             1216                2   5.60765915E+01   5.01922226E+01   5.01922226E+01  -4.39709187E+00  -7.26182699E+00   5.01922226E+01   5.01922226E+01  -4.39709187E+00  -7.26182699E+00   5.74540520E+01  -1.28444357E+01   5.59115982E+01  -1.16191459E+00   4.69570465E+01  -7.26182699E+00   1.28895197E+01
             1216                3   5.62614861E+01   5.03187599E+01   5.03187599E+01  -4.52362823E+00  -7.26182699E+00   5.03187599E+01   5.03187599E+01  -4.52362823E+00  -7.26182699E+00   5.75805855E+01  -1.28444357E+01   5.61112709E+01  -1.62864649E+00   4.74237785E+01  -7.26182699E+00   1.22632284E+01
             1216                4   5.56627388E+01   4.99083748E+01   4.99083748E+01  -4.11324453E+00  -7.26182699E+00   4.99083748E+01   4.99083748E+01  -4.11324453E+00  -7.26182699E+00   5.71702042E+01  -1.28444357E+01   5.54618530E+01  -1.12600243E+00   4.69211349E+01  -7.26182699E+00   1.23471460E+01
             1217                1   1.13730988E+02   1.32112106E+02   1.32112106E+02   1.83379707E+01   1.84243107E+01   1.32112106E+02   1.32112106E+02   1.84243107E+01   1.83379707E+01   1.13774132E+02  -5.62914619E+01   1.13730904E+02   1.83454132E+01   1.32104660E+02   1.84243107E+01   9.20122445E-01
             1217                2   1.13704651E+02   1.32094559E+02   1.32094559E+02   1.83555202E+01   1.84243107E+01   1.32094559E+02   1.32094559E+02   1.84243107E+01   1.83555202E+01   1.13739029E+02  -5.62914619E+01   1.13704605E+02   1.83655434E+01   1.32084534E+02   1.84243107E+01   1.06742942E+00
             1217                3   1.13509331E+02   1.31964340E+02   1.31964340E+02   1.84857292E+01   1.84243107E+01   1.31964340E+02   1.31964340E+02   1.84857292E+01   1.84243107E+01   1.13540031E+02  -5.62914619E+01   1.13509293E+02   1.84928780E+01   1.31957199E+02   1.84243107E+01   9.00364578E-01
             1217                4   1.13482903E+02   1.31946716E+02   1.31946716E+02   1.85033588E+01   1.84243107E+01   1.31946716E+02   1.31946716E+02   1.85033588E+01   1.84243107E+01   1.13522408E+02  -5.62914619E+01   1.13482841E+02   1.85130367E+01   1.31937042E+02   1.84243107E+01   1.04766130E+00
             1218                1   1.06314789E+02   1.11483269E+02   1.11483269E+02   4.85033178E+00   5.48951054E+00   1.11483269E+02   1.11483269E+02   5.48951054E+00   4.85033178E+00   1.06632942E+02  -4.06077042E+01   1.06310471E+02   6.83207893E+00   1.09501526E+02   5.48951054E+00   1.44011106E+01
             1218                2   1.06241699E+02   1.11434685E+02   1.11434685E+02   4.89892578E+00   5.48951054E+00   1.11434685E+02   1.11434685E+02   5.48951054E+00   4.89892578E+00   1.06535759E+02  -4.06077080E+01   1.06238007E+02   6.79485083E+00   1.09538757E+02   5.48951054E+00   1.40850811E+01
             1218                3   1.06773979E+02   1.11788269E+02   1.11788269E+02   4.54533911E+00   5.48951054E+00   1.11788269E+02   1.11788269E+02   5.48951054E+00   4.54533911E+00   1.07242935E+02  -4.06077080E+01   1.06764587E+02   6.52907658E+00   1.09804535E+02   5.48951054E+00   1.44501381E+01
             1218                4   1.06700661E+02   1.11739601E+02   1.11739601E+02   4.59400272E+00   5.48951054E+00   1.11739601E+02   1.11739601E+02   5.48951054E+00   4.59400272E+00   1.07145599E+02  -4.06077042E+01   1.06692207E+02   6.49135160E+00   1.09842255E+02   5.48951054E+00   1.41312523E+01
             1219                1   3.41970596E+01   4.28475990E+01   4.28475990E+01   8.54056072E+00   8.76159096E+00   4.28475990E+01   4.28475990E+01   8.76159096E+00   8.54056072E+00   3.43070412E+01  -2.00499172E+01   3.41954536E+01   9.35690022E+00   4.20312614E+01   8.76159096E+00   5.22874355E+00
             1219                2   3.42193108E+01   4.28623848E+01   4.28623848E+01   8.52577686E+00   8.76159096E+00   4.28623848E+01   4.28623848E+01   8.76159096E+00   8.52577686E+00   3.43366089E+01  -2.00499172E+01   3.42174835E+01   9.26971531E+00   4.21184464E+01   8.76159096E+00   4.99908590E+00
             1219                3   3.45719528E+01   4.30962906E+01   4.30962906E+01   8.29187393E+00   8.76159096E+00   4.30962906E+01   4.30962906E+01   8.76159096E+00   8.29187393E+00   3.48044167E+01  -2.00499191E+01   3.45647697E+01   9.12477398E+00   4.22633896E+01   8.76159096E+00   5.31929588E+00
             1219                4   3.45939636E+01   4.31108627E+01   4.31108627E+01   8.27729702E+00   8.76159096E+00   4.31108627E+01   4.31108627E+01   8.76159096E+00   8.27729702E+00   3.48335686E+01  -2.00499172E+01   3.45863342E+01   9.03762436E+00   4.23505363E+01   8.76159096E+00   5.08987427E+00
             1220                1   4.02163773E+01   3.73143005E+01   3.73143005E+01  -9.95230198E-01  -4.57022333E+00   3.73143005E+01   3.73143005E+01  -9.95230198E-01  -4.57022333E+00   4.18845215E+01  -1.05829487E+01   3.98565292E+01   5.34344792E-01   3.57847252E+01  -4.57022333E+00   7.50051069E+00
             1220                2   4.06225662E+01   3.75979080E+01   3.75979080E+01  -1.27883399E+00  -4.57022333E+00   3.75979080E+01   3.75979080E+01  -1.27883399E+00  -4.57022333E+00   4.21681290E+01  -1.05829496E+01   4.03209305E+01   2.35331401E-01   3.60837402E+01  -4.57022333E+00   7.52151299E+00
             1220                3   4.03535881E+01   3.74102516E+01   3.74102516E+01  -1.09117866E+00  -4.57022333E+00   3.74102516E+01   3.74102516E+01  -1.09117866E+00  -4.57022333E+00   4.19804764E+01  -1.05829496E+01   4.00140877E+01   5.61296761E-01   3.57577744E+01  -4.57022333E+00   7.80333567E+00
             1220                4   4.07577133E+01   3.76919823E+01   3.76919823E+01  -1.37290847E+00  -4.57022333E+00   3.76919823E+01   3.76919823E+01  -1.37290847E+00  -4.57022333E+00   4.22622032E+01  -1.05829496E+01   4.04741135E+01   2.61798054E-01   3.60572739E+01  -4.57022333E+00   7.82223701E+00
             1221                1   6.83060455E+01   6.41668015E+01   6.41668015E+01  -4.06750631E+00  -4.21076012E+00   6.41668015E+01   6.41668015E+01  -4.06750631E+00  -4.21076012E+00   6.83775635E+01  -1.86295109E+01   6.83057098E+01  -3.99569631E+00   6.40949936E+01  -4.21076012E+00   2.21240067E+00
             1221                2   6.83865814E+01   6.42205353E+01   6.42205353E+01  -4.12123871E+00  -4.21076012E+00   6.42205353E+01   6.42205353E+01  -4.12123871E+00  -4.21076012E+00   6.84312973E+01  -1.86295109E+01   6.83864517E+01  -4.06129360E+00   6.41605911E+01  -4.21076012E+00   2.02313876E+00
             1221                3   6.85957489E+01   6.43600006E+01   6.43600006E+01  -4.26070642E+00  -4.21076012E+00   6.43600006E+01   6.43600006E+01  -4.21076012E+00  -4.26070642E+00   6.86207123E+01  -1.86295109E+01   6.85957108E+01  -4.18495178E+00   6.42842484E+01  -4.21076012E+00   2.27872944E+00
             1221                4   6.86759338E+01   6.44134293E+01   6.44134293E+01  -4.31413460E+00  -4.21076012E+00   6.44134293E+01   6.44134293E+01  -4.21076012E+00  -4.31413460E+00   6.87275620E+01  -1.86295109E+01   6.86757660E+01  -4.25054836E+00   6.43498459E+01  -4.21076012E+00   2.08950090E+00
             1222                1   9.83403091E+01   9.64763718E+01   9.64763718E+01  -1.87289846E+00  -1.85497618E+00   9.64763718E+01   9.64763718E+01  -1.85497618E+00  -1.87289846E+00   9.83492661E+01  -3.09161663E+01   9.83403015E+01  -9.27882552E-01   9.55313492E+01  -1.85497618E+00   9.59421062E+00
             1222                2   9.82170105E+01   9.63941574E+01   9.63941574E+01  -1.79069066E+00  -1.85497618E+00   9.63941574E+01   9.63941574E+01  -1.79069066E+00  -1.85497618E+00   9.82491379E+01  -3.09161663E+01   9.82169571E+01  -8.96095932E-01   9.54995651E+01  -1.85497618E+00   9.32927704E+00
             1222                3   9.87158737E+01   9.67265625E+01   9.67265625E+01  -2.12309480E+00  -1.85497618E+00   9.67265625E+01   9.67265625E+01  -1.85497618E+00  -2.12309480E+00   9.88496628E+01  -3.09161663E+01   9.87150497E+01  -1.18911541E+00   9.57925873E+01  -1.85497618E+00   9.56300354E+00
             1222                4   9.85928650E+01   9.66446533E+01   9.66446533E+01  -2.04118299E+00  -1.85497618E+00   9.66446533E+01   9.66446533E+01  -1.85497618E+00  -2.04118299E+00   9.86858368E+01  -3.09161663E+01   9.85924683E+01  -1.15721929E+00   9.57606888E+01  -1.85497618E+00   9.29802895E+00
             1223                1   2.15863617E+02   2.18564133E+02   2.18564133E+02  -8.76188278E+00   1.63615093E+01   2.18564133E+02   2.18564133E+02   1.63615093E+01  -8.76188278E+00   2.27326019E+02  -7.53879166E+01   2.12537079E+02  -8.69210434E+00   2.18494354E+02   1.63615093E+01  -3.98206067E+00
             1223                2   2.16212646E+02   2.18626358E+02   2.18626358E+02  -1.01847792E+01   1.77221851E+01   2.18626358E+02   2.18626358E+02   1.77221851E+01  -1.01847792E+01   2.28811127E+02  -7.53879166E+01   2.12103973E+02  -9.90243912E+00   2.18344009E+02   1.77221851E+01  -8.03267097E+00
             1223                3   2.16332748E+02   2.18664124E+02   2.18664124E+02  -1.05295296E+01   1.80291519E+01   2.18664124E+02   2.18664124E+02   1.80291519E+01  -1.05295296E+01   2.29193649E+02  -7.53879166E+01   2.12029510E+02  -1.05238905E+01   2.18658493E+02   1.80291519E+01  -1.13634944E+00
             1223                4   2.16580994E+02   2.18652634E+02   2.18652634E+02  -1.18069696E+01   1.93181038E+01   2.18652634E+02   2.18652634E+02   1.93181038E+01  -1.18069696E+01   2.30459595E+02  -7.53879166E+01   2.11461380E+02  -1.16877003E+01   2.18533356E+02   1.93181038E+01  -5.24146891E+00
             1224                1   3.53897896E+01   4.44459152E+01   4.44459152E+01   9.11394501E+00   8.99858952E+00   4.44459152E+01   4.44459152E+01   9.11394501E+00   8.99858952E+00   3.54473267E+01  -2.08528156E+01   3.53893661E+01   9.17297459E+00   4.43868866E+01   8.99858952E+00   1.44295216E+00
             1224                2   3.54004364E+01   4.44530220E+01   4.44530220E+01   9.10683727E+00   8.99858952E+00   4.44530220E+01   4.44530220E+01   9.10683727E+00   8.99858952E+00   3.54544334E+01  -2.08528156E+01   3.54000626E+01   9.14648628E+00   4.44133720E+01   8.99858952E+00   1.18319368E+00
             1224                3   3.57896156E+01   4.47124023E+01   4.47124023E+01   8.84745884E+00   8.99858952E+00   4.47124023E+01   4.47124023E+01   8.99858952E+00   8.84745884E+00   3.58649406E+01  -2.08528156E+01   3.57888985E+01   8.90811348E+00   4.46517487E+01   8.99858952E+00   1.47363961E+00
             1224                4   3.58051682E+01   4.47227478E+01   4.47227478E+01   8.83711243E+00   8.99858952E+00   4.47227478E+01   4.47227478E+01   8.99858952E+00   8.83711243E+00   3.58856354E+01  -2.08528156E+01   3.58043518E+01   8.87829304E+00   4.46815681E+01   8.99858952E+00   1.21493328E+00
             1225                1   1.42097275E+02   1.58871338E+02   1.58871338E+02   1.69748421E+01   1.65741272E+01   1.58871338E+02   1.58871338E+02   1.69748421E+01   1.65741272E+01   1.42297211E+02  -6.41400986E+01   1.42096008E+02   1.69799671E+01   1.58866211E+02   1.65741272E+01   8.52547944E-01
             1225                2   1.41896790E+02   1.58737457E+02   1.58737457E+02   1.71087189E+01   1.65741272E+01   1.58737457E+02   1.58737457E+02   1.71087189E+01   1.65741272E+01   1.42163330E+02  -6.41400986E+01   1.41894531E+02   1.71087189E+01   1.58737457E+02   1.65741272E+01  -6.49130298E-03
             1225                3   1.43383911E+02   1.59729019E+02   1.59729019E+02   1.61171741E+01   1.65741272E+01   1.59729019E+02   1.59729019E+02   1.65741272E+01   1.61171741E+01   1.43611847E+02  -6.41401062E+01   1.43382278E+02   1.61208019E+01   1.59725388E+02   1.65741272E+01   7.22032845E-01
             1225                4   1.43184952E+02   1.59596558E+02   1.59596558E+02   1.62496243E+01   1.65741272E+01   1.59596558E+02   1.59596558E+02   1.65741272E+01   1.62496243E+01   1.43346924E+02  -6.41400986E+01   1.43184128E+02   1.62497578E+01   1.59596420E+02   1.65741272E+01  -1.36887759E-01
             1226                1   2.08691311E+01   1.26242704E+01   1.26242704E+01  -1.42147228E-01  -1.14587851E+01   1.26242704E+01   1.26242704E+01  -1.42147228E-01  -1.14587851E+01   2.40830555E+01  -3.41112763E-01   9.81524086E+00  -1.03569463E-01   1.25856924E+01  -1.14587851E+01   7.00726151E-01
             1226                2   2.07882462E+01   1.25356789E+01   1.25356789E+01  -5.35554402E-02  -1.14587851E+01   1.25356789E+01   1.25356789E+01  -5.35554402E-02  -1.14587851E+01   2.39944630E+01  -3.41112763E-01   9.15243912E+00   3.70908268E-02   1.24450321E+01  -1.14587851E+01   1.06440389E+00
             1226                3   2.05312939E+01   1.22479868E+01   1.22479868E+01   2.34136373E-01  -1.14587851E+01   1.22479868E+01   1.22479868E+01   2.34136373E-01  -1.14587851E+01   2.37067719E+01  -3.41112763E-01   5.87623644E+00   2.60470986E-01   1.22216520E+01  -1.14587851E+01   5.61863780E-01
             1226                4   2.04492321E+01   1.21539431E+01   1.21539431E+01   3.28180254E-01  -1.14587851E+01   1.21539431E+01   1.21539431E+01   3.28180254E-01  -1.14587851E+01   2.36127281E+01  -3.41112763E-01   2.89789844E+00   4.01028097E-01   1.20810957E+01  -1.14587851E+01   9.25294399E-01
             1227                1   9.86991959E+01   9.62543030E+01   9.62543030E+01  -2.44744205E+00  -2.44233751E+00   9.62543030E+01   9.62543030E+01  -2.44233751E+00  -2.44744205E+00   9.87017441E+01  -3.04548416E+01   9.86991959E+01  -2.39695859E+00   9.62038193E+01  -2.44233751E+00   2.23167682E+00
             1227                2   9.86350861E+01   9.62115631E+01   9.62115631E+01  -2.40470147E+00  -2.44233751E+00   9.62115631E+01   9.62115631E+01  -2.40470147E+00  -2.44233751E+00   9.86539001E+01  -3.04548416E+01   9.86350708E+01  -2.35672522E+00   9.61635895E+01  -2.44233751E+00   2.17455626E+00
             1227                3   9.87820129E+01   9.63095093E+01   9.63095093E+01  -2.50264668E+00  -2.44233751E+00   9.63095093E+01   9.63095093E+01  -2.44233751E+00  -2.50264668E+00   9.88121567E+01  -3.04548416E+01   9.87819748E+01  -2.45401716E+00   9.62608795E+01  -2.44233751E+00   2.19152498E+00
             1227                4   9.87179413E+01   9.62667999E+01   9.62667999E+01  -2.45993781E+00  -2.44233751E+00   9.62667999E+01   9.62667999E+01  -2.44233751E+00  -2.45993781E+00   9.87267380E+01  -3.04548416E+01   9.87179337E+01  -2.41377330E+00   9.62206345E+01  -2.44233751E+00   2.13438725E+00
             1228                1   3.88533974E+01   3.54698753E+01   3.54698753E+01  -9.90950942E-01  -5.39994478E+00   3.54698753E+01   3.54698753E+01  -9.90950942E-01  -5.39994478E+00   4.08698196E+01  -9.69299316E+00   3.82845154E+01   4.54254746E-01   3.40246696E+01  -5.39994478E+00   7.11370182E+00
             1228                2   3.92935982E+01   3.57817039E+01   3.57817039E+01  -1.30277669E+00  -5.39994478E+00   3.57817039E+01   3.57817039E+01  -1.30277669E+00  -5.39994478E+00   4.11816483E+01  -9.69299412E+00   3.88086586E+01   1.32911578E-01   3.43460159E+01  -5.39994478E+00   7.15405893E+00
             1228                3   3.89792633E+01   3.55592155E+01   3.55592155E+01  -1.08028841E+00  -5.39994478E+00   3.55592155E+01   3.55592155E+01  -1.08028841E+00  -5.39994478E+00   4.09591599E+01  -9.69299412E+00   3.84352341E+01   5.01310349E-01   3.39776154E+01  -5.39994478E+00   7.44631481E+00
             1228                4   3.94171867E+01   3.58689384E+01   3.58689384E+01  -1.39000952E+00  -5.39994478E+00   3.58689384E+01   3.58689384E+01  -1.39000952E+00  -5.39994478E+00   4.12688828E+01  -9.69299412E+00   3.89543343E+01   1.78385913E-01   3.43005409E+01  -5.39994478E+00   7.48177290E+00
             1229                1   8.12191467E+01   7.53942719E+01   7.53942719E+01  -5.73759794E+00  -5.91185951E+00   7.53942719E+01   7.53942719E+01  -5.73759794E+00  -5.91185951E+00   8.13061371E+01  -2.12482738E+01   8.12187195E+01  -5.55619383E+00   7.52128677E+01  -5.91185951E+00   3.83210325E+00
             1229                2   8.13760376E+01   7.54989471E+01   7.54989471E+01  -5.84227371E+00  -5.91185951E+00   7.54989471E+01   7.54989471E+01  -5.84227371E+00  -5.91185951E+00   8.14108124E+01  -2.12482738E+01   8.13759689E+01  -5.67500973E+00   7.53316879E+01  -5.91185951E+00   3.68475246E+00
             1229                3   8.14556808E+01   7.55520554E+01   7.55520554E+01  -5.89538622E+00  -5.91185951E+00   7.55520554E+01   7.55520554E+01  -5.89538622E+00  -5.91185951E+00   8.14639130E+01  -2.12482700E+01   8.14556732E+01  -5.70322275E+00   7.53598938E+01  -5.91185951E+00   3.95147586E+00
             1229                4   8.16121063E+01   7.56563187E+01   7.56563187E+01  -5.99964380E+00  -5.91185951E+00   7.56563187E+01   7.56563187E+01  -5.91185951E+00  -5.99964380E+00   8.16559677E+01  -2.12482738E+01   8.16119995E+01  -5.82203817E+00   7.54787140E+01  -5.91185951E+00   3.80409527E+00
             1230                1   1.03069283E+02   1.03934586E+02   1.03934586E+02   8.38442922E-01   8.92176986E-01   1.03934586E+02   1.03934586E+02   8.92176986E-01   8.38442922E-01   1.03096138E+02  -3.52217331E+01   1.03069260E+02   1.29781723E+00   1.03475212E+02   8.92176986E-01   6.86646223E+00
             1230                2   1.03052773E+02   1.03923576E+02   1.03923576E+02   8.49449277E-01   8.92176986E-01   1.03923576E+02   1.03923576E+02   8.92176986E-01   8.49449277E-01   1.03074127E+02  -3.52217331E+01   1.03052750E+02   1.28845751E+00   1.03484566E+02   8.92176986E-01   6.71251774E+00
             1230                3   1.03298317E+02   1.04087181E+02   1.04087181E+02   6.85847640E-01   8.92176986E-01   1.04087181E+02   1.04087181E+02   8.92176986E-01   6.85847640E-01   1.03401329E+02  -3.52217331E+01   1.03297859E+02   1.14534259E+00   1.03627686E+02   8.92176986E-01   6.87757111E+00
             1230                4   1.03281830E+02   1.04076195E+02   1.04076195E+02   6.96830392E-01   8.92176986E-01   1.04076195E+02   1.04076195E+02   8.92176986E-01   6.96830392E-01   1.03379364E+02  -3.52217331E+01   1.03281418E+02   1.13597345E+00   1.03637054E+02   8.92176986E-01   6.72348404E+00
             1231                1   7.57945709E+01   7.01804581E+01   7.01804581E+01  -5.46624088E+00  -5.76112127E+00   7.01804581E+01   7.01804581E+01  -5.46624088E+00  -5.76112127E+00   7.59415817E+01  -1.96510334E+01   7.57932739E+01  -5.07463312E+00   6.97888489E+01  -5.76112127E+00   5.42868948E+00
             1231                2   7.60184326E+01   7.03299179E+01   7.03299179E+01  -5.61570644E+00  -5.76112127E+00   7.03299179E+01   7.03299179E+01  -5.61570644E+00  -5.76112127E+00   7.60910416E+01  -1.96510296E+01   7.60181198E+01  -5.24834538E+00   6.99625549E+01  -5.76112127E+00   5.26921034E+00
             1231                3   7.60681076E+01   7.03630600E+01   7.03630600E+01  -5.64884138E+00  -5.76112127E+00   7.03630600E+01   7.03630600E+01  -5.64884138E+00  -5.76112127E+00   7.61241837E+01  -1.96510334E+01   7.60679169E+01  -5.23327923E+00   6.99474945E+01  -5.76112127E+00   5.60492468E+00
             1231                4   7.62911530E+01   7.05117950E+01   7.05117950E+01  -5.79758453E+00  -5.76112127E+00   7.05117950E+01   7.05117950E+01  -5.76112127E+00  -5.79758453E+00   7.63093796E+01  -1.96510296E+01   7.62911301E+01  -5.40699816E+00   7.01212082E+01  -5.76112127E+00   5.44544744E+00
             1232                1   1.70706665E+02   1.75273743E+02   1.75273743E+02   2.76462579E+00   6.42852497E+00   1.75273743E+02   1.75273743E+02   6.42852497E+00   2.76462579E+00   1.72509125E+02  -6.14889679E+01   1.70618164E+02   2.86712599E+00   1.75171249E+02   6.42852497E+00   4.20378304E+00
             1232                2   1.68553238E+02   1.73850342E+02   1.73850342E+02   4.18803358E+00   6.42852497E+00   1.73850342E+02   1.73850342E+02   6.42852497E+00   4.18803358E+00   1.69662308E+02  -6.14889679E+01   1.68519714E+02   4.36194754E+00   1.73676422E+02   6.42852497E+00   5.42931557E+00
             1232                3   1.68790100E+02   1.74007187E+02   1.74007187E+02   4.03118992E+00   6.42852497E+00   1.74007187E+02   1.74007187E+02   6.42852497E+00   4.03118992E+00   1.69975998E+02  -6.14889679E+01   1.68751785E+02   4.07368946E+00   1.73964691E+02   6.42852497E+00   2.68725061E+00
             1232                4   1.66617859E+02   1.72566177E+02   1.72566177E+02   5.47220421E+00   6.42852497E+00   1.72566177E+02   1.72566177E+02   6.42852497E+00   5.47220421E+00   1.67093964E+02  -6.14889679E+01   1.66611694E+02   5.56373453E+00   1.72474640E+02   6.42852497E+00   3.90973902E+00
             1233                1   2.50699482E+01   1.68129082E+01   1.68129082E+01  -1.01885808E+00  -1.18519840E+01   1.68129082E+01   1.68129082E+01  -1.01885808E+00  -1.18519840E+01   2.86648922E+01  -1.31402206E+00   1.85920334E+01   1.21522164E+00   1.45788288E+01  -1.18519840E+01   5.90309000E+00
             1233                2   2.46113720E+01   1.63763371E+01   1.63763371E+01  -5.82287669E-01  -1.18519840E+01   1.63763371E+01   1.63763371E+01  -5.82287669E-01  -1.18519840E+01   2.82283211E+01  -1.31402206E+00   1.71868496E+01   1.70371103E+00   1.40903387E+01  -1.18519840E+01   5.79151201E+00
             1233                3   2.48510818E+01   1.66062717E+01   1.66062717E+01  -8.12220871E-01  -1.18519840E+01   1.66062717E+01   1.66062717E+01  -8.12220871E-01  -1.18519840E+01   2.84582558E+01  -1.31402206E+00   1.79455738E+01   1.07647371E+00   1.47175760E+01  -1.18519840E+01   5.41581488E+00
             1233                4   2.43825188E+01   1.61530113E+01   1.61530113E+01  -3.58960390E-01  -1.18519840E+01   1.61530113E+01   1.61530113E+01  -3.58960390E-01  -1.18519840E+01   2.80049953E+01  -1.31402206E+00   1.64019127E+01   1.56219554E+00   1.42318544E+01  -1.18519840E+01   5.29445314E+00
             1234                1   2.12700714E+02   2.11746338E+02   2.11746338E+02  -1.10754728E+01   1.08680000E+01   2.11746338E+02   2.11746338E+02   1.08680000E+01  -1.10754728E+01   2.22821808E+02  -7.05129547E+01   2.10131500E+02  -1.09688702E+01   2.11639740E+02   1.08680000E+01  -4.87254095E+00
             1234                2   2.13967712E+02   2.12401550E+02   2.12401550E+02  -1.31375608E+01   1.22748766E+01   2.12401550E+02   2.12401550E+02   1.22748766E+01  -1.31375608E+01   2.25539108E+02  -7.05129547E+01   2.10532425E+02  -1.28612928E+01   2.12125290E+02   1.22748766E+01  -7.88872004E+00
             1234                3   2.13972809E+02   2.12405167E+02   2.12405167E+02  -1.31375961E+01   1.22712975E+01   2.12405167E+02   2.12405167E+02   1.22712975E+01  -1.31375961E+01   2.25542770E+02  -7.05129623E+01   2.10538544E+02  -1.31090145E+01   2.12376587E+02   1.22712975E+01  -2.53904748E+00
             1234                4   2.14769318E+02   2.12777512E+02   2.12777512E+02  -1.46152058E+01   1.33765678E+01   2.12777512E+02   2.12777512E+02   1.33765678E+01  -1.46152058E+01   2.27392715E+02  -7.05129623E+01   2.10606689E+02  -1.44573965E+01   2.12619705E+02   1.33765678E+01  -5.98828077E+00
             1235                1   1.19278008E+02   1.47138107E+02   1.47138107E+02   2.78682594E+01   2.78519287E+01   1.47138107E+02   1.47138107E+02   2.78682594E+01   2.78519287E+01   1.19286179E+02  -6.76194305E+01   1.19278008E+02   2.78734150E+01   1.47132950E+02   2.78519287E+01   7.84007490E-01
             1235                2   1.19165245E+02   1.47062912E+02   1.47062912E+02   2.79434490E+01   2.78519287E+01   1.47062912E+02   1.47062912E+02   2.79434490E+01   2.78519287E+01   1.19210983E+02  -6.76194305E+01   1.19165161E+02   2.79476871E+01   1.47058670E+02   2.78519287E+01   7.10641384E-01
             1235                3   1.19386307E+02   1.47210297E+02   1.47210297E+02   2.77960739E+01   2.78519287E+01   1.47210297E+02   1.47210297E+02   2.78519287E+01   2.77960739E+01   1.19414230E+02  -6.76194382E+01   1.19386276E+02   2.78002853E+01   1.47206085E+02   2.78519287E+01   7.09388852E-01
             1235                4   1.19273590E+02   1.47135162E+02   1.47135162E+02   2.78712063E+01   2.78519287E+01   1.47135162E+02   1.47135162E+02   2.78712063E+01   2.78519287E+01   1.19283226E+02  -6.76194305E+01   1.19273575E+02   2.78745975E+01   1.47131760E+02   2.78519287E+01   6.36075079E-01
             1236                1   5.31862144E+01   5.38883247E+01   5.38883247E+01   7.62885630E-01   6.41540051E-01   5.38883247E+01   5.38883247E+01   7.62885630E-01   6.41540051E-01   5.32467842E+01  -1.84309177E+01   5.31859055E+01   7.85381317E-01   5.38658295E+01   6.41540051E-01   1.09297216E+00
             1236                2   5.32140770E+01   5.39069214E+01   5.39069214E+01   7.44290948E-01   6.41540051E-01   5.39069214E+01   5.39069214E+01   7.44290948E-01   6.41540051E-01   5.32653809E+01  -1.84309177E+01   5.32138557E+01   7.58590937E-01   5.38926201E+01   6.41540051E-01   8.71785104E-01
             1236                3   5.35201912E+01   5.41109962E+01   5.41109962E+01   5.40215373E-01   6.41540051E-01   5.41109962E+01   5.41109962E+01   6.41540051E-01   5.40215373E-01   5.35707817E+01  -1.84309177E+01   5.35199738E+01   5.63640654E-01   5.40875702E+01   6.41540051E-01   1.11998105E+00
             1236                4   5.35479851E+01   5.41295090E+01   5.41295090E+01   5.21703482E-01   6.41540051E-01   5.41295090E+01   5.41295090E+01   6.41540051E-01   5.21703482E-01   5.36078033E+01  -1.84309177E+01   5.35476837E+01   5.36778927E-01   5.41144333E+01   6.41540051E-01   8.98808181E-01
             1237                1   3.57913361E+01   3.48363190E+01   3.48363190E+01   1.70484662E-01  -1.98325181E+00   3.48363190E+01   3.48363190E+01   1.70484662E-01  -1.98325181E+00   3.68195724E+01  -1.10078506E+01   3.56451073E+01   9.86814439E-01   3.40199928E+01  -1.98325181E+00   5.25664330E+00
             1237                2   3.60748062E+01   3.50311127E+01   3.50311127E+01  -2.43081506E-02  -1.98325181E+00   3.50311127E+01   3.50311127E+01  -2.43081506E-02  -1.98325181E+00   3.70143661E+01  -1.10078506E+01   3.59548492E+01   7.97211230E-01   3.42095947E+01  -1.98325181E+00   5.30318737E+00
             1237                3   3.58082428E+01   3.48479576E+01   3.48479576E+01   1.58849239E-01  -1.98325181E+00   3.48479576E+01   3.48479576E+01   1.58849239E-01  -1.98325181E+00   3.68312073E+01  -1.10078506E+01   3.56636620E+01   1.03619945E+00   3.39706078E+01  -1.98325181E+00   5.44653034E+00
             1237                4   3.60914803E+01   3.50425529E+01   3.50425529E+01  -3.57461981E-02  -1.98325181E+00   3.50425529E+01   3.50425529E+01  -3.57461981E-02  -1.98325181E+00   3.70258026E+01  -1.10078506E+01   3.59729767E+01   8.46592247E-01   3.41602135E+01  -1.98325181E+00   5.49294090E+00
             1238                1   9.47180481E+01   9.06931534E+01   9.06931534E+01  -3.99481797E+00  -4.05494070E+00   9.06931534E+01   9.06931534E+01  -3.99481797E+00  -4.05494070E+00   9.47480927E+01  -2.75477982E+01   9.47180023E+01  -3.94906831E+00   9.06473999E+01  -4.05494070E+00   2.08087802E+00
             1238                2   9.48007812E+01   9.07483139E+01   9.07483139E+01  -4.04998779E+00  -4.05494070E+00   9.07483139E+01   9.07483139E+01  -4.04998779E+00  -4.05494070E+00   9.48032532E+01  -2.75477962E+01   9.48007736E+01  -4.00752211E+00   9.07058487E+01  -4.05494070E+00   2.00595212E+00
             1238                3   9.48343582E+01   9.07706985E+01   9.07706985E+01  -4.07237387E+00  -4.05494070E+00   9.07706985E+01   9.07706985E+01  -4.05494070E+00  -4.07237387E+00   9.48430710E+01  -2.75477962E+01   9.48343582E+01  -4.02408266E+00   9.07224121E+01  -4.05494070E+00   2.13948989E+00
             1238                4   9.49170074E+01   9.08257904E+01   9.08257904E+01  -4.12746143E+00  -4.05494070E+00   9.08257904E+01   9.08257904E+01  -4.05494070E+00  -4.12746143E+00   9.49532471E+01  -2.75477962E+01   9.49169464E+01  -4.08254671E+00   9.07808762E+01  -4.05494070E+00   2.06457186E+00
             1239                1   2.19892212E+02   2.15891144E+02   2.15891144E+02  -2.20420856E+01   2.01559410E+01   2.15891144E+02   2.15891144E+02   2.01559410E+01  -2.20420856E+01   2.37933228E+02  -7.13349991E+01   2.10491379E+02  -2.20419502E+01   2.15891006E+02   2.01559410E+01  -1.81766033E-01
             1239                2   2.20000000E+02   2.15593552E+02   2.15593552E+02  -2.37166901E+01   2.21281490E+01   2.15593552E+02   2.15593552E+02   2.21281490E+01  -2.37166901E+01   2.39310242E+02  -7.13349991E+01   2.08843170E+02  -2.35993519E+01   2.15476212E+02   2.21281490E+01  -5.29780245E+00
             1239                3   2.20000000E+02   2.15485016E+02   2.15485016E+02  -2.41689148E+01   2.26889000E+01   2.15485016E+02   2.15485016E+02   2.26889000E+01  -2.41689148E+01   2.39653931E+02  -7.13349991E+01   2.08323959E+02  -2.41402683E+01   2.15456375E+02   2.26889000E+01   2.61978269E+00
             1239                4   2.20000000E+02   2.15133179E+02   2.15133179E+02  -2.55620365E+01   2.44338627E+01   2.15133179E+02   2.15133179E+02   2.44338627E+01  -2.55620365E+01   2.40695206E+02  -7.13349991E+01   2.06630142E+02  -2.55426903E+01   2.15113831E+02   2.44338627E+01  -2.15757632E+00
             1240                1   8.38405304E+01   7.83286972E+01   7.83286972E+01  -5.10273600E+00  -5.91503572E+00   7.83286972E+01   7.83286972E+01  -5.10273600E+00  -5.91503572E+00   8.42437286E+01  -2.24369736E+01   8.38316803E+01  -2.72702003E+00   7.59529800E+01  -5.91503572E+00   1.38767920E+01
             1240                2   8.44935455E+01   7.87655945E+01   7.87655945E+01  -5.53962517E+00  -5.91503572E+00   7.87655945E+01   7.87655945E+01  -5.53962517E+00  -5.91503572E+00   8.46806259E+01  -2.24369755E+01   8.44916763E+01  -3.21950769E+00   7.64454727E+01  -5.91503572E+00   1.37918539E+01
             1240                3   8.41969757E+01   7.85673141E+01   7.85673141E+01  -5.34135532E+00  -5.91503572E+00   7.85673141E+01   7.85673141E+01  -5.34135532E+00  -5.91503572E+00   8.44823532E+01  -2.24369736E+01   8.41925812E+01  -2.80155301E+00   7.60275116E+01  -5.91503572E+00   1.43757057E+01
             1240                4   8.48459549E+01   7.90008926E+01   7.90008926E+01  -5.77493000E+00  -5.91503572E+00   7.90008926E+01   7.90008926E+01  -5.77493000E+00  -5.91503572E+00   8.49159241E+01  -2.24369736E+01   8.48457031E+01  -3.29365253E+00   7.65196152E+01  -5.91503572E+00   1.42896938E+01
             1241                1   1.62254745E+02   1.66771759E+02   1.66771759E+02   3.70693398E+00   5.33943844E+00   1.66771759E+02   1.66771759E+02   5.33943844E+00   3.70693398E+00   1.63064835E+02  -5.86060448E+01   1.62236267E+02   3.73487139E+00   1.66743820E+02   5.33943844E+00   2.13447642E+00
             1241                2   1.60434845E+02   1.65562332E+02   1.65562332E+02   4.91635704E+00   5.33943844E+00   1.65562332E+02   1.65562332E+02   5.33943844E+00   4.91635704E+00   1.60645966E+02  -5.86060371E+01   1.60433594E+02   4.96335077E+00   1.65515335E+02   5.33943844E+00   2.74714112E+00
             1241                3   1.61312698E+02   1.66146271E+02   1.66146271E+02   4.33242273E+00   5.33943844E+00   1.66146271E+02   1.66146271E+02   5.33943844E+00   4.33242273E+00   1.61813858E+02  -5.86060448E+01   1.61305634E+02   4.33744383E+00   1.66141251E+02   5.33943844E+00   9.01764452E-01
             1241                4   1.59482651E+02   1.64927734E+02   1.64927734E+02   5.55095768E+00   5.33943844E+00   1.64927734E+02   1.64927734E+02   5.55095768E+00   5.33943844E+00   1.59588303E+02  -5.86060448E+01   1.59482346E+02   5.56533813E+00   1.64913361E+02   5.33943844E+00   1.51383686E+00
             1242                1   4.03928452E+01   4.69654770E+01   4.69654770E+01   6.50520086E+00   6.64040470E+00   4.69654770E+01   4.69654770E+01   6.64040470E+00   6.50520086E+00   4.04602737E+01  -2.00370274E+01   4.03923340E+01   6.51800013E+00   4.69526749E+01   6.64040470E+00   7.19556630E-01
             1242                2   4.03797989E+01   4.69567909E+01   4.69567909E+01   6.51388073E+00   6.64040470E+00   4.69567909E+01   4.69567909E+01   6.64040470E+00   6.51388073E+00   4.04429131E+01  -2.00370255E+01   4.03793526E+01   6.53704262E+00   4.69336319E+01   6.64040470E+00   9.67537344E-01
             1242                3   4.00175400E+01   4.67153053E+01   4.67153053E+01   6.75536871E+00   6.64040470E+00   4.67153053E+01   4.67153053E+01   6.75536871E+00   6.64040470E+00   4.00748978E+01  -2.00370255E+01   4.00171700E+01   6.76763296E+00   4.67030411E+01   6.64040470E+00   6.99909091E-01
             1242                4   4.00046692E+01   4.67067108E+01   4.67067108E+01   6.76396513E+00   6.64040470E+00   4.67067108E+01   4.67067108E+01   6.76396513E+00   6.64040470E+00   4.00663071E+01  -2.00370274E+01   4.00042419E+01   6.78647852E+00   4.66841965E+01   6.64040470E+00   9.48050022E-01
             1243                1   5.30356598E+01   5.67873192E+01   5.67873192E+01  -2.47437739E+00   1.37841196E+01   5.67873192E+01   5.67873192E+01   1.37841196E+01  -2.47437739E+00   5.92616959E+01  -2.26990204E+01   4.69172440E+01  -1.86840379E+00   5.61813469E+01   1.37841196E+01   5.96186066E+00
             1243                2   4.95921402E+01   5.47279587E+01   5.47279587E+01  -4.15015846E-01   1.37841196E+01   5.47279587E+01   5.47279587E+01   1.37841196E+01  -4.15015846E-01   5.51429749E+01  -2.26990204E+01   4.46638565E+01   3.43074769E-01   5.39698677E+01   1.37841196E+01   6.42095566E+00
             1243                3   5.16862640E+01   5.59815178E+01   5.59815178E+01  -1.66857576E+00   1.37841196E+01   5.59815178E+01   5.59815178E+01   1.37841196E+01  -1.66857576E+00   5.76500931E+01  -2.26990204E+01   4.60425797E+01  -1.42060459E+00   5.57335472E+01   1.37841196E+01   3.77280569E+00
             1243                4   4.81680565E+01   5.38731461E+01   5.38731461E+01   4.39796388E-01   1.37841196E+01   5.38731461E+01   5.38731461E+01   1.37841196E+01   4.39796388E-01   5.34333496E+01  -2.26990204E+01   4.37104111E+01   7.78547168E-01   5.35343971E+01   1.37841196E+01   4.24096012E+00
             1244                1   3.35869255E+01   4.37697945E+01   4.37697945E+01   1.01129017E+01   1.02532768E+01   4.37697945E+01   4.37697945E+01   1.02532768E+01   1.01129017E+01   3.36568947E+01  -2.13786564E+01   3.35862694E+01   1.01179962E+01   4.37647018E+01   1.02532768E+01   4.14040238E-01
             1244                2   3.31829834E+01   4.35005226E+01   4.35005226E+01   1.03821754E+01   1.02532768E+01   4.35005226E+01   4.35005226E+01   1.03821754E+01   1.02532768E+01   3.32472458E+01  -2.13786564E+01   3.31824265E+01   1.03871613E+01   4.34955368E+01   1.02532768E+01   4.06332761E-01
             1244                3   3.35895615E+01   4.37715492E+01   4.37715492E+01   1.01111479E+01   1.02532768E+01   4.37715492E+01   4.37715492E+01   1.02532768E+01   1.01111479E+01   3.36604004E+01  -2.13786564E+01   3.35888901E+01   1.01117744E+01   4.37709236E+01   1.02532768E+01   1.45173132E-01
             1244                4   3.31864243E+01   4.35028191E+01   4.35028191E+01   1.03798780E+01   1.02532768E+01   4.35028191E+01   4.35028191E+01   1.03798780E+01   1.02532768E+01   3.32495422E+01  -2.13786564E+01   3.31858826E+01   1.03804522E+01   4.35022469E+01   1.02532768E+01   1.37769803E-01
             1245                1   3.08085632E+01   4.24348984E+01   4.24348984E+01   1.16930914E+01   1.15600119E+01   4.24348984E+01   4.24348984E+01   1.16930914E+01   1.15600119E+01   3.08748875E+01  -2.18960018E+01   3.08079128E+01   1.16985073E+01   4.24294815E+01   1.15600119E+01   4.08032089E-01
             1245                2   3.08102512E+01   4.24360275E+01   4.24360275E+01   1.16919632E+01   1.15600119E+01   4.24360275E+01   4.24360275E+01   1.16919632E+01   1.15600119E+01   3.08760147E+01  -2.18960018E+01   3.08096142E+01   1.16925116E+01   4.24354782E+01   1.15600119E+01   1.29929900E-01
             1245                3   3.12272587E+01   4.27140045E+01   4.27140045E+01   1.14139872E+01   1.15600119E+01   4.27140045E+01   4.27140045E+01   1.15600119E+01   1.14139872E+01   3.13000164E+01  -2.18960018E+01   3.12264900E+01   1.14194870E+01   4.27085037E+01   1.15600119E+01   4.14851278E-01
             1245                4   3.12301579E+01   4.27159309E+01   4.27159309E+01   1.14120598E+01   1.15600119E+01   4.27159309E+01   4.27159309E+01   1.15600119E+01   1.14120598E+01   3.13038712E+01  -2.18960018E+01   3.12293682E+01   1.14126635E+01   4.27153282E+01   1.15600119E+01   1.37334451E-01
             1246                1   5.09633942E+01   5.14506226E+01   5.14506226E+01   5.83645046E-01   3.91353965E-01   5.14506226E+01   5.14506226E+01   5.83645046E-01   3.91353965E-01   5.10592690E+01  -1.74752064E+01   5.09625778E+01   1.20185113E+00   5.08324165E+01   3.91353965E-01   5.57351637E+00
             1246                2   5.12987099E+01   5.16743393E+01   5.16743393E+01   3.59923273E-01   3.91353965E-01   5.16743393E+01   5.16743393E+01   3.91353965E-01   3.59923273E-01   5.13144188E+01  -1.74752064E+01   5.12986870E+01   1.00552452E+00   5.10287399E+01   3.91353965E-01   5.71942377E+00
             1246                3   5.08153877E+01   5.13517151E+01   5.13517151E+01   6.82550132E-01   3.91353965E-01   5.13517151E+01   5.13517151E+01   6.82550132E-01   3.91353965E-01   5.09603577E+01  -1.74752064E+01   5.08135109E+01   1.34825289E+00   5.06860123E+01   3.91353965E-01   5.76952028E+00
             1246                4   5.11518707E+01   5.15764313E+01   5.15764313E+01   4.57834333E-01   3.91353965E-01   5.15764313E+01   5.15764313E+01   4.57834333E-01   3.91353965E-01   5.11850777E+01  -1.74752064E+01   5.11517754E+01   1.15176630E+00   5.08824997E+01   3.91353965E-01   5.91534948E+00
             1247                1   1.92513199E+02   1.74960999E+02   1.74960999E+02  -2.01404324E+01  -1.48551197E+01   1.74960999E+02   1.74960999E+02  -1.48551197E+01  -2.01404324E+01   1.95101440E+02  -4.66551514E+01   1.92349854E+02  -2.01189613E+01   1.74939529E+02  -1.48551197E+01  -2.04674459E+00
             1247                2   1.90948135E+02   1.73946014E+02   1.73946014E+02  -1.82178650E+01  -1.57626991E+01   1.73946014E+02   1.73946014E+02  -1.57626991E+01  -1.82178650E+01   1.92163879E+02  -4.66551514E+01   1.90912613E+02  -1.82166977E+01   1.73944855E+02  -1.57626991E+01  -4.72184598E-01
             1247                3   1.91693527E+02   1.74431030E+02   1.74431030E+02  -1.91808968E+01  -1.52846823E+01   1.74431030E+02   1.74431030E+02  -1.52846823E+01  -1.91808968E+01   1.93611938E+02  -4.66551514E+01   1.91604401E+02  -1.90583687E+01   1.74308502E+02  -1.52846823E+01  -4.86916876E+00
             1247                4   1.89674133E+02   1.73103241E+02   1.73103241E+02  -1.70706196E+01  -1.60671711E+01   1.73103241E+02   1.73103241E+02  -1.60671711E+01  -1.70706196E+01   1.90173859E+02  -4.66551514E+01   1.89668152E+02  -1.70128193E+01   1.73045441E+02  -1.60671711E+01  -3.31496692E+00
             1248                1   4.16554031E+01   3.45167236E+01   3.45167236E+01  -3.06168413E+00  -1.02738237E+01   3.45167236E+01   3.45167236E+01  -3.06168413E+00  -1.02738237E+01   4.47905464E+01  -7.06040573E+00   4.02145844E+01   3.84390283E+00   2.76111374E+01  -1.02738237E+01   1.45538254E+01
             1248                2   4.16284294E+01   3.44967880E+01   3.44967880E+01  -3.04174805E+00  -1.02738237E+01   3.44967880E+01   3.44967880E+01  -3.04174805E+00  -1.02738237E+01   4.47706108E+01  -7.06040573E+00   4.01784363E+01   4.40015459E+00   2.70548859E+01  -1.02738237E+01   1.49658346E+01
             1248                3   4.09606056E+01   3.40004654E+01   3.40004654E+01  -2.54542351E+00  -1.02738237E+01   3.40004654E+01   3.40004654E+01  -2.54542351E+00  -1.02738237E+01   4.42742882E+01  -7.06040573E+00   3.92696648E+01   4.05760479E+00   2.73974342E+01  -1.02738237E+01   1.40610657E+01
             1248                4   4.07547913E+01   3.38464165E+01   3.38464165E+01  -2.39137459E+00  -1.02738237E+01   3.38464165E+01   3.38464165E+01  -2.39137459E+00  -1.02738237E+01   4.41202393E+01  -7.06040573E+00   3.89840202E+01   4.55247259E+00   2.69025669E+01  -1.02738237E+01   1.42622814E+01
             1249                1   3.34117279E+01   3.12117290E+01   3.12117290E+01  -1.29112065E-01  -3.94348741E+00   3.12117290E+01   3.12117290E+01  -1.29112065E-01  -3.94348741E+00   3.51552162E+01  -9.04637623E+00   3.29165306E+01   3.69327992E-01   3.07132893E+01  -3.94348741E+00   3.92085123E+00
             1249                2   3.30524368E+01   3.09556561E+01   3.09556561E+01   1.26963243E-01  -3.94348741E+00   3.09556561E+01   3.09556561E+01   1.26963243E-01  -3.94348741E+00   3.48991432E+01  -9.04637718E+00   3.24813652E+01   6.12249136E-01   3.04703693E+01  -3.94348741E+00   3.83734727E+00
             1249                3   3.34467850E+01   3.12366371E+01   3.12366371E+01  -1.54020846E-01  -3.94348741E+00   3.12366371E+01   3.12366371E+01  -1.54020846E-01  -3.94348741E+00   3.51801262E+01  -9.04637623E+00   3.29586296E+01   2.82902479E-01   3.07997150E+01  -3.94348741E+00   3.67755175E+00
             1249                4   3.30876656E+01   3.09808273E+01   3.09808273E+01   1.01790562E-01  -3.94348741E+00   3.09808273E+01   3.09808273E+01   1.01790562E-01  -3.94348741E+00   3.49243164E+01  -9.04637718E+00   3.25243378E+01   5.25874436E-01   3.05567436E+01  -3.94348741E+00   3.59381056E+00
             1250                1   1.12969780E+02   1.29219788E+02   1.29219788E+02   1.62464542E+01   1.62535725E+01   1.29219788E+02   1.29219788E+02   1.62535725E+01   1.62464542E+01   1.12973335E+02  -5.39066048E+01   1.12969772E+02   1.62895756E+01   1.29176666E+02   1.62535725E+01   2.20677638E+00
             1250                2   1.13183899E+02   1.29362488E+02   1.29362488E+02   1.61037502E+01   1.62535725E+01   1.29362488E+02   1.29362488E+02   1.62535725E+01   1.61037502E+01   1.13258736E+02  -5.39066010E+01   1.13183678E+02   1.61478119E+01   1.29318420E+02   1.62535725E+01   2.23349237E+00
             1250                3   1.12936783E+02   1.29197784E+02   1.29197784E+02   1.62684441E+01   1.62535725E+01   1.29197784E+02   1.29197784E+02   1.62684441E+01   1.62535725E+01   1.12944214E+02  -5.39066010E+01   1.12936783E+02   1.63172913E+01   1.29148941E+02   1.62535725E+01   2.34816384E+00
             1250                4   1.13150925E+02   1.29340515E+02   1.29340515E+02   1.61257172E+01   1.62535725E+01   1.29340515E+02   1.29340515E+02   1.62535725E+01   1.61257172E+01   1.13214798E+02  -5.39066010E+01   1.13150772E+02   1.61755581E+01   1.29290680E+02   1.62535725E+01   2.37489057E+00
             1251                1   2.16241638E+02   2.25746887E+02   2.25746887E+02  -6.11761808E-01   2.12890511E+01   2.25746887E+02   2.25746887E+02   2.12890511E+01  -6.11761808E-01   2.26358658E+02  -8.21413956E+01   2.13725128E+02  -5.70520699E-01   2.25705658E+02   2.12890511E+01   3.05488944E+00
             1251                2   2.16101700E+02   2.25734283E+02   2.25734283E+02   2.22626895E-01   2.04672871E+01   2.25734283E+02   2.25734283E+02   2.04672871E+01   2.22626895E-01   2.25511658E+02  -8.21413956E+01   2.13952652E+02   2.23214626E-01   2.25733688E+02   2.04672871E+01   3.65974605E-01
             1251                3   2.16347168E+02   2.25689926E+02   2.25689926E+02  -1.77358377E+00   2.25078430E+01   2.25689926E+02   2.25689926E+02   2.25078430E+01  -1.77358377E+00   2.27463501E+02  -8.21413956E+01   2.13249268E+02  -1.76628006E+00   2.25682617E+02   2.25078430E+01   1.28881109E+00
             1251                4   2.16252747E+02   2.25712784E+02   2.25712784E+02  -9.95905876E-01   2.17073078E+01   2.25712784E+02   2.25712784E+02   2.17073078E+01  -9.95905876E-01   2.26708679E+02  -8.21413956E+01   2.13546860E+02  -9.87408161E-01   2.25704285E+02   2.17073078E+01  -1.38768840E+00
             1252                1   2.84333839E+01   2.35488892E+01   2.35488892E+01  -1.04012094E-01  -7.99715757E+00   2.35488892E+01   2.35488892E+01  -1.04012094E-01  -7.99715757E+00   3.15460472E+01  -5.14924002E+00   2.57904816E+01   2.78952152E-01   2.31659260E+01  -7.99715757E+00   2.98522067E+00
             1252                2   2.80407429E+01   2.32321568E+01   2.32321568E+01   2.12720662E-01  -7.99715757E+00   2.32321568E+01   2.32321568E+01   2.12720662E-01  -7.99715757E+00   3.12293148E+01  -5.14924002E+00   2.51155853E+01   5.78263044E-01   2.28666153E+01  -7.99715757E+00   2.87766266E+00
             1252                3   2.84762268E+01   2.35832005E+01   2.35832005E+01  -1.38323113E-01  -7.99715757E+00   2.35832005E+01   2.35832005E+01  -1.38323113E-01  -7.99715757E+00   3.15803585E+01  -5.14924002E+00   2.58625660E+01   1.69779509E-01   2.32750988E+01  -7.99715757E+00   2.68583703E+00
             1252                4   2.80841408E+01   2.32673721E+01   2.32673721E+01   1.77505106E-01  -7.99715757E+00   2.32673721E+01   2.32673721E+01   1.77505106E-01  -7.99715757E+00   3.12645302E+01  -5.14924002E+00   2.51914978E+01   4.69044447E-01   2.29758339E+01  -7.99715757E+00   2.57809877E+00
             1253                1   1.36722382E+02   1.57816971E+02   1.57816971E+02   2.12653656E+01   2.09244328E+01   1.57816971E+02   1.57816971E+02   2.12653656E+01   2.09244328E+01   1.36892532E+02  -6.66689224E+01   1.36721436E+02   2.12763443E+01   1.57806000E+02   2.09244328E+01   1.22388756E+00
             1253                2   1.37773407E+02   1.58517624E+02   1.58517624E+02   2.05647144E+01   2.09244328E+01   1.58517624E+02   1.58517624E+02   2.09244328E+01   2.05647144E+01   1.37952911E+02  -6.66689224E+01   1.37772339E+02   2.05710945E+01   1.58511246E+02   2.09244328E+01   9.37898159E-01
             1253                3   1.37167633E+02   1.58113998E+02   1.58113998E+02   2.09683323E+01   2.09244328E+01   1.58113998E+02   1.58113998E+02   2.09683323E+01   2.09244328E+01   1.37189575E+02  -6.66689224E+01   1.37167603E+02   2.09955616E+01   1.58086777E+02   2.09244328E+01   1.93222046E+00
             1253                4   1.38215546E+02   1.58811844E+02   1.58811844E+02   2.02704945E+01   2.09244328E+01   1.58811844E+02   1.58811844E+02   2.09244328E+01   2.02704945E+01   1.38541351E+02  -6.66689224E+01   1.38212051E+02   2.02900562E+01   1.58792282E+02   2.09244328E+01   1.64606512E+00
             1254                1   3.60932007E+01   3.68273697E+01   3.68273697E+01   6.62036180E-01   8.06737840E-01   3.68273697E+01   3.68273697E+01   8.06737840E-01   6.62036180E-01   3.61653328E+01  -1.27653809E+01   3.60925522E+01   1.71897244E+00   3.57704353E+01   8.06737840E-01   6.09157610E+00
             1254                2   3.59648323E+01   3.67419128E+01   3.67419128E+01   7.47494876E-01   8.06737840E-01   3.67419128E+01   3.67419128E+01   8.06737840E-01   7.47494876E-01   3.59944153E+01  -1.27653809E+01   3.59647255E+01   1.80531418E+00   3.56840935E+01   8.06737840E-01   6.07919168E+00
             1254                3   3.60685463E+01   3.68109627E+01   3.68109627E+01   6.78442538E-01   8.06737840E-01   3.68109627E+01   3.68109627E+01   8.06737840E-01   6.78442538E-01   3.61325226E+01  -1.27653809E+01   3.60680351E+01   1.70537198E+00   3.57840347E+01   8.06737840E-01   6.00424528E+00
             1254                4   3.59398422E+01   3.67252617E+01   3.67252617E+01   7.64142990E-01   8.06737840E-01   3.67252617E+01   3.67252617E+01   8.06737840E-01   7.64142990E-01   3.59611206E+01  -1.27653809E+01   3.59397850E+01   1.79171979E+00   3.56976852E+01   8.06737840E-01   5.99140644E+00
             1255                1   1.13477219E+02   1.27209068E+02   1.27209068E+02   1.33361006E+01   1.41317816E+01   1.27209068E+02   1.27209068E+02   1.41317816E+01   1.33361006E+01   1.13872963E+02  -5.15589790E+01   1.13470955E+02   1.40617514E+01   1.26483421E+02   1.41317816E+01   9.06118965E+00
             1255                2   1.13368004E+02   1.27136497E+02   1.27136497E+02   1.34086695E+01   1.41317816E+01   1.27136497E+02   1.27136497E+02   1.41317816E+01   1.34086695E+01   1.13727829E+02  -5.15589790E+01   1.13362823E+02   1.41381578E+01   1.26407013E+02   1.41317816E+01   9.07914352E+00
             1255                3   1.13436295E+02   1.27181885E+02   1.27181885E+02   1.33632984E+01   1.41317816E+01   1.27181885E+02   1.27181885E+02   1.41317816E+01   1.33632984E+01   1.13818581E+02  -5.15589867E+01   1.13430435E+02   1.40770044E+01   1.26468170E+02   1.41317816E+01   8.98465061E+00
             1255                4   1.13327110E+02   1.27109322E+02   1.27109322E+02   1.34358473E+01   1.41317816E+01   1.27109322E+02   1.27109322E+02   1.41317816E+01   1.34358473E+01   1.13673470E+02  -5.15589790E+01   1.13322319E+02   1.41533585E+01   1.26391815E+02   1.41317816E+01   9.00259876E+00
             1256                1   1.65199600E+02   1.65398514E+02   1.65398514E+02  -4.74379838E-01   8.80546689E-01   1.65398514E+02   1.65398514E+02   8.80546689E-01  -4.74379838E-01   1.65872894E+02  -5.52682304E+01   1.65187088E+02  -4.64031816E-01   1.65388168E+02   8.80546689E-01   1.30989170E+00
             1256                2   1.64714783E+02   1.65078049E+02   1.65078049E+02   4.29680765E-01   2.96942234E-01   1.65078049E+02   1.65078049E+02   4.29680765E-01   2.96942234E-01   1.64781113E+02  -5.52682228E+01   1.64714676E+02   4.52697009E-01   1.65055038E+02   2.96942234E-01   1.94658220E+00
             1256                3   1.64832672E+02   1.65155807E+02   1.65155807E+02  -5.35125844E-02   7.02380538E-01   1.65155807E+02   1.65155807E+02   7.02380538E-01  -5.35125844E-02   1.65209320E+02  -5.52682228E+01   1.64828781E+02  -5.33148609E-02   1.65155609E+02   7.02380538E-01  -1.81034505E-01
             1256                4   1.64340515E+02   1.64827713E+02   1.64827713E+02   8.63093555E-01   1.13873459E-01   1.64827713E+02   1.64827713E+02   8.63093555E-01   1.13873459E-01   1.64713837E+02  -5.52682304E+01   1.64336670E+02   8.64305019E-01   1.64826508E+02   1.13873459E-01   4.45426494E-01
             1257                1   1.00854202E+02   1.00286156E+02   1.00286156E+02  -5.93255877E-01  -5.42818069E-01   1.00286156E+02   1.00286156E+02  -5.42818069E-01  -5.93255877E-01   1.00879410E+02  -3.30500298E+01   1.00854172E+02   9.02203768E-02   9.96026840E+01  -5.42818069E-01   8.27534103E+00
             1257                2   1.00787804E+02   1.00241898E+02   1.00241898E+02  -5.48993945E-01  -5.42818069E-01   1.00241898E+02   1.00241898E+02  -5.42818069E-01  -5.48993945E-01   1.00790886E+02  -3.30500298E+01   1.00787796E+02   1.01765454E-01   9.95911331E+01  -5.42818069E-01   8.07263470E+00
             1257                3   1.01148727E+02   1.00482361E+02   1.00482361E+02  -7.89462924E-01  -5.42818069E-01   1.00482361E+02   1.00482361E+02  -5.42818069E-01  -7.89462924E-01   1.01271828E+02  -3.30500298E+01   1.01148056E+02  -1.10005118E-01   9.98029099E+01  -5.42818069E-01   8.26728249E+00
             1257                4   1.01082481E+02   1.00438248E+02   1.00438248E+02  -7.45347619E-01  -5.42818069E-01   1.00438248E+02   1.00438248E+02  -5.42818069E-01  -7.45347619E-01   1.01183594E+02  -3.30500298E+01   1.01082024E+02  -9.84572917E-02   9.97913589E+01  -5.42818069E-01   8.06450367E+00
             1258                1   1.69034744E+02   1.71698563E+02   1.71698563E+02   7.76639223E-01   4.61642599E+00   1.71698563E+02   1.71698563E+02   4.61642599E+00   7.76639223E-01   1.70921921E+02  -5.90305443E+01   1.68936584E+02   8.27352047E-01   1.71647858E+02   4.61642599E+00   2.94354653E+00
             1258                2   1.68430359E+02   1.71311325E+02   1.71311325E+02   1.87469065E+00   3.90562177E+00   1.71311325E+02   1.71311325E+02   3.90562177E+00   1.87469065E+00   1.69436646E+02  -5.90305481E+01   1.68402802E+02   1.99751079E+00   1.71188507E+02   3.90562177E+00   4.56020784E+00
             1258                3   1.68199829E+02   1.71155777E+02   1.71155777E+02   1.80874944E+00   4.12711239E+00   1.71155777E+02   1.71155777E+02   4.12711239E+00   1.80874944E+00   1.69347031E+02  -5.90305443E+01   1.68163879E+02   1.81584704E+00   1.71148682E+02   4.12711239E+00   1.09590280E+00
             1258                4   1.67574585E+02   1.70746613E+02   1.70746613E+02   2.94468117E+00   3.40032411E+00   1.70746613E+02   1.70746613E+02   3.40032411E+00   2.94468117E+00   1.67801941E+02  -5.90305443E+01   1.67573181E+02   2.98817968E+00   1.70703125E+02   3.40032411E+00   2.70117569E+00
             1259                1   1.88616543E+01   9.32495022E+00   9.32495022E+00  -1.18292473E-01  -1.23931665E+01   9.32495022E+00  -1.23931665E+01  -1.18292473E-01  -1.23931665E+01   2.17181168E+01   1.06216967E+00  -1.14464512E+01   2.33220998E-02   9.18333530E+00  -1.23931665E+01   1.14771342E+00
             1259                2   1.85319080E+01   8.86754990E+00   8.86754990E+00   3.39107662E-01  -1.23931665E+01   8.86754990E+00  -1.23931665E+01   3.39107662E-01  -1.23931665E+01   2.12607155E+01   1.06216967E+00  -1.28633566E+01   4.59733009E-01   8.74692440E+00  -1.23931665E+01   1.00707293E+00
             1259                3   1.89022675E+01   9.37878323E+00   9.37878323E+00  -1.72125861E-01  -1.23931665E+01   9.37878323E+00  -1.23931665E+01  -1.72125861E-01  -1.23931665E+01   2.17719498E+01   1.06216967E+00  -1.12439213E+01  -1.18878730E-01   9.32553577E+00  -1.23931665E+01   7.11144626E-01
             1259                4   1.85731678E+01   8.92697239E+00   8.92697239E+00   2.79684663E-01  -1.23931665E+01   8.92697239E+00  -1.23931665E+01   2.79684663E-01  -1.23931665E+01   2.13201389E+01   1.06216967E+00  -1.27041368E+01   3.17442328E-01   8.88921547E+00  -1.23931665E+01   5.70151150E-01
             1260                1   1.13035698E+02   1.29238174E+02   1.29238174E+02   1.61600857E+01   1.62448940E+01   1.29238174E+02   1.29238174E+02   1.62448940E+01   1.61600857E+01   1.13078087E+02  -5.38810463E+01   1.13035629E+02   1.61679153E+01   1.29230331E+02   1.62448940E+01   9.41159070E-01
             1260                2   1.13022476E+02   1.29229340E+02   1.29229340E+02   1.61688919E+01   1.62448940E+01   1.29229340E+02   1.29229340E+02   1.62448940E+01   1.61688919E+01   1.13060455E+02  -5.38810425E+01   1.13022430E+02   1.61793728E+01   1.29218872E+02   1.62448940E+01   1.08837986E+00
             1260                3   1.12814415E+02   1.29090637E+02   1.29090637E+02   1.63075943E+01   1.62448940E+01   1.29090637E+02   1.29090637E+02   1.63075943E+01   1.62448940E+01   1.12845749E+02  -5.38810425E+01   1.12814384E+02   1.63152676E+01   1.29082977E+02   1.62448940E+01   9.30092335E-01
             1260                4   1.12801186E+02   1.29081833E+02   1.29081833E+02   1.63164120E+01   1.62448940E+01   1.29081833E+02   1.29081833E+02   1.63164120E+01   1.62448940E+01   1.12836929E+02  -5.38810425E+01   1.12801147E+02   1.63267078E+01   1.29071533E+02   1.62448940E+01   1.07730865E+00
             1261                1   1.59799118E+02   1.64406204E+02   1.64406204E+02   4.11501884E+00   5.10373020E+00   1.64406204E+02   1.64406204E+02   5.10373020E+00   4.11501884E+00   1.60291183E+02  -5.78749847E+01   1.59792252E+02   4.12701511E+00   1.64394211E+02   5.10373020E+00   1.38657653E+00
             1261                2   1.58067398E+02   1.63253204E+02   1.63253204E+02   5.26803160E+00   5.10373020E+00   1.63253204E+02   1.63253204E+02   5.26803160E+00   5.10373020E+00   1.58149475E+02  -5.78749886E+01   1.58067200E+02   5.28739262E+00   1.63233841E+02   5.10373020E+00   1.74912822E+00
             1261                3   1.59243744E+02   1.64036880E+02   1.64036880E+02   4.48434734E+00   5.10373020E+00   1.64036880E+02   1.64036880E+02   5.10373020E+00   4.48434734E+00   1.59552536E+02  -5.78749847E+01   1.59241028E+02   4.48466587E+00   1.64036560E+02   5.10373020E+00   2.25083455E-01
             1261                4   1.57506241E+02   1.62878693E+02   1.62878693E+02   5.64254999E+00   5.10373020E+00   1.62878693E+02   1.62878693E+02   5.64254999E+00   5.10373020E+00   1.57774963E+02  -5.78749886E+01   1.57504166E+02   5.64474154E+00   1.62876495E+02   5.10373020E+00   5.87476552E-01
             1262                1   5.70463028E+01   5.30239754E+01   5.30239754E+01  -3.58082247E+00  -4.45380831E+00   5.30239754E+01   5.30239754E+01  -3.58082247E+00  -4.45380831E+00   5.74777832E+01  -1.49964485E+01   5.70312691E+01  -1.77945817E+00   5.12226105E+01  -4.45380831E+00   9.93584442E+00
             1262                2   5.66645393E+01   5.27671738E+01   5.27671738E+01  -3.32402205E+00  -4.45380831E+00   5.27671738E+01   5.27671738E+01  -3.32402205E+00  -4.45380831E+00   5.72209854E+01  -1.49964485E+01   5.66391869E+01  -1.45149171E+00   5.08946457E+01  -4.45380831E+00   1.00760145E+01
             1262                3   5.67045212E+01   5.27940979E+01   5.27940979E+01  -3.35094619E+00  -4.45380831E+00   5.27940979E+01   5.27940979E+01  -3.35094619E+00  -4.45380831E+00   5.72479095E+01  -1.49964485E+01   5.66803818E+01  -1.66147470E+00   5.11046295E+01  -4.45380831E+00   9.59171867E+00
             1262                4   5.63274651E+01   5.25399170E+01   5.25399170E+01  -3.09676290E+00  -4.45380831E+00   5.25399170E+01   5.25399170E+01  -3.09676290E+00  -4.45380831E+00   5.69937248E+01  -1.49964485E+01   5.62906647E+01  -1.33552551E+00   5.07786789E+01  -4.45380831E+00   9.74101830E+00
             1263                1   1.15071480E+02   1.37582108E+02   1.37582108E+02   2.24716759E+01   2.25496254E+01   1.37582108E+02   1.37582108E+02   2.25496254E+01   2.24716759E+01   1.15110435E+02  -6.08678017E+01   1.15071426E+02   2.24782085E+01   1.37575577E+02   2.25496254E+01   8.67216647E-01
             1263                2   1.15017944E+02   1.37546417E+02   1.37546417E+02   2.25073490E+01   2.25496254E+01   1.37546417E+02   1.37546417E+02   2.25496254E+01   2.25073490E+01   1.15039078E+02  -6.08677979E+01   1.15017929E+02   2.25159035E+01   1.37537872E+02   2.25496254E+01   9.91795003E-01
             1263                3   1.14883415E+02   1.37456741E+02   1.37456741E+02   2.25970306E+01   2.25496254E+01   1.37456741E+02   1.37456741E+02   2.25970306E+01   2.25496254E+01   1.14907112E+02  -6.08677979E+01   1.14883408E+02   2.26030312E+01   1.37450745E+02   2.25496254E+01   8.29880774E-01
             1263                4   1.14829697E+02   1.37420914E+02   1.37420914E+02   2.26328602E+01   2.25496254E+01   1.37420914E+02   1.37420914E+02   2.26328602E+01   2.25496254E+01   1.14871284E+02  -6.08677979E+01   1.14829636E+02   2.26407986E+01   1.37412979E+02   2.25496254E+01   9.54453647E-01
             1264                1   6.18229485E+01   5.63307190E+01   5.63307190E+01  -4.92179441E+00  -6.04730082E+00   5.63307190E+01   5.63307190E+01  -4.92179441E+00  -6.04730082E+00   6.23780174E+01  -1.51205406E+01   6.17998962E+01  -2.73239374E+00   5.41413193E+01  -6.04730082E+00   1.13715754E+01
             1264                2   6.13393402E+01   5.60048485E+01   5.60048485E+01  -4.59592390E+00  -6.04730082E+00   5.60048485E+01   5.60048485E+01  -4.59592390E+00  -6.04730082E+00   6.20521469E+01  -1.51205406E+01   6.13006897E+01  -2.34059405E+00   5.37495193E+01  -6.04730082E+00   1.14711876E+01
             1264                3   6.14910698E+01   5.61071892E+01   5.61071892E+01  -4.69826174E+00  -6.04730082E+00   5.61071892E+01   5.61071892E+01  -4.69826174E+00  -6.04730082E+00   6.21544914E+01  -1.51205416E+01   6.14577637E+01  -2.64437008E+00   5.40532990E+01  -6.04730082E+00   1.09849567E+01
             1264                4   6.09976387E+01   5.57740326E+01   5.57740326E+01  -4.36510992E+00  -6.04730082E+00   5.57740326E+01   5.57740326E+01  -4.36510992E+00  -6.04730082E+00   6.18213348E+01  -1.51205406E+01   6.09454193E+01  -2.24841523E+00   5.36573410E+01  -6.04730082E+00   1.10822248E+01
             1265                1   1.50511581E+02   1.61548370E+02   1.61548370E+02   1.07702198E+01   1.13047915E+01   1.61548370E+02   1.61548370E+02   1.13047915E+01   1.07702198E+01   1.50778152E+02  -6.12077942E+01   1.50509430E+02   1.07733727E+01   1.61545212E+02   1.13047915E+01   6.89869463E-01
             1265                2   1.48996857E+02   1.60538651E+02   1.60538651E+02   1.17799330E+01   1.13047915E+01   1.60538651E+02   1.60538651E+02   1.17799330E+01   1.13047915E+01   1.49233871E+02  -6.12077942E+01   1.48995148E+02   1.17845917E+01   1.60533997E+02   1.13047915E+01   8.32506239E-01
             1265                3   1.50296280E+02   1.61405060E+02   1.61405060E+02   1.09135303E+01   1.13047915E+01   1.61405060E+02   1.61405060E+02   1.13047915E+01   1.09135303E+01   1.50491531E+02  -6.12077942E+01   1.50295135E+02   1.09142141E+01   1.61404373E+02   1.13047915E+01  -3.20987552E-01
             1265                4   1.48779007E+02   1.60393158E+02   1.60393158E+02   1.19254456E+01   1.13047915E+01   1.60393158E+02   1.60393158E+02   1.19254456E+01   1.13047915E+01   1.49088364E+02  -6.12077980E+01   1.48776093E+02   1.19256535E+01   1.60392944E+02   1.13047915E+01  -1.78221256E-01
             1266                1   3.53840065E+01   3.72436638E+01   3.72436638E+01   6.20991468E-01   3.24434018E+00   3.72436638E+01   3.72436638E+01   3.24434018E+00   6.20991468E-01   3.66226730E+01  -1.37029982E+01   3.51642189E+01   1.29954922E+00   3.65651054E+01   3.24434018E+00   4.93863869E+00
             1266                2   3.52980080E+01   3.71882515E+01   3.71882515E+01   6.76405787E-01   3.24434018E+00   3.71882515E+01   3.71882515E+01   3.24434018E+00   6.76405787E-01   3.65118484E+01  -1.37029991E+01   3.50869255E+01   1.33590925E+00   3.65287476E+01   3.24434018E+00   4.86259174E+00
             1266                3   3.54840279E+01   3.73080673E+01   3.73080673E+01   5.56587517E-01   3.24434018E+00   3.73080673E+01   3.73080673E+01   3.24434018E+00   5.56587517E-01   3.67514801E+01  -1.37029982E+01   3.52539215E+01   1.22269523E+00   3.66419601E+01   3.24434018E+00   4.90272522E+00
             1266                4   3.53984604E+01   3.72529716E+01   3.72529716E+01   6.11681461E-01   3.24434018E+00   3.72529716E+01   3.72529716E+01   3.24434018E+00   6.11681461E-01   3.66412926E+01  -1.37029982E+01   3.51771927E+01   1.25887680E+00   3.66057777E+01   3.24434018E+00   4.82651138E+00
             1267                1   3.57033310E+01   3.75701180E+01   3.75701180E+01   1.04763401E+00   2.74660277E+00   3.75701180E+01   3.75701180E+01   2.74660277E+00   1.04763401E+00   3.65224838E+01  -1.37881174E+01   3.56122131E+01   2.16153145E+00   3.64562225E+01   2.74660277E+00   6.28024435E+00
             1267                2   3.56854401E+01   3.75584602E+01   3.75584602E+01   1.05929244E+00   2.74660277E+00   3.75584602E+01   3.75584602E+01   2.74660277E+00   1.05929244E+00   3.64991684E+01  -1.37881174E+01   3.55955276E+01   2.17039633E+00   3.64473572E+01   2.74660277E+00   6.27054739E+00
             1267                3   3.57127800E+01   3.75762787E+01   3.75762787E+01   1.04147422E+00   2.74660277E+00   3.75762787E+01   3.75762787E+01   2.74660277E+00   1.04147422E+00   3.65348053E+01  -1.37881174E+01   3.56210251E+01   2.15162778E+00   3.64661255E+01   2.74660277E+00   6.27110529E+00
             1267                4   3.56948814E+01   3.75646095E+01   3.75646095E+01   1.05314100E+00   2.74660277E+00   3.75646095E+01   3.75646095E+01   2.74660277E+00   1.05314100E+00   3.65114708E+01  -1.37881174E+01   3.56043320E+01   2.16048527E+00   3.64572678E+01   2.74660277E+00   6.26135159E+00
             1268                1   2.80127068E+01   3.98212395E+01   3.98212395E+01   1.13741550E+01   1.22641172E+01   3.98212395E+01   3.98212395E+01   1.22641172E+01   1.13741550E+01   2.84470825E+01  -2.11531696E+01   2.79808712E+01   1.27369041E+01   3.84584885E+01   1.22641172E+01   6.07529020E+00
             1268                2   2.79707756E+01   3.97937050E+01   3.97937050E+01   1.14016914E+01   1.22641172E+01   3.97937050E+01   3.97937050E+01   1.22641172E+01   1.14016914E+01   2.83920135E+01  -2.11531715E+01   2.79408340E+01   1.26603880E+01   3.85350075E+01   1.22641172E+01   5.84402657E+00
             1268                3   2.83861542E+01   4.00659332E+01   4.00659332E+01   1.11294613E+01   1.22641172E+01   4.00659332E+01   4.00659332E+01   1.22641172E+01   1.11294613E+01   2.89364700E+01  -2.11531696E+01   2.83350639E+01   1.25030794E+01   3.86923141E+01   1.22641172E+01   6.15311432E+00
             1268                4   2.83447170E+01   4.00388260E+01   4.00388260E+01   1.11565695E+01   1.22641172E+01   4.00388260E+01   4.00388260E+01   1.22641172E+01   1.11565695E+01   2.88822575E+01  -2.11531715E+01   2.82959690E+01   1.24263573E+01   3.87690392E+01   1.22641172E+01   5.92131567E+00
             1269                1   3.59559288E+01   3.15599537E+01   3.15599537E+01  -1.16525793E+00  -6.93010902E+00   3.15599537E+01   3.15599537E+01  -1.16525793E+00  -6.93010902E+00   3.84900627E+01  -7.82152891E+00   3.48934135E+01   2.24915460E-01   3.01697807E+01  -6.93010902E+00   6.60008383E+00
             1269                2   3.54791679E+01   3.12092915E+01   3.12092915E+01  -8.14596772E-01  -6.93010902E+00   3.12092915E+01   3.12092915E+01  -8.14596772E-01  -6.93010902E+00   3.81394005E+01  -7.82152891E+00   3.42631454E+01   5.80423594E-01   2.98142719E+01  -6.93010902E+00   6.53665733E+00
             1269                3   3.58592567E+01   3.14890823E+01   3.14890823E+01  -1.09438801E+00  -6.93010902E+00   3.14890823E+01   3.14890823E+01  -1.09438801E+00  -6.93010902E+00   3.84191933E+01  -7.82152891E+00   3.47667809E+01   1.47752807E-01   3.02469425E+01  -6.93010902E+00   6.23941851E+00
             1269                4   3.53803940E+01   3.11362705E+01   3.11362705E+01  -7.41575599E-01  -6.93010902E+00   3.11362705E+01   3.11362705E+01  -7.41575599E-01  -6.93010902E+00   3.80663795E+01  -7.82152891E+00   3.41307068E+01   5.03187537E-01   2.98915081E+01  -6.93010902E+00   6.17502403E+00
             1270                1   3.50110321E+01   3.59042549E+01   3.59042549E+01   5.15284300E-01   1.28381467E+00   3.59042549E+01   3.59042549E+01   1.28381467E+00   5.15284300E-01   3.53889732E+01  -1.25677843E+01   3.49920464E+01   1.19151211E+00   3.52280273E+01   1.28381467E+00   4.84497213E+00
             1270                2   3.48530273E+01   3.57999687E+01   3.57999687E+01   6.19567037E-01   1.28381467E+00   3.57999687E+01   3.57999687E+01   1.28381467E+00   6.19567037E-01   3.51804008E+01  -1.25677834E+01   3.48387833E+01   1.28249156E+00   3.51370468E+01   1.28381467E+00   4.78355742E+00
             1270                3   3.50658379E+01   3.59403915E+01   3.59403915E+01   4.79147583E-01   1.28381467E+00   3.59403915E+01   3.59403915E+01   1.28381467E+00   4.79147583E-01   3.54612465E+01  -1.25677843E+01   3.50450554E+01   1.12833858E+00   3.52912025E+01   1.28381467E+00   4.75390863E+00
             1270                4   3.49078789E+01   3.58361931E+01   3.58361931E+01   5.83349109E-01   1.28381467E+00   3.58361931E+01   3.58361931E+01   1.28381467E+00   5.83349109E-01   3.52528419E+01  -1.25677843E+01   3.48920631E+01   1.21935713E+00   3.52001839E+01   1.28381467E+00   4.69218111E+00
             1271                1   6.73607101E+01   6.15009041E+01   6.15009041E+01  -5.17461681E+00  -6.52470684E+00   6.15009041E+01   6.15009041E+01  -5.17461681E+00  -6.52470684E+00   6.80256119E+01  -1.66005268E+01   6.73302612E+01  -3.18463135E+00   5.95109177E+01  -6.52470684E+00   1.13456278E+01
             1271                2   6.78689270E+01   6.18427315E+01   6.18427315E+01  -5.51644468E+00  -6.52470684E+00   6.18427315E+01   6.18427315E+01  -5.51644468E+00  -6.52470684E+00   6.83674393E+01  -1.66005268E+01   6.78520737E+01  -3.58464646E+00   5.99109344E+01  -6.52470684E+00   1.12424374E+01
             1271                3   6.77046661E+01   6.17323494E+01   6.17323494E+01  -5.40606213E+00  -6.52470684E+00   6.17323494E+01   6.17323494E+01  -5.40606213E+00  -6.52470684E+00   6.82570572E+01  -1.66005268E+01   6.76838684E+01  -3.28415275E+00   5.96104393E+01  -6.52470684E+00   1.17455997E+01
             1271                4   6.82101974E+01   6.20717659E+01   6.20717659E+01  -5.74547863E+00  -6.52470684E+00   6.20717659E+01   6.20717659E+01  -5.74547863E+00  -6.52470684E+00   6.85964737E+01  -1.66005268E+01   6.82001801E+01  -3.68409181E+00   6.00103798E+01  -6.52470684E+00   1.16425142E+01
             1272                1   8.93904800E+01   8.41979294E+01   8.41979294E+01  -5.10234165E+00  -5.28249121E+00   8.41979294E+01   8.41979294E+01  -5.10234165E+00  -5.28249121E+00   8.94804230E+01  -2.46043644E+01   8.93900757E+01  -4.74785757E+00   8.38434448E+01  -5.28249121E+00   5.61515713E+00
             1272                2   8.96261368E+01   8.43551178E+01   8.43551178E+01  -5.25953245E+00  -5.28249121E+00   8.43551178E+01   8.43551178E+01  -5.25953245E+00  -5.28249121E+00   8.96376114E+01  -2.46043644E+01   8.96261292E+01  -4.91943312E+00   8.40150223E+01  -5.28249121E+00   5.51018906E+00
             1272                3   8.95786133E+01   8.43234329E+01   8.43234329E+01  -5.22784567E+00  -5.28249121E+00   8.43234329E+01   8.43234329E+01  -5.22784567E+00  -5.28249121E+00   8.96059265E+01  -2.46043644E+01   8.95785828E+01  -4.85221291E+00   8.39477997E+01  -5.28249121E+00   5.78770065E+00
             1272                4   8.98137131E+01   8.44801407E+01   8.44801407E+01  -5.38455534E+00  -5.28249121E+00   8.44801407E+01   8.44801407E+01  -5.28249121E+00  -5.38455534E+00   8.98647003E+01  -2.46043644E+01   8.98135834E+01  -5.02376747E+00   8.41193542E+01  -5.28249121E+00   5.68261194E+00
             1273                1   1.12622627E+02   1.26580185E+02   1.26580185E+02   1.38311796E+01   1.40843611E+01   1.26580185E+02   1.26580185E+02   1.40843611E+01   1.38311796E+01   1.12749001E+02  -5.14985771E+01   1.12621979E+02   1.40886927E+01   1.26322670E+02   1.40843611E+01   5.38218355E+00
             1273                2   1.12797684E+02   1.26696732E+02   1.26696732E+02   1.37146330E+01   1.40843611E+01   1.26696732E+02   1.26696732E+02   1.40843611E+01   1.37146330E+01   1.12982094E+02  -5.14985771E+01   1.12796318E+02   1.39729319E+01   1.26438431E+02   1.40843611E+01   5.39595509E+00
             1273                3   1.12615021E+02   1.26575119E+02   1.26575119E+02   1.38362465E+01   1.40843611E+01   1.26575119E+02   1.26575119E+02   1.40843611E+01   1.38362465E+01   1.12738869E+02  -5.14985771E+01   1.12614395E+02   1.41049023E+01   1.26306458E+02   1.40843611E+01   5.49691057E+00
             1273                4   1.12789925E+02   1.26691559E+02   1.26691559E+02   1.37197990E+01   1.40843611E+01   1.26691559E+02   1.26691559E+02   1.40843611E+01   1.37197990E+01   1.12971764E+02  -5.14985771E+01   1.12788589E+02   1.39892483E+01   1.26422112E+02   1.40843611E+01   5.51069164E+00
             1274                1   4.25188179E+01   4.79795227E+01   4.79795227E+01   5.39969969E+00   5.52197599E+00   4.79795227E+01   4.79795227E+01   5.52197599E+00   5.39969969E+00   4.25798225E+01  -1.96337337E+01   4.25184212E+01   5.45585203E+00   4.79233704E+01   5.52197599E+00   1.54525745E+00
             1274                2   4.21515961E+01   4.77347069E+01   4.77347069E+01   5.64451075E+00   5.52197599E+00   4.77347069E+01   4.77347069E+01   5.64451075E+00   5.52197599E+00   4.22127342E+01  -1.96337318E+01   4.21511993E+01   5.69897652E+00   4.76802444E+01   5.52197599E+00   1.51308620E+00
             1274                3   4.25433578E+01   4.79958572E+01   4.79958572E+01   5.38336515E+00   5.52197599E+00   4.79958572E+01   4.79958572E+01   5.52197599E+00   5.38336515E+00   4.26124916E+01  -1.96337337E+01   4.25428467E+01   5.42329407E+00   4.79559288E+01   5.52197599E+00   1.30379009E+00
             1274                4   4.21745796E+01   4.77500496E+01   4.77500496E+01   5.62917185E+00   5.52197599E+00   4.77500496E+01   4.77500496E+01   5.62917185E+00   5.52197599E+00   4.22280769E+01  -1.96337337E+01   4.21742744E+01   5.66758013E+00   4.77116432E+01   5.52197599E+00   1.27133858E+00
             1275                1   1.60122700E+01   4.95928907E+00   4.95928907E+00  -2.43334740E-01  -1.30073185E+01   4.95928907E+00  -1.30073185E+01  -2.43334740E-01  -1.30073185E+01   1.79666080E+01   2.76378822E+00  -1.39107580E+01   7.25155890E-01   3.99079847E+00  -1.30073185E+01   2.02502298E+00
             1275                2   1.59097261E+01   4.74034786E+00   4.74034786E+00  -2.43936554E-02  -1.30073185E+01   4.74034786E+00  -1.30073185E+01  -2.43936554E-02  -1.30073185E+01   1.77476673E+01   2.76378822E+00  -1.41659670E+01   1.14813328E+00   3.56782103E+00  -1.30073185E+01   2.05230808E+00
             1275                3   1.58672247E+01   4.64391327E+00   4.64391327E+00   7.20412657E-02  -1.30073185E+01   4.64391327E+00  -1.30073185E+01   7.20412657E-02  -1.30073185E+01   1.76512318E+01   2.76378822E+00  -1.42686310E+01   7.08997428E-01   4.00695705E+00  -1.30073185E+01   1.58315146E+00
             1275                4   1.57601299E+01   4.38194847E+00   4.38194847E+00   3.34005743E-01  -1.30073185E+01   4.38194847E+00  -1.30073185E+01   3.34005743E-01  -1.30073185E+01   1.73892670E+01   2.76378822E+00  -1.45198107E+01   1.13115501E+00   3.58479929E+00  -1.30073185E+01   1.60977256E+00
             1276                1   4.09315758E+01   4.02812386E+01   4.02812386E+01   9.93639827E-01  -2.11683893E+00   4.02812386E+01   4.02812386E+01   9.93639827E-01  -2.11683893E+00   4.23980789E+01  -1.30526800E+01   4.06643982E+01   2.59174271E+01   1.53574533E+01  -2.11683893E+00   1.89209042E+01
             1276                2   4.19100113E+01   4.09573135E+01   4.09573135E+01   3.17566246E-01  -2.11683893E+00   4.09573135E+01   4.09573135E+01   3.17566246E-01  -2.11683893E+00   4.30741539E+01  -1.30526800E+01   4.17504921E+01   2.65014153E+01   1.47734642E+01  -2.11683893E+00   1.94553604E+01
             1276                3   4.04766960E+01   3.99645004E+01   3.99645004E+01   1.31037974E+00  -2.11683893E+00   3.99645004E+01   3.99645004E+01   1.31037974E+00  -2.11683893E+00   4.20813370E+01  -1.30526800E+01   4.01483154E+01   2.65820694E+01   1.46928120E+01  -2.11683893E+00   1.83901234E+01
             1276                4   4.16332550E+01   4.07667770E+01   4.07667770E+01   5.08102119E-01  -2.11683893E+00   4.07667770E+01   4.07667770E+01   5.08102119E-01  -2.11683893E+00   4.28836174E+01  -1.30526800E+01   4.14464645E+01   2.71850624E+01   1.40898180E+01  -2.11683893E+00   1.90346756E+01
             1277                1   1.69664764E+02   1.68698090E+02   1.68698090E+02  -2.13320065E+00   2.24424154E-01   1.68698090E+02   1.68698090E+02   2.24424154E-01  -2.13320065E+00   1.70831299E+02  -5.55964394E+01   1.69627914E+02  -2.11794949E+00   1.68682846E+02   2.24424154E-01   1.61400115E+00
             1277                2   1.68564026E+02   1.67972443E+02   1.67972443E+02  -5.42988181E-01  -6.40147984E-01   1.67972443E+02   1.67972443E+02  -5.42988181E-01  -6.40147984E-01   1.68612595E+02  -5.55964355E+01   1.68563980E+02  -5.03639340E-01   1.67933105E+02  -6.40147984E-01   2.57450509E+00
             1277                3   1.69202972E+02   1.68395264E+02   1.68395264E+02  -1.53468025E+00  -7.12639689E-02   1.68395264E+02   1.68395264E+02  -7.12639689E-02  -1.53468025E+00   1.69929947E+02  -5.55964394E+01   1.69188736E+02  -1.53040838E+00   1.68390991E+02  -7.12639689E-02  -8.51759911E-01
             1277                4   1.68084351E+02   1.67651077E+02   1.67651077E+02   8.63192081E-02  -9.48083878E-01   1.67651077E+02   1.67651077E+02   8.63192081E-02  -9.48083878E-01   1.68599167E+02  -5.55964355E+01   1.68077194E+02   8.63683224E-02   1.67651031E+02  -9.48083878E-01   8.73519555E-02
             1278                1   6.01789017E+01   5.38603172E+01   5.38603172E+01  -4.75594044E+00  -7.76809549E+00   5.38603172E+01   5.38603172E+01  -4.75594044E+00  -7.76809549E+00   6.16284142E+01  -1.37787600E+01   6.00089417E+01  -1.31563151E+00   5.04200096E+01  -7.76809549E+00   1.37776012E+01
             1278                2   6.08912926E+01   5.43467560E+01   5.43467560E+01  -5.24237967E+00  -7.76809549E+00   5.43467560E+01   5.43467560E+01  -5.24237967E+00  -7.76809549E+00   6.21148529E+01  -1.37787600E+01   6.07732697E+01  -1.86657286E+00   5.09709511E+01  -7.76809549E+00   1.37755337E+01
             1278                3   6.05925369E+01   5.41430359E+01   5.41430359E+01  -5.03865767E+00  -7.76809549E+00   5.41430359E+01   5.41430359E+01  -5.03865767E+00  -7.76809549E+00   6.19111290E+01  -1.37787600E+01   6.04539909E+01  -1.34057128E+00   5.04449501E+01  -7.76809549E+00   1.43242140E+01
             1278                4   6.12978477E+01   5.46233559E+01   5.46233559E+01  -5.51897955E+00  -7.76809549E+00   5.46233559E+01   5.46233559E+01  -5.51897955E+00  -7.76809549E+00   6.23914528E+01  -1.37787600E+01   6.12049103E+01  -1.89189494E+00   5.09962730E+01  -7.76809549E+00   1.43173180E+01
             1279                1   3.18250923E+01   2.91144524E+01   2.91144524E+01  -7.08432496E-02  -4.81728411E+00   2.91144524E+01   2.91144524E+01  -7.08432496E-02  -4.81728411E+00   3.39317360E+01  -8.07544231E+00   3.10137634E+01   2.73824424E-01   2.87697849E+01  -4.81728411E+00   3.15284634E+00
             1279                2   3.14580421E+01   2.88467026E+01   2.88467026E+01   1.96907654E-01  -4.81728411E+00   2.88467026E+01   2.88467026E+01   1.96907654E-01  -4.81728411E+00   3.36639862E+01  -8.07544231E+00   3.05395241E+01   5.27546763E-01   2.85160637E+01  -4.81728411E+00   3.05996680E+00
             1279                3   3.18806324E+01   2.91548080E+01   2.91548080E+01  -1.11198723E-01  -4.81728411E+00   2.91548080E+01   2.91548080E+01  -1.11198723E-01  -4.81728411E+00   3.39720917E+01  -8.07544231E+00   3.10847416E+01   1.78780034E-01   2.88648300E+01  -4.81728411E+00   2.89869285E+00
             1279                4   3.15140438E+01   2.88876743E+01   2.88876743E+01   1.55935287E-01  -4.81728411E+00   2.88876743E+01   2.88876743E+01   1.55935287E-01  -4.81728411E+00   3.37049599E+01  -8.07544231E+00   3.06124744E+01   4.32582647E-01   2.86110268E+01  -4.81728411E+00   2.80571413E+00
             1280                1   5.93445892E+01   5.76527786E+01   5.76527786E+01  -1.61051941E+00  -1.77276766E+00   5.76527786E+01   5.76527786E+01  -1.61051941E+00  -1.77276766E+00   5.94255447E+01  -1.80898304E+01   5.93440895E+01  -1.49589789E+00   5.75381584E+01  -1.77276766E+00   2.60377336E+00
             1280                2   5.94258194E+01   5.77069969E+01   5.77069969E+01  -1.66473615E+00  -1.77276766E+00   5.77069969E+01   5.77069969E+01  -1.66473615E+00  -1.77276766E+00   5.94797630E+01  -1.80898304E+01   5.94255981E+01  -1.56771696E+00   5.76099777E+01  -1.77276766E+00   2.39806056E+00
             1280                3   5.96615219E+01   5.78641663E+01   5.78641663E+01  -1.82190847E+00  -1.77276766E+00   5.78641663E+01   5.78641663E+01  -1.77276766E+00  -1.82190847E+00   5.96860771E+01  -1.80898304E+01   5.96614761E+01  -1.70167828E+00   5.77439384E+01  -1.77276766E+00   2.67610788E+00
             1280                4   5.97421494E+01   5.79178848E+01   5.79178848E+01  -1.87562335E+00  -1.77276766E+00   5.79178848E+01   5.79178848E+01  -1.77276766E+00  -1.87562335E+00   5.97935104E+01  -1.80898323E+01   5.97419472E+01  -1.77338529E+00   5.78156471E+01  -1.77276766E+00   2.47038221E+00
             1281                1   2.79800186E+01   3.90042343E+01   3.90042343E+01   1.02789679E+01   1.18343496E+01   3.90042343E+01   3.90042343E+01   1.18343496E+01   1.02789679E+01   2.87252674E+01  -2.03725185E+01   2.78825016E+01   1.24539709E+01   3.68292313E+01   1.18343496E+01   7.59914064E+00
             1281                2   2.79154606E+01   3.89622993E+01   3.89622993E+01   1.03209009E+01   1.18343496E+01   3.89622993E+01   3.89622993E+01   1.18343496E+01   1.03209009E+01   2.86413975E+01  -2.03725166E+01   2.78229294E+01   1.23751078E+01   3.69080925E+01   1.18343496E+01   7.39023495E+00
             1281                3   2.83198643E+01   3.92245712E+01   3.92245712E+01   1.00586309E+01   1.18343496E+01   3.92245712E+01   3.92245712E+01   1.18343496E+01   1.00586309E+01   2.91659412E+01  -2.03725185E+01   2.81942005E+01   1.22443027E+01   3.70388985E+01   1.18343496E+01   7.67919493E+00
             1281                4   2.82560005E+01   3.91832161E+01   3.91832161E+01   1.00999813E+01   1.18343496E+01   3.91832161E+01   3.91832161E+01   1.18343496E+01   1.00999813E+01   2.90832367E+01  -2.03725166E+01   2.81358681E+01   1.21655130E+01   3.71176872E+01   1.18343496E+01   7.47033405E+00
             1282                1   2.81882191E+01   3.83904572E+01   3.83904572E+01   9.10402966E+00   1.14466572E+01   3.83904572E+01   3.83904572E+01   1.14466572E+01   9.10402966E+00   2.92864285E+01  -1.96470490E+01   2.79679470E+01   1.21355543E+01   3.53589325E+01   1.14466572E+01   8.92145824E+00
             1282                2   2.80779705E+01   3.83196831E+01   3.83196831E+01   9.17480469E+00   1.14466572E+01   3.83196831E+01   3.83196831E+01   1.14466572E+01   9.17480469E+00   2.91448784E+01  -1.96470490E+01   2.78700581E+01   1.20767670E+01   3.54177208E+01   1.14466572E+01   8.72673798E+00
             1282                3   2.84876194E+01   3.85823402E+01   3.85823402E+01   8.91215324E+00   1.14466572E+01   3.85823402E+01   3.85823402E+01   1.14466572E+01   8.91215324E+00   2.96701851E+01  -1.96470490E+01   2.82322884E+01   1.19395399E+01   3.55549507E+01   1.14466572E+01   8.98098469E+00
             1282                4   2.83785553E+01   3.85124931E+01   3.85124931E+01   8.98199272E+00   1.14466572E+01   3.85124931E+01   3.85124931E+01   1.14466572E+01   8.98199272E+00   2.95305023E+01  -1.96470490E+01   2.81362457E+01   1.18807783E+01   3.56137085E+01   1.14466572E+01   8.78633308E+00
             1283                1   5.51157494E+01   4.90599060E+01   4.90599060E+01  -3.44929504E+00  -8.33684731E+00   4.90599060E+01   4.90599060E+01  -3.44929504E+00  -8.33684731E+00   5.73967552E+01  -1.24245882E+01   5.46249962E+01   6.44810295E+00   3.91625099E+01  -8.33684731E+00   2.05364532E+01
             1283                2   5.40713158E+01   4.83257141E+01   4.83257141E+01  -2.71510291E+00  -8.33684731E+00   4.83257141E+01   4.83257141E+01  -2.71510291E+00  -8.33684731E+00   5.66625595E+01  -1.24245882E+01   5.34078865E+01   6.18313789E+00   3.94274750E+01  -8.33684731E+00   1.93647804E+01
             1283                3   5.66379395E+01   5.01184425E+01   5.01184425E+01  -4.50783253E+00  -8.33684731E+00   5.01184425E+01   5.01184425E+01  -4.50783253E+00  -8.33684731E+00   5.84552917E+01  -1.24245882E+01   5.63456306E+01   5.44119740E+00   4.01694145E+01  -8.33684731E+00   2.10830555E+01
             1283                4   5.56075325E+01   4.94033279E+01   4.94033279E+01  -3.79271579E+00  -8.33684731E+00   4.94033279E+01   4.94033279E+01  -3.79271579E+00  -8.33684731E+00   5.77401733E+01  -1.24245882E+01   5.51874886E+01   5.16750479E+00   4.04431076E+01  -8.33684731E+00   1.99088593E+01
             1284                1   1.71766022E+02   1.71552841E+02   1.71552841E+02  -2.21987915E+00   1.86644447E+00   1.71552841E+02   1.71552841E+02   1.86644447E+00  -2.21987915E+00   1.73772720E+02  -5.70664673E+01   1.71656601E+02  -2.19348383E+00   1.71526443E+02   1.86644447E+00   2.14161515E+00
             1284                2   1.70587296E+02   1.70787872E+02   1.70787872E+02  -5.63046277E-01   9.74594772E-01   1.70787872E+02   1.70787872E+02   9.74594772E-01  -5.63046277E-01   1.71350922E+02  -5.70664711E+01   1.70571701E+02  -4.81997550E-01   1.70706818E+02   9.74594772E-01   3.72581601E+00
             1284                3   1.71002777E+02   1.71058350E+02   1.71058350E+02  -1.23530483E+00   1.37636638E+00   1.71058350E+02   1.71058350E+02   1.37636638E+00  -1.23530483E+00   1.72293655E+02  -5.70664711E+01   1.70957886E+02  -1.23416340E+00   1.71057205E+02   1.37636638E+00  -4.43864584E-01
             1284                4   1.69793106E+02   1.70261871E+02   1.70261871E+02   4.74587649E-01   4.62944776E-01   1.70261871E+02   1.70261871E+02   4.74587649E-01   4.62944776E-01   1.69798935E+02  -5.70664711E+01   1.69793106E+02   4.81992275E-01   1.70254471E+02   4.62944776E-01   1.12140906E+00
             1285                1   3.30658875E+01   3.94993477E+01   3.94993477E+01   5.35402155E+00   7.63055706E+00   3.94993477E+01   3.94993477E+01   7.63055706E+00   5.35402155E+00   3.41453285E+01  -1.74946423E+01   3.28888702E+01   8.33437920E+00   3.65189896E+01   7.63055706E+00   9.63757133E+00
             1285                2   3.28936577E+01   3.93880844E+01   3.93880844E+01   5.46528482E+00   7.63055706E+00   3.93880844E+01   3.93880844E+01   7.63055706E+00   5.46528482E+00   3.39228020E+01  -1.74946423E+01   3.27327385E+01   8.33169460E+00   3.65216751E+01   7.63055706E+00   9.43506050E+00
             1285                3   3.33342171E+01   3.96724052E+01   3.96724052E+01   5.18096447E+00   7.63055706E+00   3.96724052E+01   3.96724052E+01   7.63055706E+00   5.18096447E+00   3.44914398E+01  -1.74946423E+01   3.31308098E+01   8.12811661E+00   3.67252541E+01   7.63055706E+00   9.64187813E+00
             1285                4   3.31636696E+01   3.95624504E+01   3.95624504E+01   5.29091597E+00   7.63055706E+00   3.95624504E+01   3.95624504E+01   7.63055706E+00   5.29091597E+00   3.42715340E+01  -1.74946423E+01   3.29772224E+01   8.12537098E+00   3.67279968E+01   7.63055706E+00   9.43964863E+00
             1286                1   3.34229546E+01   3.46442757E+01   3.46442757E+01   3.07465822E-01   2.21704865E+00   3.46442757E+01   3.46442757E+01   2.21704865E+00   3.07465822E-01   3.43368073E+01  -1.23895960E+01   3.32998886E+01   4.36965317E-01   3.45147743E+01   2.21704865E+00   2.10472107E+00
             1286                2   3.36177940E+01   3.47706108E+01   3.47706108E+01   1.81128278E-01   2.21704865E+00   3.47706108E+01   3.47706108E+01   2.21704865E+00   1.81128278E-01   3.45894852E+01  -1.23895960E+01   3.34786644E+01   2.80386388E-01   3.46713524E+01   2.21704865E+00   1.85026646E+00
             1286                3   3.38427887E+01   3.49162674E+01   3.49162674E+01   3.54681611E-02   2.21704865E+00   3.49162674E+01   3.49162674E+01   2.21704865E+00   3.54681611E-02   3.48807983E+01  -1.23895950E+01   3.36840401E+01   1.82571948E-01   3.47691650E+01   2.21704865E+00   2.26040697E+00
             1286                4   3.40355911E+01   3.50408897E+01   3.50408897E+01  -8.91498774E-02   2.21704865E+00   3.50408897E+01   3.50408897E+01   2.21704865E+00  -8.91498774E-02   3.51300392E+01  -1.23895960E+01   3.38591309E+01   2.57517360E-02   3.49259872E+01   2.21704865E+00   2.00582671E+00
             1287                1   2.18302719E+02   1.90977798E+02   1.90977798E+02  -3.93102722E+01  -1.29447832E+01   1.90977798E+02   1.90977798E+02  -1.29447832E+01  -3.93102722E+01   2.30288071E+02  -4.62409172E+01   2.14676865E+02  -3.92686882E+01   1.90936218E+02  -1.29447832E+01   3.09408259E+00
             1287                2   2.18073502E+02   1.91100937E+02   1.91100937E+02  -3.68520927E+01  -1.55260992E+01   1.91100937E+02   1.91100937E+02  -1.55260992E+01  -3.68520927E+01   2.27953033E+02  -4.62409172E+01   2.15708771E+02  -3.68385124E+01   1.91087357E+02  -1.55260992E+01  -1.75925326E+00
             1287                3   2.18568542E+02   1.90843109E+02   1.90843109E+02  -4.16076355E+01  -1.05127220E+01   1.90843109E+02   1.90843109E+02  -1.05127220E+01  -4.16076355E+01   2.32450745E+02  -4.62409172E+01   2.13507095E+02  -4.15869064E+01   1.90822372E+02  -1.05127220E+01  -2.19534922E+00
             1287                4   2.18350891E+02   1.91007492E+02   1.91007492E+02  -3.93465157E+01  -1.29382391E+01   1.91007492E+02   1.91007492E+02  -1.29382391E+01  -3.93465157E+01   2.30354019E+02  -4.62409172E+01   2.14713943E+02  -3.91364250E+01   1.90797409E+02  -1.29382391E+01  -6.95343304E+00
             1288                1   1.31133499E+02   1.55217728E+02   1.55217728E+02   2.42095203E+01   2.39592762E+01   1.55217728E+02   1.55217728E+02   2.42095203E+01   2.39592762E+01   1.31258453E+02  -6.77955093E+01   1.31132980E+02   2.42147293E+01   1.55212524E+02   2.39592762E+01   8.25526893E-01
             1288                2   1.30959412E+02   1.55101532E+02   1.55101532E+02   2.43257141E+01   2.39592762E+01   1.55101532E+02   1.55101532E+02   2.43257141E+01   2.39592762E+01   1.31142258E+02  -6.77955093E+01   1.30958267E+02   2.43263130E+01   1.55100937E+02   2.39592762E+01   2.78746516E-01
             1288                3   1.31951996E+02   1.55763336E+02   1.55763336E+02   2.36639080E+01   2.39592762E+01   1.55763336E+02   1.55763336E+02   2.39592762E+01   2.36639080E+01   1.32099426E+02  -6.77955093E+01   1.31951248E+02   2.36677380E+01   1.55759506E+02   2.39592762E+01   7.11476028E-01
             1288                4   1.31779083E+02   1.55648163E+02   1.55648163E+02   2.37790756E+01   2.39592762E+01   1.55648163E+02   1.55648163E+02   2.39592762E+01   2.37790756E+01   1.31869095E+02  -6.77955093E+01   1.31778809E+02   2.37792873E+01   1.55647964E+02   2.39592762E+01   1.64653018E-01
             1289                1   2.20000000E+02   2.23680054E+02   2.23680054E+02  -1.61486492E+01   3.12285271E+01   2.23680054E+02   2.23680054E+02   3.12285271E+01  -1.61486492E+01   2.39828705E+02  -7.95866470E+01   2.08052567E+02  -1.61483536E+01   2.23679749E+02   3.12285271E+01   2.69303143E-01
             1289                2   2.20000000E+02   2.23091034E+02   2.23091034E+02  -1.83991165E+01   3.40680008E+01   2.23091034E+02   2.23091034E+02   3.40680008E+01  -1.83991165E+01   2.41490158E+02  -7.95866394E+01   2.05203033E+02  -1.81599388E+01   2.22851868E+02   3.40680008E+01  -7.59611034E+00
             1289                3   2.20000000E+02   2.23008972E+02   2.23008972E+02  -1.86925526E+01   3.44435043E+01   2.23008972E+02   2.23008972E+02   3.44435043E+01  -1.86925526E+01   2.41701523E+02  -7.95866394E+01   2.04802216E+02  -1.85245934E+01   2.22841019E+02   3.44435043E+01   6.36919928E+00
             1289                4   2.20000000E+02   2.22425003E+02   2.22425003E+02  -2.06637211E+01   3.69986610E+01   2.22425003E+02   2.22425003E+02   3.69986610E+01  -2.06637211E+01   2.43088715E+02  -7.95866470E+01   2.01922119E+02  -2.06531563E+01   2.22414429E+02   3.69986610E+01  -1.60283458E+00
             1290                1   1.21752777E+01   1.51582444E+00   1.51582444E+00  -3.41754407E-01  -1.14814959E+01   1.51582444E+00  -1.14814959E+01  -3.41754407E-01  -1.14814959E+01   1.29973202E+01   3.43580842E+00  -1.18501663E+01   9.85077739E-01   1.88992262E-01  -1.14814959E+01   8.39173257E-01
             1290                2   1.21069317E+01   1.14332199E+00   1.14332199E+00   3.07480562E-02  -1.14814959E+01   1.14332199E+00  -1.14814959E+01   3.07480562E-02  -1.14814959E+01   1.26248178E+01   3.43580842E+00  -1.19911108E+01   1.11701667E+00   5.70533462E-02  -1.14814959E+01   1.69040203E-01
             1290                3   1.21556091E+01   1.42556369E+00   1.42556369E+00  -2.51493663E-01  -1.14814959E+01   1.42556369E+00  -1.14814959E+01  -2.51493663E-01  -1.14814959E+01   1.29070597E+01   3.43580842E+00  -1.18911524E+01   3.23439330E-01   8.50630701E-01  -1.14814959E+01   7.96019852E-01
             1290                4   1.20719919E+01   7.53909051E-01   7.53909051E-01   4.20160949E-01  -1.14814959E+01   7.53909051E-01  -1.14814959E+01   4.20160949E-01  -1.14814959E+01   1.22354050E+01   3.43580842E+00  -1.20616055E+01   4.63491112E-01   7.10578918E-01  -1.14814959E+01   1.12177767E-01
             1291                1   2.14389709E+02   2.06170517E+02   2.06170517E+02  -1.86476765E+01   4.00882435E+00   2.06170517E+02   2.06170517E+02   4.00882435E+00  -1.86476765E+01   2.24818192E+02  -6.38438873E+01   2.11671188E+02  -1.84669380E+01   2.05989777E+02   4.00882435E+00  -6.37194395E+00
             1291                2   2.14852005E+02   2.06387253E+02   2.06387253E+02  -1.96002712E+01   4.74468565E+00   2.06387253E+02   2.06387253E+02   4.74468565E+00  -1.96002712E+01   2.25987534E+02  -6.38438911E+01   2.11715561E+02  -1.94545803E+01   2.06241562E+02   4.74468565E+00  -5.73621988E+00
             1291                3   2.14454514E+02   2.06282791E+02   2.06282791E+02  -1.80345516E+01   3.28342628E+00   2.06282791E+02   2.06282791E+02   3.28342628E+00  -1.80345516E+01   2.24317352E+02  -6.38438911E+01   2.12051025E+02  -1.79252300E+01   2.06173477E+02   3.28342628E+00  -4.95079660E+00
             1291                4   2.14915329E+02   2.06500153E+02   2.06500153E+02  -1.90207272E+01   4.05222654E+00   2.06500153E+02   2.06500153E+02   4.05222654E+00  -1.90207272E+01   2.25520889E+02  -6.38438873E+01   2.12102005E+02  -1.89368229E+01   2.06416260E+02   4.05222654E+00  -4.34902096E+00
             1292                1   1.66760864E+02   1.67897186E+02   1.67897186E+02  -8.14682804E-03   2.30485559E+00   1.67897186E+02   1.67897186E+02   2.30485559E+00  -8.14682804E-03   1.67905334E+02  -5.67312965E+01   1.66724762E+02   1.57608893E-02   1.67873276E+02   2.30485559E+00   2.00347281E+00
             1292                2   1.66233154E+02   1.67552597E+02   1.67552597E+02   9.57179606E-01   1.68410480E+00   1.67552597E+02   1.67552597E+02   1.68410480E+00   9.57179606E-01   1.66595428E+02  -5.67312927E+01   1.66229584E+02   1.01391411E+00   1.67495865E+02   1.68410480E+00   3.07389045E+00
             1292                3   1.66162460E+02   1.67503708E+02   1.67503708E+02   6.93031728E-01   1.99714518E+00   1.67503708E+02   1.67503708E+02   1.99714518E+00   6.93031728E-01   1.66810684E+02  -5.67312965E+01   1.66150940E+02   6.93998456E-01   1.67502747E+02   1.99714518E+00   4.01944101E-01
             1292                4   1.65621887E+02   1.67145737E+02   1.67145737E+02   1.68075716E+00   1.36739147E+00   1.67145737E+02   1.67145737E+02   1.68075716E+00   1.36739147E+00   1.65778351E+02  -5.67312927E+01   1.65621216E+02   1.69367969E+00   1.67132812E+02   1.36739147E+00   1.46221495E+00
             1293                1   2.79791584E+01   3.94071121E+01   3.94071121E+01   1.08439178E+01   1.20510607E+01   3.94071121E+01   3.94071121E+01   1.20510607E+01   1.08439178E+01   2.85631943E+01  -2.07673626E+01   2.79204769E+01   1.26017971E+01   3.76492310E+01   1.20510607E+01   6.86443901E+00
             1293                2   2.79274750E+01   3.93733482E+01   3.93733482E+01   1.08776760E+01   1.20510607E+01   3.93733482E+01   3.93733482E+01   1.20510607E+01   1.08776760E+01   2.84956741E+01  -2.07673626E+01   2.78719349E+01   1.25218935E+01   3.77291336E+01   1.20510607E+01   6.64451647E+00
             1293                3   2.83365936E+01   3.96401215E+01   3.96401215E+01   1.06109104E+01   1.20510607E+01   3.96401215E+01   3.96401215E+01   1.20510607E+01   1.06109104E+01   2.90292091E+01  -2.07673626E+01   2.82540779E+01   1.23806248E+01   3.78704033E+01   1.20510607E+01   6.94561338E+00
             1293                4   2.82853756E+01   3.96067772E+01   3.96067772E+01   1.06442471E+01   1.20510607E+01   3.96067772E+01   3.96067772E+01   1.20510607E+01   1.06442471E+01   2.89625320E+01  -2.07673626E+01   2.82065029E+01   1.23007135E+01   3.79503136E+01   1.20510607E+01   6.72544098E+00
             1294                1   8.84185638E+01   8.29875336E+01   8.29875336E+01  -5.38837671E+00  -5.47361708E+00   8.29875336E+01   8.29875336E+01  -5.38837671E+00  -5.47361708E+00   8.84611511E+01  -2.40418472E+01   8.84184723E+01  -5.34687281E+00   8.29460297E+01  -5.47361708E+00   1.91479182E+00
             1294                2   8.84963531E+01   8.30394135E+01   8.30394135E+01  -5.44025660E+00  -5.47361708E+00   8.30394135E+01   8.30394135E+01  -5.44025660E+00  -5.47361708E+00   8.85130310E+01  -2.40418472E+01   8.84963455E+01  -5.40373087E+00   8.30028915E+01  -5.47361708E+00   1.79731262E+00
             1294                3   8.85983429E+01   8.31074066E+01   8.31074066E+01  -5.50824738E+00  -5.47361708E+00   8.31074066E+01   8.31074066E+01  -5.47361708E+00  -5.50824738E+00   8.86156540E+01  -2.40418472E+01   8.85983276E+01  -5.46434832E+00   8.30635071E+01  -5.47361708E+00   1.97186446E+00
             1294                4   8.86759567E+01   8.31591263E+01   8.31591263E+01  -5.55997038E+00  -5.47361708E+00   8.31591263E+01   8.31591263E+01  -5.47361708E+00  -5.55997038E+00   8.87191010E+01  -2.40418472E+01   8.86758575E+01  -5.52119684E+00   8.31203537E+01  -5.47361708E+00   1.85436523E+00
             1295                1   8.38992844E+01   7.81047134E+01   7.81047134E+01  -5.54149008E+00  -6.04538822E+00   7.81047134E+01   7.81047134E+01  -5.54149008E+00  -6.04538822E+00   8.41501007E+01  -2.21726131E+01   8.38958817E+01  -4.36021185E+00   7.69234390E+01  -6.04538822E+00   9.86984348E+00
             1295                2   8.43389740E+01   7.83984680E+01   7.83984680E+01  -5.83523941E+00  -6.04538822E+00   7.83984680E+01   7.83984680E+01  -5.83523941E+00  -6.04538822E+00   8.44438553E+01  -2.21726131E+01   8.43383865E+01  -4.68948603E+00   7.72527084E+01  -6.04538822E+00   9.75697231E+00
             1295                3   8.41761475E+01   7.82897415E+01   7.82897415E+01  -5.72651911E+00  -6.04538822E+00   7.82897415E+01   7.82897415E+01  -5.72651911E+00  -6.04538822E+00   8.43351288E+01  -2.21726131E+01   8.41747894E+01  -4.46822214E+00   7.70314484E+01  -6.04538822E+00   1.02046061E+01
             1295                4   8.46145630E+01   7.85823212E+01   7.85823212E+01  -6.01909590E+00  -6.04538822E+00   7.85823212E+01   7.85823212E+01  -6.01909590E+00  -6.04538822E+00   8.46277084E+01  -2.21726131E+01   8.46145554E+01  -4.79761648E+00   7.73608398E+01  -6.04538822E+00   1.00919266E+01
             1296                1   2.10927734E+02   2.10411560E+02   2.10411560E+02  -5.81761599E+00   5.21859455E+00   2.10411560E+02   2.10411560E+02   5.21859455E+00  -5.81761599E+00   2.16229187E+02  -6.99375153E+01   2.10276657E+02  -5.66194534E+00   2.10255890E+02   5.21859455E+00   5.79974937E+00
             1296                2   2.10988693E+02   2.10457306E+02   2.10457306E+02  -5.74311876E+00   5.09835768E+00   2.10457306E+02   2.10457306E+02   5.09835768E+00  -5.74311876E+00   2.16200424E+02  -6.99375153E+01   2.10360626E+02  -5.65354729E+00   2.10367737E+02   5.09835768E+00   4.39965677E+00
             1296                3   2.11223541E+02   2.10585327E+02   2.10585327E+02  -6.33948994E+00   5.56671000E+00   2.10585327E+02   2.10585327E+02   5.56671000E+00  -6.33948994E+00   2.16924820E+02  -6.99375153E+01   2.10466553E+02  -6.17977762E+00   2.10425613E+02   5.56671000E+00   5.88385630E+00
             1296                4   2.11365265E+02   2.10676041E+02   2.10676041E+02  -6.45337677E+00   5.58988714E+00   2.10676041E+02   2.10676041E+02   5.58988714E+00  -6.45337677E+00   2.17129410E+02  -6.99375153E+01   2.10591232E+02  -6.34501743E+00   2.10567673E+02   5.58988714E+00   4.84938097E+00
             1297                1   5.74895554E+01   5.17417488E+01   5.17417488E+01  -4.71492958E+00  -6.72781849E+00   5.17417488E+01   5.17417488E+01  -4.71492958E+00  -6.72781849E+00   5.84695663E+01  -1.34329996E+01   5.74101906E+01  -1.92315578E+00   4.89499741E+01  -6.72781849E+00   1.22401075E+01
             1297                2   5.69383850E+01   5.13668823E+01   5.13668823E+01  -4.34006357E+00  -6.72781849E+00   5.13668823E+01   5.13668823E+01  -4.34006357E+00  -6.72781849E+00   5.80946999E+01  -1.34329996E+01   5.68255730E+01  -1.45333004E+00   4.84801483E+01  -6.72781849E+00   1.23481913E+01
             1297                3   5.71040573E+01   5.14797058E+01   5.14797058E+01  -4.45288610E+00  -6.72781849E+00   5.14797058E+01   5.14797058E+01  -4.45288610E+00  -6.72781849E+00   5.82075272E+01  -1.34330015E+01   5.70019646E+01  -1.86581051E+00   4.88926315E+01  -6.72781849E+00   1.17477188E+01
             1297                4   5.65578842E+01   5.11072655E+01   5.11072655E+01  -4.08044291E+00  -6.72781849E+00   5.11072655E+01   5.11072655E+01  -4.08044291E+00  -6.72781849E+00   5.78350830E+01  -1.34330015E+01   5.64182243E+01  -1.39848804E+00   4.84253082E+01  -6.72781849E+00   1.18666801E+01
             1298                1   1.96142807E+02   1.84478897E+02   1.84478897E+02  -1.28207617E+01  -1.04862137E+01   1.84478897E+02   1.84478897E+02  -1.04862137E+01  -1.28207617E+01   1.97299667E+02  -5.37239799E+01   1.96111542E+02  -1.27578468E+01   1.84415985E+02  -1.04862137E+01   3.52277732E+00
             1298                2   1.95512573E+02   1.84062912E+02   1.84062912E+02  -1.21818218E+01  -1.07091694E+01   1.84062912E+02   1.84062912E+02  -1.07091694E+01  -1.21818218E+01   1.96244736E+02  -5.37239723E+01   1.95500076E+02  -1.20840979E+01   1.83965179E+02  -1.07091694E+01   4.37829685E+00
             1298                3   1.95640564E+02   1.84148300E+02   1.84148300E+02  -1.22177229E+01  -1.07586603E+01   1.84148300E+02   1.84148300E+02  -1.07586603E+01  -1.22177229E+01   1.96366013E+02  -5.37239685E+01   1.95628342E+02  -1.21829491E+01   1.84113525E+02  -1.07586603E+01   2.61274743E+00
             1298                4   1.94972183E+02   1.83704987E+02   1.83704987E+02  -1.15599699E+01  -1.09731016E+01   1.83704987E+02   1.83704987E+02  -1.09731016E+01  -1.15599699E+01   1.95264954E+02  -5.37239723E+01   1.94970200E+02  -1.14983006E+01   1.83643326E+02  -1.09731016E+01   3.46941876E+00
             1299                1   2.09966660E+02   1.92924423E+02   1.92924423E+02  -2.22898178E+01  -1.13684034E+01   1.92924423E+02   1.92924423E+02  -1.13684034E+01  -2.22898178E+01   2.15214233E+02  -5.30887299E+01   2.09326172E+02  -2.21358395E+01   1.92770432E+02  -1.13684034E+01   5.75463963E+00
             1299                2   2.10852478E+02   1.93418808E+02   1.93418808E+02  -2.41609459E+01  -9.99166393E+00   1.93418808E+02   1.93418808E+02  -9.99166393E+00  -2.41609459E+01   2.17579758E+02  -5.30887299E+01   2.09777328E+02  -2.41365852E+01   1.93394440E+02  -9.99166393E+00   2.30231929E+00
             1299                3   2.10856659E+02   1.93420029E+02   1.93420029E+02  -2.41848698E+01  -9.96895599E+00   1.93420029E+02   1.93420029E+02  -9.96895599E+00  -2.41848698E+01   2.17604889E+02  -5.30887337E+01   2.09774399E+02  -2.37834053E+01   1.93018555E+02  -9.96895599E+00   9.33811760E+00
             1299                4   2.11655533E+02   1.93837006E+02   1.93837006E+02  -2.59532909E+01  -8.61751747E+00   1.93837006E+02   1.93837006E+02  -8.61751747E+00  -2.59532909E+01   2.19790298E+02  -5.30887299E+01   2.10049362E+02  -2.57924290E+01   1.93676147E+02  -8.61751747E+00   5.94379044E+00
             1300                1   6.45078659E+01   6.02748413E+01   6.02748413E+01  -3.93882966E+00  -4.52325058E+00   6.02748413E+01   6.02748413E+01  -3.93882966E+00  -4.52325058E+00   6.47980881E+01  -1.72709198E+01   6.45019073E+01  -3.06587076E+00   5.94018822E+01  -4.52325058E+00   7.43597651E+00
             1300                2   6.47913742E+01   6.04645653E+01   6.04645653E+01  -4.12855673E+00  -4.52325058E+00   6.04645653E+01   6.04645653E+01  -4.12855673E+00  -4.52325058E+00   6.49878159E+01  -1.72709198E+01   6.47886658E+01  -3.29845262E+00   5.96344643E+01  -4.52325058E+00   7.27529049E+00
             1300                3   6.48215256E+01   6.04847298E+01   6.04847298E+01  -4.14872122E+00  -4.52325058E+00   6.04847298E+01   6.04847298E+01  -4.14872122E+00  -4.52325058E+00   6.50079803E+01  -1.72709198E+01   6.48190918E+01  -3.22549510E+00   5.95615044E+01  -4.52325058E+00   7.66935396E+00
             1300                4   6.51035538E+01   6.06731567E+01   6.06731567E+01  -4.33714628E+00  -4.52325058E+00   6.06731567E+01   6.06731567E+01  -4.33714628E+00  -4.52325058E+00   6.51964035E+01  -1.72709198E+01   6.51029587E+01  -3.45802188E+00   5.97940331E+01  -4.52325058E+00   7.50860834E+00
             1301                1   7.68065186E+01   7.10637283E+01   7.10637283E+01  -5.77614164E+00  -5.70939159E+00   7.10637283E+01   7.10637283E+01  -5.70939159E+00  -5.77614164E+00   7.68398743E+01  -1.98593998E+01   7.68064575E+01  -5.51378918E+00   7.08013763E+01  -5.70939159E+00   4.48224688E+00
             1301                2   7.66237793E+01   7.09419098E+01   7.09419098E+01  -5.65432167E+00  -5.70939159E+00   7.09419098E+01   7.09419098E+01  -5.65432167E+00  -5.70939159E+00   7.66513062E+01  -1.98593998E+01   7.66237411E+01  -5.37175655E+00   7.06593475E+01  -5.70939159E+00   4.64365435E+00
             1301                3   7.65414505E+01   7.08869934E+01   7.08869934E+01  -5.59940290E+00  -5.70939159E+00   7.08869934E+01   7.08869934E+01  -5.59940290E+00  -5.70939159E+00   7.65963821E+01  -1.98593998E+01   7.65412750E+01  -5.35250044E+00   7.06400909E+01  -5.70939159E+00   4.33862734E+00
             1301                4   7.63583145E+01   7.07647705E+01   7.07647705E+01  -5.47717810E+00  -5.70939159E+00   7.07647705E+01   7.07647705E+01  -5.47717810E+00  -5.70939159E+00   7.64741592E+01  -1.98593998E+01   7.63575211E+01  -5.21061754E+00   7.04982071E+01  -5.70939159E+00   4.50022984E+00
             1302                1   1.09247856E+02   1.17071068E+02   1.17071068E+02   7.83414936E+00   7.81228971E+00   1.17071068E+02   1.17071068E+02   7.83414936E+00   7.81228971E+00   1.09258781E+02  -4.42391701E+01   1.09247841E+02   7.88474274E+00   1.17020477E+02   7.81228971E+00   2.35033989E+00
             1302                2   1.09389763E+02   1.17165665E+02   1.17165665E+02   7.73955727E+00   7.81228971E+00   1.17165665E+02   1.17165665E+02   7.81228971E+00   7.73955727E+00   1.09426109E+02  -4.42391701E+01   1.09389694E+02   7.78898335E+00   1.17116234E+02   7.81228971E+00   2.32516551E+00
             1302                3   1.09291138E+02   1.17099930E+02   1.17099930E+02   7.80529356E+00   7.81228971E+00   1.17099930E+02   1.17099930E+02   7.81228971E+00   7.80529356E+00   1.09294632E+02  -4.42391701E+01   1.09291130E+02   7.86006212E+00   1.17045158E+02   7.81228971E+00   2.44598484E+00
             1302                4   1.09433144E+02   1.17194572E+02   1.17194572E+02   7.71064615E+00   7.81228971E+00   1.17194572E+02   1.17194572E+02   7.81228971E+00   7.71064615E+00   1.09483925E+02  -4.42391701E+01   1.09433029E+02   7.76419926E+00   1.17141022E+02   7.81228971E+00   2.42078781E+00
             1303                1   1.99500885E+02   1.90446198E+02   1.90446198E+02  -1.05139065E+01  -7.56271029E+00   1.90446198E+02   1.90446198E+02  -7.56271029E+00  -1.05139065E+01   2.00960114E+02  -5.74565277E+01   1.99451767E+02  -1.04098215E+01   1.90342117E+02  -7.56271029E+00   4.57233191E+00
             1303                2   2.00295822E+02   1.90963165E+02   1.90963165E+02  -1.14848824E+01  -7.10869074E+00   1.90963165E+02   1.90963165E+02  -7.10869074E+00  -1.14848824E+01   2.02448059E+02  -5.74565315E+01   2.00188202E+02  -1.14170723E+01   1.90895355E+02  -7.10869074E+00   3.70461988E+00
             1303                3   1.99860443E+02   1.90677307E+02   1.90677307E+02  -1.11289062E+01  -7.17881632E+00   1.90677307E+02   1.90677307E+02  -7.17881632E+00  -1.11289062E+01   2.01806213E+02  -5.74565277E+01   1.99772598E+02  -1.09471693E+01   1.90495575E+02  -7.17881632E+00   6.05324030E+00
             1303                4   2.00633072E+02   1.91176559E+02   1.91176559E+02  -1.20663128E+01  -6.74066639E+00   1.91176559E+02   1.91176559E+02  -6.74066639E+00  -1.20663128E+01   2.03242874E+02  -5.74565277E+01   2.00473938E+02  -1.19345989E+01   1.91044846E+02  -6.74066639E+00   5.17225599E+00
             1304                1   8.88104553E+01   8.34502335E+01   8.34502335E+01  -5.39203978E+00  -5.32837105E+00   8.34502335E+01   8.34502335E+01  -5.32837105E+00  -5.39203978E+00   8.88422775E+01  -2.42432766E+01   8.88104095E+01  -4.03194237E+00   8.20901413E+01  -5.32837105E+00   1.09079838E+01
             1304                2   8.83440094E+01   8.31391068E+01   8.31391068E+01  -5.08091307E+00  -5.32837105E+00   8.31391068E+01   8.31391068E+01  -5.08091307E+00  -5.32837105E+00   8.84674835E+01  -2.42432766E+01   8.83432312E+01  -3.68724823E+00   8.17454453E+01  -5.32837105E+00   1.10003119E+01
             1304                3   8.85582199E+01   8.32820587E+01   8.32820587E+01  -5.22385550E+00  -5.32837105E+00   8.32820587E+01   8.32820587E+01  -5.22385550E+00  -5.32837105E+00   8.86104279E+01  -2.42432785E+01   8.85580750E+01  -3.94520855E+00   8.20034103E+01  -5.32837105E+00   1.05609245E+01
             1304                4   8.80899429E+01   8.29694138E+01   8.29694138E+01  -4.91121387E+00  -5.32837105E+00   8.29694138E+01   8.29694138E+01  -4.91121387E+00  -5.32837105E+00   8.82977829E+01  -2.42432766E+01   8.80877228E+01  -3.60057521E+00   8.16587753E+01  -5.32837105E+00   1.06518412E+01
             1305                1   4.26960526E+01   4.73841972E+01   4.73841972E+01   5.74742973E-01   1.05776377E+01   4.73841972E+01   4.73841972E+01   1.05776377E+01   5.74742973E-01   4.68094521E+01  -1.95121918E+01   3.99299507E+01   7.30246902E-01   4.72286911E+01   1.05776377E+01   2.69349217E+00
             1305                2   4.27182655E+01   4.73977013E+01   4.73977013E+01   5.61236024E-01   1.05776377E+01   4.73977013E+01   4.73977013E+01   1.05776377E+01   5.61236024E-01   4.68364677E+01  -1.95121918E+01   3.99458923E+01   7.96041965E-01   4.71628952E+01   1.05776377E+01   3.30793166E+00
             1305                3   4.16893387E+01   4.67712212E+01   4.67712212E+01   1.18771696E+00   1.05776377E+01   4.67712212E+01   4.67712212E+01   1.05776377E+01   1.18771696E+00   4.55835037E+01  -1.95121918E+01   3.92027206E+01   1.33878279E+00   4.66201553E+01   1.05776377E+01   2.61979175E+00
             1305                4   4.17134514E+01   4.67859230E+01   4.67859230E+01   1.17301559E+00   1.05776377E+01   4.67859230E+01   4.67859230E+01   1.05776377E+01   1.17301559E+00   4.56129074E+01  -1.95121918E+01   3.92202492E+01   1.40349913E+00   4.65554390E+01   1.05776377E+01   3.23418045E+00
             1306                1   5.92194557E+01   5.43231926E+01   5.43231926E+01  -2.84031487E+00  -6.75770664E+00   5.43231926E+01   5.43231926E+01  -2.84031487E+00  -6.75770664E+00   6.10808983E+01  -1.49083900E+01   5.89268837E+01   9.27173328E+00   4.22111435E+01  -6.75770664E+00   2.33594818E+01
             1306                2   5.78509560E+01   5.33731766E+01   5.33731766E+01  -1.89029896E+00  -6.75770664E+00   5.33731766E+01   5.33731766E+01  -1.89029896E+00  -6.75770664E+00   6.01308823E+01  -1.49083900E+01   5.73875504E+01   8.95152950E+00   4.25313454E+01  -6.75770664E+00   2.19456577E+01
             1306                3   6.12868004E+01   5.57407570E+01   5.57407570E+01  -4.25788116E+00  -6.75770664E+00   5.57407570E+01   5.57407570E+01  -4.25788116E+00  -6.75770664E+00   6.24984627E+01  -1.49083900E+01   6.11719322E+01   8.00294018E+00   4.34799347E+01  -6.75770664E+00   2.41930752E+01
             1306                4   5.99074249E+01   5.47971611E+01   5.47971611E+01  -3.31428432E+00  -6.75770664E+00   5.47971611E+01   5.47971611E+01  -3.31428432E+00  -6.75770664E+00   6.15548668E+01  -1.49083900E+01   5.96841545E+01   7.70065260E+00   4.37822227E+01  -6.75770664E+00   2.27764149E+01
             1307                1   2.18127640E+02   2.24971878E+02   2.24971878E+02  -9.92455482E+00   2.87999954E+01   2.24971878E+02   2.24971878E+02   2.87999954E+01  -9.92455482E+00   2.34896423E+02  -8.12824402E+01   2.10184280E+02  -9.85766792E+00   2.24904984E+02   2.87999954E+01  -3.96327758E+00
             1307                2   2.17933823E+02   2.25136276E+02   2.25136276E+02  -8.28741074E+00   2.69984493E+01   2.25136276E+02   2.25136276E+02   2.69984493E+01  -8.28741074E+00   2.33423691E+02  -8.12824326E+01   2.11363312E+02  -8.27747059E+00   2.25126328E+02   2.69984493E+01   1.52360988E+00
             1307                3   2.17859634E+02   2.25155258E+02   2.25155258E+02  -7.87019968E+00   2.65622406E+01   2.25155258E+02   2.25155258E+02   2.65622406E+01  -7.87019968E+00   2.33025467E+02  -8.12824326E+01   2.11607697E+02  -7.58709383E+00   2.24872162E+02   2.65622406E+01  -8.11725998E+00
             1307                4   2.17650040E+02   2.25297119E+02   2.25297119E+02  -6.06570578E+00   2.46158810E+01   2.25297119E+02   2.25297119E+02   2.46158810E+01  -6.06570578E+00   2.31362823E+02  -8.12824326E+01   2.12703033E+02  -6.03583860E+00   2.25267258E+02   2.46158810E+01  -2.62836599E+00
             1308                1   2.13581909E+02   1.99794159E+02   1.99794159E+02  -2.38007298E+01  -2.12115097E+00   1.99794159E+02   1.99794159E+02  -2.12115097E+00  -2.38007298E+01   2.23594879E+02  -5.79574242E+01   2.11085175E+02  -2.36345119E+01   1.99627930E+02  -2.12115097E+00  -6.09418917E+00
             1308                2   2.13277512E+02   1.99727127E+02   1.99727127E+02  -2.23319950E+01  -3.52286935E+00   1.99727127E+02   1.99727127E+02  -3.52286935E+00  -2.23319950E+01   2.22059113E+02  -5.79574165E+01   2.11399414E+02  -2.22903805E+01   1.99685501E+02  -3.52286935E+00  -3.03977990E+00
             1308                3   2.13012192E+02   1.99560394E+02   1.99560394E+02  -2.21273041E+01  -3.56083703E+00   1.99560394E+02   1.99560394E+02  -3.56083703E+00  -2.21273041E+01   2.21687698E+02  -5.79574165E+01   2.11180237E+02  -2.18068504E+01   1.99239944E+02  -3.56083703E+00  -8.42241669E+00
             1308                4   2.12688843E+02   1.99467041E+02   1.99467041E+02  -2.05509644E+01  -5.04381609E+00   1.99467041E+02   1.99467041E+02  -5.04381609E+00  -2.05509644E+01   2.20018005E+02  -5.79574165E+01   2.11411346E+02  -2.04216480E+01   1.99337723E+02  -5.04381609E+00  -5.33251810E+00
             1309                1   2.79255924E+01   2.26079979E+01   2.26079979E+01  -1.48554727E-01  -8.55519962E+00   2.26079979E+01   2.26079979E+01  -1.48554727E-01  -8.55519962E+00   3.11631985E+01  -4.63474798E+00   2.48300228E+01   3.03447872E-01   2.21559963E+01  -8.55519962E+00   3.17517114E+00
             1309                2   2.75200481E+01   2.22737255E+01   2.22737255E+01   1.85721278E-01  -8.55519962E+00   2.22737255E+01   2.22737255E+01   1.85721278E-01  -8.55519962E+00   3.08289242E+01  -4.63474894E+00   2.40863934E+01   6.19367540E-01   2.18400784E+01  -8.55519962E+00   3.06436491E+00
             1309                3   2.79558411E+01   2.26327324E+01   2.26327324E+01  -1.73288211E-01  -8.55519962E+00   2.26327324E+01   2.26327324E+01  -1.73288211E-01  -8.55519962E+00   3.11879311E+01  -4.63474798E+00   2.48841496E+01   1.91069141E-01   2.22683754E+01  -8.55519962E+00   2.85950589E+00
             1309                4   2.75507240E+01   2.22991886E+01   2.22991886E+01   1.60255730E-01  -8.55519962E+00   2.22991886E+01   2.22991886E+01   1.60255730E-01  -8.55519962E+00   3.08543873E+01  -4.63474798E+00   2.41438675E+01   5.06954432E-01   2.19524899E+01  -8.55519962E+00   2.74869680E+00
             1310                1   1.94430801E+02   1.95980682E+02   1.95980682E+02   8.35503578E-01   2.27222919E+00   1.95980682E+02   1.95980682E+02   2.27222919E+00   8.35503578E-01   1.95145187E+02  -6.63628082E+01   1.94418854E+02   8.45927000E-01   1.95970261E+02   2.27222919E+00   1.42651808E+00
             1310                2   1.95280991E+02   1.96545013E+02   1.96545013E+02   2.71657437E-01   2.27174258E+00   1.96545013E+02   1.96545013E+02   2.27174258E+00   2.71657437E-01   1.96273346E+02  -6.63628006E+01   1.95257950E+02   2.80798256E-01   1.96535873E+02   2.27174258E+00   1.33896673E+00
             1310                3   1.94560974E+02   1.96067139E+02   1.96067139E+02   7.49177396E-01   2.27209568E+00   1.96067139E+02   1.96067139E+02   2.27209568E+00   7.49177396E-01   1.95317963E+02  -6.63628006E+01   1.94547562E+02   7.70106852E-01   1.96046204E+02   2.27209568E+00   2.02195120E+00
             1310                4   1.95415344E+02   1.96634125E+02   1.96634125E+02   1.82684228E-01   2.27160621E+00   1.96634125E+02   1.96634125E+02   2.27160621E+00   1.82684228E-01   1.96451431E+02  -6.63628006E+01   1.95390228E+02   2.01725885E-01   1.96615082E+02   2.27160621E+00   1.93377256E+00
             1311                1   4.28163567E+01   3.91946068E+01   3.91946068E+01  -1.90426886E+00  -5.15403557E+00   3.91946068E+01   3.91946068E+01  -1.90426886E+00  -5.15403557E+00   4.43486404E+01  -1.07121000E+01   4.25375557E+01   7.28860963E-03   3.72830467E+01  -5.15403557E+00   8.65499020E+00
             1311                2   4.23939018E+01   3.89005432E+01   3.89005432E+01  -1.61020756E+00  -5.15403557E+00   3.89005432E+01   3.89005432E+01  -1.61020756E+00  -5.15403557E+00   4.40545807E+01  -1.07121000E+01   4.20587196E+01   3.35756838E-01   3.69545784E+01  -5.15403557E+00   8.66289520E+00
             1311                3   4.26212769E+01   3.90589790E+01   3.90589790E+01  -1.76864350E+00  -5.15403557E+00   3.90589790E+01   3.90589790E+01  -1.76864350E+00  -5.15403557E+00   4.42130165E+01  -1.07121000E+01   4.23171997E+01  -3.19473632E-03   3.72935295E+01  -5.15403557E+00   8.30435658E+00
             1311                4   4.21960106E+01   3.87623367E+01   3.87623367E+01  -1.47199941E+00  -5.15403557E+00   3.87623367E+01   3.87623367E+01  -1.47199941E+00  -5.15403557E+00   4.39163704E+01  -1.07121000E+01   4.18322906E+01   3.25381786E-01   3.69649544E+01  -5.15403557E+00   8.31179142E+00
             1312                1   3.48123016E+01   3.60202332E+01   3.60202332E+01   4.40401107E-01   2.02992439E+00   3.60202332E+01   3.60202332E+01   2.02992439E+00   4.40401107E-01   3.55798340E+01  -1.28301878E+01   3.47305069E+01   9.70564961E-01   3.54900703E+01   2.02992439E+00   4.31069565E+00
             1312                2   3.46391640E+01   3.59072227E+01   3.59072227E+01   5.53413868E-01   2.02992439E+00   3.59072227E+01   3.59072227E+01   2.02992439E+00   5.53413868E-01   3.53538094E+01  -1.28301878E+01   3.45682526E+01   1.06530964E+00   3.53953247E+01   2.02992439E+00   4.22320843E+00
             1312                3   3.49101715E+01   3.60840492E+01   3.60840492E+01   3.76586229E-01   2.02992439E+00   3.60840492E+01   3.60840492E+01   2.02992439E+00   3.76586229E-01   3.57074623E+01  -1.28301878E+01   3.48219185E+01   8.81522655E-01   3.55791130E+01   2.02992439E+00   4.21604729E+00
             1312                4   3.47374001E+01   3.59713631E+01   3.59713631E+01   4.89268363E-01   2.02992439E+00   3.59713631E+01   3.59713631E+01   2.02992439E+00   4.89268363E-01   3.54820938E+01  -1.28301849E+01   3.46604080E+01   9.76315796E-01   3.54843178E+01   2.02992439E+00   4.12846279E+00
             1313                1   3.16792812E+01   2.64673443E+01   2.64673443E+01  -7.36761928E-01  -8.31321907E+00   2.64673443E+01   2.64673443E+01  -7.36761928E-01  -8.31321907E+00   3.47805634E+01  -5.80578804E+00   2.95358410E+01   3.63922834E-01   2.53666611E+01  -8.31321907E+00   5.36018848E+00
             1313                2   3.12011719E+01   2.60938435E+01   2.60938435E+01  -3.63260835E-01  -8.31321907E+00   2.60938435E+01   2.60938435E+01  -3.63260835E-01  -8.31321907E+00   3.44070625E+01  -5.80578804E+00   2.87871628E+01   7.30238497E-01   2.50003452E+01  -8.31321907E+00   5.26640987E+00
             1313                3   3.16201439E+01   2.64214001E+01   2.64214001E+01  -6.90816224E-01  -8.31321907E+00   2.64214001E+01   2.64214001E+01  -6.90816224E-01  -8.31321907E+00   3.47346191E+01  -5.80578804E+00   2.94446812E+01   2.62736797E-01   2.54678459E+01  -8.31321907E+00   4.99436522E+00
             1313                4   3.11407280E+01   2.60462837E+01   2.60462837E+01  -3.15700382E-01  -8.31321907E+00   2.60462837E+01   2.60462837E+01  -3.15700382E-01  -8.31321907E+00   3.43595009E+01  -5.80578804E+00   2.86905384E+01   6.28352761E-01   2.51022301E+01  -8.31321907E+00   4.89855957E+00
             1314                1   8.33801956E+01   7.76468353E+01   7.76468353E+01  -5.37245464E+00  -6.08962536E+00   7.76468353E+01   7.76468353E+01  -5.37245464E+00  -6.08962536E+00   8.37364655E+01  -2.20615864E+01   8.33732452E+01  -3.49349427E+00   7.57678757E+01  -6.08962536E+00   1.23474550E+01
             1314                2   8.39470215E+01   7.80259247E+01   7.80259247E+01  -5.75154781E+00  -6.08962536E+00   7.80259247E+01   7.80259247E+01  -5.75154781E+00  -6.08962536E+00   8.41155472E+01  -2.20615845E+01   8.39454880E+01  -3.92033315E+00   7.61947098E+01  -6.08962536E+00   1.22499437E+01
             1314                3   8.37036438E+01   7.78632660E+01   7.78632660E+01  -5.58888626E+00  -6.08962536E+00   7.78632660E+01   7.78632660E+01  -5.58888626E+00  -6.08962536E+00   8.39528885E+01  -2.20615845E+01   8.37002716E+01  -3.58306980E+00   7.58574448E+01  -6.08962536E+00   1.27814894E+01
             1314                4   8.42680435E+01   7.82402344E+01   7.82402344E+01  -5.96585655E+00  -6.08962536E+00   7.82402344E+01   7.82402344E+01  -5.96585655E+00  -6.08962536E+00   8.43298569E+01  -2.20615845E+01   8.42678375E+01  -4.01001453E+00   7.62843933E+01  -6.08962536E+00   1.26833849E+01
             1315                1   6.33882790E+01   5.86197548E+01   5.86197548E+01  -4.25476646E+00  -5.27008724E+00   5.86197548E+01   5.86197548E+01  -4.25476646E+00  -5.27008724E+00   6.38898392E+01  -1.63649654E+01   6.33699799E+01  -2.79358196E+00   5.71585693E+01  -5.27008724E+00   9.47291756E+00
             1315                2   6.37741776E+01   5.88788452E+01   5.88788452E+01  -4.51385689E+00  -5.27008724E+00   5.88788452E+01   5.88788452E+01  -4.51385689E+00  -5.27008724E+00   6.41489334E+01  -1.63649654E+01   6.37640915E+01  -3.10586524E+00   5.74708519E+01  -5.27008724E+00   9.34205246E+00
             1315                3   6.37128296E+01   5.88376923E+01   5.88376923E+01  -4.47270203E+00  -5.27008724E+00   5.88376923E+01   5.88376923E+01  -4.47270203E+00  -5.27008724E+00   6.41077805E+01  -1.63649673E+01   6.37016029E+01  -2.92208576E+00   5.72870750E+01  -5.27008724E+00   9.78599930E+00
             1315                4   6.40966263E+01   5.90949135E+01   5.90949135E+01  -4.72992468E+00  -5.27008724E+00   5.90949135E+01   5.90949135E+01  -4.72992468E+00  -5.27008724E+00   6.43650055E+01  -1.63649673E+01   6.40915070E+01  -3.23433781E+00   5.75993271E+01  -5.27008724E+00   9.65499210E+00
             1316                1   1.03858017E+02   1.04942368E+02   1.04942368E+02   1.09033346E+00   1.07835805E+00   1.04942368E+02   1.04942368E+02   1.09033346E+00   1.07835805E+00   1.03864006E+02  -3.57036858E+01   1.03858017E+02   1.14249003E+00   1.04890213E+02   1.07835805E+00   2.32669067E+00
             1316                2   1.03881981E+02   1.04958344E+02   1.04958344E+02   1.07435918E+00   1.07835805E+00   1.04958344E+02   1.04958344E+02   1.07835805E+00   1.07435918E+00   1.03883980E+02  -3.57036858E+01   1.03881981E+02   1.12431669E+00   1.04908386E+02   1.07835805E+00   2.27748585E+00
             1316                3   1.03932755E+02   1.04992188E+02   1.04992188E+02   1.04051936E+00   1.07835805E+00   1.04992188E+02   1.04992188E+02   1.07835805E+00   1.04051936E+00   1.03951668E+02  -3.57036896E+01   1.03932732E+02   1.09344292E+00   1.04939262E+02   1.07835805E+00   2.34496999E+00
             1316                4   1.03956711E+02   1.05008156E+02   1.05008156E+02   1.02455354E+00   1.07835805E+00   1.05008156E+02   1.05008156E+02   1.07835805E+00   1.02455354E+00   1.03983597E+02  -3.57036896E+01   1.03956673E+02   1.07526338E+00   1.04957443E+02   1.07835805E+00   2.29575300E+00
             1317                1   1.19488602E+02   1.36513580E+02   1.36513580E+02   1.56162958E+01   1.84853516E+01   1.36513580E+02   1.36513580E+02   1.84853516E+01   1.56162958E+01   1.20897293E+02  -5.68717461E+01   1.19411064E+02   1.86794853E+01   1.33450394E+02   1.84853516E+01   1.89986477E+01
             1317                2   1.20919655E+02   1.37454819E+02   1.37454819E+02   1.46750479E+01   1.84853516E+01   1.37454819E+02   1.37454819E+02   1.84853516E+01   1.46750479E+01   1.22779770E+02  -5.68717384E+01   1.20784470E+02   1.79931831E+01   1.34136688E+02   1.84853516E+01   1.99095306E+01
             1317                3   1.18051361E+02   1.35564835E+02   1.35564835E+02   1.65650311E+01   1.84853516E+01   1.35564835E+02   1.35564835E+02   1.84853516E+01   1.65650311E+01   1.18999809E+02  -5.68717384E+01   1.18016220E+02   1.99758816E+01   1.32153992E+02   1.84853516E+01   1.98558941E+01
             1317                4   1.20072029E+02   1.36897720E+02   1.36897720E+02   1.52321606E+01   1.84853516E+01   1.36897720E+02   1.36897720E+02   1.84853516E+01   1.52321606E+01   1.21665565E+02  -5.68717461E+01   1.19972801E+02   1.88717918E+01   1.33258087E+02   1.84853516E+01   2.07261028E+01
             1318                1   3.70335884E+01   3.82411880E+01   3.82411880E+01   1.12401748E+00   1.29174757E+00   3.82411880E+01   3.82411880E+01   1.29174757E+00   1.12401748E+00   3.71171684E+01  -1.35523176E+01   3.70327339E+01   2.58974838E+00   3.67754555E+01   1.29174757E+00   7.22879076E+00
             1318                2   3.71429825E+01   3.83139153E+01   3.83139153E+01   1.05129158E+00   1.29174757E+00   3.83139153E+01   3.83139153E+01   1.29174757E+00   1.05129158E+00   3.72626228E+01  -1.35523186E+01   3.71412277E+01   2.50271106E+00   3.68624954E+01   1.29174757E+00   7.20951605E+00
             1318                3   3.71206169E+01   3.82990532E+01   3.82990532E+01   1.06615067E+00   1.29174757E+00   3.82990532E+01   3.82990532E+01   1.29174757E+00   1.06615067E+00   3.72329025E+01  -1.35523176E+01   3.71190758E+01   2.56709003E+00   3.67981148E+01   1.29174757E+00   7.32335138E+00
             1318                4   3.72276459E+01   3.83701591E+01   3.83701591E+01   9.95050013E-01   1.29174757E+00   3.83701591E+01   3.83701591E+01   1.29174757E+00   9.95050013E-01   3.73751068E+01  -1.35523186E+01   3.72249832E+01   2.48132157E+00   3.68838844E+01   1.29174757E+00   7.30346584E+00
             1319                1   6.95548630E+01   6.28253555E+01   6.28253555E+01  -5.75100851E+00  -7.66835976E+00   6.28253555E+01   6.28253555E+01  -5.75100851E+00  -7.66835976E+00   7.04937134E+01  -1.64686642E+01   6.94953613E+01   1.58056289E-01   5.69162903E+01  -7.66835976E+00   1.92433167E+01
             1319                2   6.87866364E+01   6.23048134E+01   6.23048134E+01  -5.23046589E+00  -7.66835976E+00   6.23048134E+01   6.23048134E+01  -5.23046589E+00  -7.66835976E+00   6.99731750E+01  -1.64686642E+01   6.86893311E+01   9.53837693E-01   5.61205101E+01  -7.66835976E+00   1.94785290E+01
             1319                3   6.88656311E+01   6.23584442E+01   6.23584442E+01  -5.28409576E+00  -7.66835976E+00   6.23584442E+01   6.23584442E+01  -5.28409576E+00  -7.66835976E+00   7.00268021E+01  -1.64686642E+01   6.87726746E+01   2.06805900E-01   5.68675423E+01  -7.66835976E+00   1.84734554E+01
             1319                4   6.80687408E+01   6.18163605E+01   6.18163605E+01  -4.74201059E+00  -7.66835976E+00   6.18163605E+01   6.18163605E+01  -4.74201059E+00  -7.66835976E+00   6.94847183E+01  -1.64686642E+01   6.79269867E+01   9.86309171E-01   5.60880394E+01  -7.66835976E+00   1.86669216E+01
             1320                1   2.17649261E+02   2.19516739E+02   2.19516739E+02  -1.39724169E+01   2.22531719E+01   2.19516739E+02   2.19516739E+02   2.22531719E+01  -1.39724169E+01   2.33489166E+02  -7.59325027E+01   2.10706055E+02  -1.38787832E+01   2.19423111E+02   2.22531719E+01  -4.67476559E+00
             1320                2   2.17430191E+02   2.19650848E+02   2.19650848E+02  -1.22793045E+01   2.04259567E+01   2.19650848E+02   2.19650848E+02   2.04259567E+01  -1.22793045E+01   2.31930145E+02  -7.59324951E+01   2.11790085E+02  -1.22782412E+01   2.19649780E+02   2.04259567E+01   4.95946258E-01
             1320                3   2.17370926E+02   2.19667480E+02   2.19667480E+02  -1.19109755E+01   2.00409870E+01   2.19667480E+02   2.19667480E+02   2.00409870E+01  -1.19109755E+01   2.31578445E+02  -7.59324951E+01   2.11990891E+02  -1.15751324E+01   2.19331635E+02   2.00409870E+01  -8.81253624E+00
             1320                4   2.17132278E+02   2.19777237E+02   2.19777237E+02  -1.00253019E+01   1.80455647E+01   2.19777237E+02   2.19777237E+02   1.80455647E+01  -1.00253019E+01   2.29802536E+02  -7.59325027E+01   2.12992615E+02  -9.97040176E+00   2.19722336E+02   1.80455647E+01  -3.55161858E+00
             1321                1   1.02235565E+02   1.01992958E+02   1.01992958E+02  -2.39347726E-01  -2.45865732E-01   1.01992958E+02   1.01992958E+02  -2.39347726E-01  -2.45865732E-01   1.02238823E+02  -3.38359146E+01   1.02235565E+02  -1.87529773E-01   1.01941139E+02  -2.45865732E-01   2.30102324E+00
             1321                2   1.02229492E+02   1.01988907E+02   1.01988907E+02  -2.35299587E-01  -2.45865732E-01   1.01988907E+02   1.01988907E+02  -2.35299587E-01  -2.45865732E-01   1.02234772E+02  -3.38359146E+01   1.02229492E+02  -1.85798645E-01   1.01939407E+02  -2.45865732E-01   2.24894285E+00
             1321                3   1.02313370E+02   1.02044823E+02   1.02044823E+02  -2.91216612E-01  -2.45865732E-01   1.02044823E+02   1.02044823E+02  -2.45865732E-01  -2.91216612E-01   1.02336044E+02  -3.38359146E+01   1.02313354E+02  -2.39522323E-01   1.01993134E+02  -2.45865732E-01   2.29940438E+00
             1321                4   1.02307304E+02   1.02040779E+02   1.02040779E+02  -2.87171364E-01  -2.45865732E-01   1.02040779E+02   1.02040779E+02  -2.45865732E-01  -2.87171364E-01   1.02327950E+02  -3.38359146E+01   1.02307289E+02  -2.37790570E-01   1.01991402E+02  -2.45865732E-01   2.24729872E+00
             1322                1   1.91082840E+02   1.81491928E+02   1.81491928E+02  -9.71246624E+00  -9.46913815E+00   1.81491928E+02   1.81491928E+02  -9.46913815E+00  -9.71246624E+00   1.91204391E+02  -5.41034431E+01   1.91082504E+02  -9.71010685E+00   1.81489578E+02  -9.46913815E+00   6.70690417E-01
             1322                2   1.90918945E+02   1.81382721E+02   1.81382721E+02  -9.60337353E+00  -9.46901321E+00   1.81382721E+02   1.81382721E+02  -9.46901321E+00  -9.60337353E+00   1.90986084E+02  -5.41034431E+01   1.90918839E+02  -9.59699821E+00   1.81376343E+02  -9.46901321E+00   1.10322821E+00
             1322                3   1.90429413E+02   1.81056335E+02   1.81056335E+02  -9.27747822E+00  -9.46852493E+00   1.81056335E+02   1.81056335E+02  -9.27747822E+00  -9.46852493E+00   1.90524857E+02  -5.41034431E+01   1.90429184E+02  -9.27584839E+00   1.81054703E+02  -9.46852493E+00   5.56896091E-01
             1322                4   1.90264435E+02   1.80946289E+02   1.80946289E+02  -9.16755295E+00  -9.46840000E+00   1.80946289E+02   1.80946289E+02  -9.16755295E+00  -9.46840000E+00   1.90414688E+02  -5.41034431E+01   1.90263901E+02  -9.16240215E+00   1.80941132E+02  -9.46840000E+00   9.89791036E-01
             1323                1   1.11898674E+02   1.23526695E+02   1.23526695E+02   1.13529873E+01   1.19051094E+01   1.23526695E+02   1.23526695E+02   1.19051094E+01   1.13529873E+01   1.12173714E+02  -4.89282646E+01   1.11895607E+02   1.20782328E+01   1.22801453E+02   1.19051094E+01   8.99040699E+00
             1323                2   1.12012360E+02   1.23602295E+02   1.23602295E+02   1.12773895E+01   1.19051094E+01   1.23602295E+02   1.23602295E+02   1.19051094E+01   1.12773895E+01   1.12324905E+02  -4.89282646E+01   1.12008415E+02   1.19926643E+01   1.22887024E+02   1.19051094E+01   8.93482685E+00
             1323                3   1.11997246E+02   1.23592247E+02   1.23592247E+02   1.12874413E+01   1.19051094E+01   1.23592247E+02   1.23592247E+02   1.19051094E+01   1.12874413E+01   1.12304802E+02  -4.89282646E+01   1.11993416E+02   1.20259333E+01   1.22853752E+02   1.19051094E+01   9.07693386E+00
             1323                4   1.12110909E+02   1.23667801E+02   1.23667801E+02   1.12118874E+01   1.19051094E+01   1.23667801E+02   1.23667801E+02   1.19051094E+01   1.12118874E+01   1.12455910E+02  -4.89282646E+01   1.12106087E+02   1.19403000E+01   1.22939384E+02   1.19051094E+01   9.02129459E+00
             1324                1   1.94323669E+02   1.77341171E+02   1.77341171E+02  -1.70321751E+01  -1.69328060E+01   1.77341171E+02   1.77341171E+02  -1.69328060E+01  -1.70321751E+01   1.94373337E+02  -4.77920647E+01   1.94323624E+02  -1.69876633E+01   1.77296661E+02  -1.69328060E+01   2.94084668E+00
             1324                2   1.94824844E+02   1.77674118E+02   1.77674118E+02  -1.76276855E+01  -1.66702347E+01   1.77674118E+02   1.77674118E+02  -1.66702347E+01  -1.76276855E+01   1.95301804E+02  -4.77920647E+01   1.94819550E+02  -1.76128883E+01   1.77659317E+02  -1.66702347E+01   1.70016873E+00
             1324                3   1.94831055E+02   1.77677017E+02   1.77677017E+02  -1.78358955E+01  -1.64649429E+01   1.77677017E+02   1.77677017E+02  -1.64649429E+01  -1.78358955E+01   1.95512909E+02  -4.77920647E+01   1.94820206E+02  -1.77607975E+01   1.77601929E+02  -1.64649429E+01   3.83090520E+00
             1324                4   1.95324570E+02   1.78002167E+02   1.78002167E+02  -1.84198456E+01  -1.62061253E+01   1.78002167E+02   1.78002167E+02  -1.62061253E+01  -1.84198456E+01   1.96422012E+02  -4.77920647E+01   1.95296341E+02  -1.83856087E+01   1.77967926E+02  -1.62061253E+01   2.59317255E+00
             1325                1   4.07584686E+01   3.94136581E+01   3.94136581E+01  -5.31429946E-01  -2.11219740E+00   3.94136581E+01   3.94136581E+01  -5.31429946E-01  -2.11219740E+00   4.15258560E+01  -1.22566767E+01   4.06894112E+01   1.06551194E+00   3.78167152E+01  -2.11219740E+00   7.82558775E+00
             1325                2   4.04741821E+01   3.92200089E+01   3.92200089E+01  -3.37781221E-01  -2.11219740E+00   3.92200089E+01   3.92200089E+01  -3.37781221E-01  -2.11219740E+00   4.13322067E+01  -1.22566767E+01   4.03865280E+01   1.28096664E+00   3.76012611E+01  -2.11219740E+00   7.83669472E+00
             1325                3   4.06185608E+01   3.93184242E+01   3.93184242E+01  -4.36194062E-01  -2.11219740E+00   3.93184242E+01   3.93184242E+01  -4.36194062E-01  -2.11219740E+00   4.14306221E+01  -1.22566767E+01   4.05406532E+01   1.07711685E+00   3.78051109E+01  -2.11219740E+00   7.60730076E+00
             1325                4   4.03320885E+01   3.91230202E+01   3.91230202E+01  -2.40790546E-01  -2.11219740E+00   3.91230202E+01   3.91230202E+01  -2.40790546E-01  -2.11219740E+00   4.12352180E+01  -1.22566767E+01   4.02342300E+01   1.29284358E+00   3.75893860E+01  -2.11219740E+00   7.61693001E+00
             1326                1   1.28389069E+02   1.55719833E+02   1.55719833E+02   2.59114971E+01   2.87987328E+01   1.55719833E+02   1.55719833E+02   2.87987328E+01   2.59114971E+01   1.29808334E+02  -7.01433563E+01   1.28315994E+02   2.66422977E+01   1.54989029E+02   2.87987328E+01   9.71240044E+00
             1326                2   1.28385910E+02   1.55717743E+02   1.55717743E+02   2.59135857E+01   2.87987328E+01   1.55717743E+02   1.55717743E+02   2.87987328E+01   2.59135857E+01   1.29804169E+02  -7.01433563E+01   1.28312927E+02   2.67443790E+01   1.54886948E+02   2.87987328E+01   1.03513775E+01
             1326                3   1.27425499E+02   1.55083740E+02   1.55083740E+02   2.65475864E+01   2.87987328E+01   1.55083740E+02   1.55083740E+02   2.87987328E+01   2.65475864E+01   1.28536163E+02  -7.01433563E+01   1.27380745E+02   2.72649670E+01   1.54366364E+02   2.87987328E+01   9.57574368E+00
             1326                4   1.27427849E+02   1.55085297E+02   1.55085297E+02   2.65460281E+01   2.87987328E+01   1.55085297E+02   1.55085297E+02   2.87987328E+01   2.65460281E+01   1.28539261E+02  -7.01433487E+01   1.27383034E+02   2.73638535E+01   1.54267471E+02   2.87987328E+01   1.02202473E+01
             1327                1   1.11429474E+02   1.23297783E+02   1.23297783E+02   1.18315687E+01   1.19050779E+01   1.23297783E+02   1.23297783E+02   1.19050779E+01   1.18315687E+01   1.11466209E+02  -4.90114746E+01   1.11429413E+02   1.18400526E+01   1.23289291E+02   1.19050779E+01   9.72479224E-01
             1327                2   1.11436226E+02   1.23302277E+02   1.23302277E+02   1.18270731E+01   1.19050779E+01   1.23302277E+02   1.23302277E+02   1.19050779E+01   1.18270731E+01   1.11475204E+02  -4.90114746E+01   1.11436157E+02   1.18379784E+01   1.23291367E+02   1.19050779E+01   1.10270107E+00
             1327                3   1.11234253E+02   1.23167633E+02   1.23167633E+02   1.19617147E+01   1.19050779E+01   1.23167633E+02   1.23167633E+02   1.19617147E+01   1.19050779E+01   1.11262558E+02  -4.90114746E+01   1.11234215E+02   1.19702578E+01   1.23159088E+02   1.19050779E+01   9.74829972E-01
             1327                4   1.11241241E+02   1.23172295E+02   1.23172295E+02   1.19570522E+01   1.19050779E+01   1.23172295E+02   1.23172295E+02   1.19570522E+01   1.19050779E+01   1.11267220E+02  -4.90114746E+01   1.11241219E+02   1.19680338E+01   1.23161316E+02   1.19050779E+01   1.10501623E+00
             1328                1   2.12882172E+02   2.13493576E+02   2.13493576E+02  -5.90218449E+00   7.78555107E+00   2.13493576E+02   2.13493576E+02   7.78555107E+00  -5.90218449E+00   2.19395752E+02  -7.17923126E+01   2.11888733E+02  -5.84793234E+00   2.13439316E+02   7.78555107E+00   3.44965363E+00
             1328                2   2.13132965E+02   2.13613235E+02   2.13613235E+02  -6.66835451E+00   8.43203259E+00   2.13613235E+02   2.13613235E+02   8.43203259E+00  -6.66835451E+00   2.20281601E+02  -7.17923050E+01   2.11924438E+02  -6.54430676E+00   2.13489197E+02   8.43203259E+00   5.22580147E+00
             1328                3   2.12399384E+02   2.13226273E+02   2.13226273E+02  -4.85412550E+00   7.00478697E+00   2.13226273E+02   2.13226273E+02   7.00478697E+00  -4.85412550E+00   2.18080399E+02  -7.17923126E+01   2.11652588E+02  -4.73216724E+00   2.13104309E+02   7.00478697E+00   5.15585995E+00
             1328                4   2.12772217E+02   2.13416321E+02   2.13416321E+02  -5.92280149E+00   7.88341475E+00   2.13416321E+02   2.13416321E+02   7.88341475E+00  -5.92280149E+00   2.19339111E+02  -7.17923050E+01   2.11760925E+02  -5.70493650E+00   2.13198456E+02   7.88341475E+00   6.90926456E+00
             1329                1   2.17957596E+02   2.24712814E+02   2.24712814E+02  -7.85197210E+00   2.51193714E+01   2.24712814E+02   2.24712814E+02   2.51193714E+01  -7.85197210E+00   2.32564789E+02  -8.06600723E+01   2.12237930E+02  -7.84982586E+00   2.24710663E+02   2.51193714E+01  -7.06997871E-01
             1329                2   2.18153427E+02   2.24596939E+02   2.24596939E+02  -9.34375858E+00   2.67270451E+01   2.24596939E+02   2.24596939E+02   2.67270451E+01  -9.34375858E+00   2.33940689E+02  -8.06600723E+01   2.11287521E+02  -9.26630783E+00   2.24519485E+02   2.67270451E+01   4.25581169E+00
             1329                3   2.17647217E+02   2.24802170E+02   2.24802170E+02  -5.81226587E+00   2.29903240E+01   2.24802170E+02   2.24802170E+02   2.29903240E+01  -5.81226587E+00   2.30614426E+02  -8.06600723E+01   2.13296280E+02  -5.76964426E+00   2.24759537E+02   2.29903240E+01   3.13509345E+00
             1329                4   2.17859909E+02   2.24707199E+02   2.24707199E+02  -7.45071888E+00   2.47237282E+01   2.24707199E+02   2.24707199E+02   2.47237282E+01  -7.45071888E+00   2.32157928E+02  -8.06600723E+01   2.12415985E+02  -7.16626978E+00   2.24422760E+02   2.47237282E+01   8.12126827E+00
             1330                1   2.18647217E+02   2.31589844E+02   2.31589844E+02  -3.03745461E+00   3.35350609E+01   2.31589844E+02   2.31589844E+02   3.35350609E+01  -3.03745461E+00   2.34627289E+02  -8.73624802E+01   2.11600998E+02  -3.03175354E+00   2.31584137E+02   3.35350609E+01  -1.15655315E+00
             1330                2   2.18787796E+02   2.31359299E+02   2.31359299E+02  -4.75360966E+00   3.54817581E+01   2.31359299E+02   2.31359299E+02   3.54817581E+01  -4.75360966E+00   2.36112900E+02  -8.73624802E+01   2.10220993E+02  -4.54858017E+00   2.31154266E+02   3.54817581E+01  -6.95464802E+00
             1330                3   2.18862671E+02   2.31307770E+02   2.31307770E+02  -5.26857233E+00   3.60482483E+01   2.31307770E+02   2.31307770E+02   3.60482483E+01  -5.26857233E+00   2.36576340E+02  -8.73624878E+01   2.09817566E+02  -5.22832346E+00   2.31267517E+02   3.60482483E+01   3.08573508E+00
             1330                4   2.18990494E+02   2.31065155E+02   2.31065155E+02  -6.79958534E+00   3.78218689E+01   2.31065155E+02   2.31065155E+02   3.78218689E+01  -6.79958534E+00   2.37864731E+02  -8.73624802E+01   2.08390854E+02  -6.77009153E+00   2.31035660E+02   3.78218689E+01  -2.64833903E+00
             1331                1   3.13840656E+01   3.05291939E+01   3.05291939E+01   8.99276044E-03  -1.65271509E+00   3.05291939E+01   3.05291939E+01   8.99276044E-03  -1.65271509E+00   3.21819077E+01  -9.62849045E+00   3.12848587E+01   7.61132315E-02   3.04620743E+01  -1.65271509E+00   1.42968893E+00
             1331                2   3.10116577E+01   3.02732620E+01   3.02732620E+01   2.64924079E-01  -1.65271509E+00   3.02732620E+01   3.02732620E+01   2.64924079E-01  -1.65271509E+00   3.19259777E+01  -9.62849045E+00   3.08778400E+01   3.23120892E-01   3.02150669E+01  -1.65271509E+00   1.32021952E+00
             1331                3   3.15139866E+01   3.06181850E+01   3.06181850E+01  -7.99960420E-02  -1.65271509E+00   3.06181850E+01   3.06181850E+01  -7.99960420E-02  -1.65271509E+00   3.22709007E+01  -9.62849140E+00   3.14255104E+01  -3.44048478E-02   3.05725937E+01  -1.65271509E+00   1.18215525E+00
             1331                4   3.11431293E+01   3.03637619E+01   3.03637619E+01   1.74427614E-01  -1.65271509E+00   3.03637619E+01   3.03637619E+01   1.74427614E-01  -1.65271509E+00   3.20164757E+01  -9.62849140E+00   3.10221939E+01   2.12582693E-01   3.03256054E+01  -1.65271509E+00   1.07258844E+00
             1332                1   2.16707230E+02   2.27400726E+02   2.27400726E+02  -6.82923257E-01   2.42218933E+01   2.27400726E+02   2.27400726E+02   2.42218933E+01  -6.82923257E-01   2.28083649E+02  -8.36465683E+01   2.13451965E+02  -6.28449857E-01   2.27346252E+02   2.42218933E+01   3.52446318E+00
             1332                2   2.16609863E+02   2.27444595E+02   2.27444595E+02   2.78531104E-01   2.32165565E+01   2.27444595E+02   2.27444595E+02   2.32165565E+01   2.78531104E-01   2.27166061E+02  -8.36465607E+01   2.13851837E+02   2.79088140E-01   2.27444046E+02   2.32165565E+01   3.54157090E-01
             1332                3   2.16830795E+02   2.27316284E+02   2.27316284E+02  -2.01302123E+00   2.56364250E+01   2.27316284E+02   2.27316284E+02   2.56364250E+01  -2.01302123E+00   2.29329315E+02  -8.36465683E+01   2.12810455E+02  -2.00469518E+00   2.27307968E+02   2.56364250E+01   1.38141870E+00
             1332                4   2.16738281E+02   2.27369659E+02   2.27369659E+02  -1.10864913E+00   2.46786709E+01   2.27369659E+02   2.27369659E+02   2.46786709E+01  -1.10864913E+00   2.28478317E+02  -8.36465607E+01   2.13245956E+02  -1.09500051E+00   2.27356018E+02   2.46786709E+01  -1.76580381E+00
             1333                1   1.56735031E+02   1.61991806E+02   1.61991806E+02   5.53044558E+00   4.98452377E+00   1.61991806E+02   1.61991806E+02   5.53044558E+00   4.98452377E+00   1.57007278E+02  -5.75022583E+01   1.56732895E+02   5.53436565E+00   1.61987885E+02   4.98452377E+00   7.82879710E-01
             1333                2   1.56498672E+02   1.61833923E+02   1.61833923E+02   5.68832970E+00   4.98452377E+00   1.61833923E+02   1.61833923E+02   5.68832970E+00   4.98452377E+00   1.56849396E+02  -5.75022583E+01   1.56495117E+02   5.68922377E+00   1.61833023E+02   4.98452377E+00  -3.73775512E-01
             1333                3   1.58468262E+02   1.63147186E+02   1.63147186E+02   4.37506580E+00   4.98452377E+00   1.63147186E+02   1.63147186E+02   4.98452377E+00   4.37506580E+00   1.58772110E+02  -5.75022583E+01   1.58465622E+02   4.37754011E+00   1.63144714E+02   4.98452377E+00   6.25844836E-01
             1333                4   1.58233841E+02   1.62991150E+02   1.62991150E+02   4.53109026E+00   4.98452377E+00   1.62991150E+02   1.62991150E+02   4.98452377E+00   4.53109026E+00   1.58460068E+02  -5.75022583E+01   1.58232376E+02   4.53286314E+00   1.62989380E+02   4.98452377E+00  -5.30685842E-01
             1334                1   2.99535866E+01   2.79192162E+01   2.79192162E+01   1.92575589E-01  -3.85059476E+00   2.79192162E+01   2.79192162E+01   1.92575589E-01  -3.85059476E+00   3.17698116E+01  -8.08706570E+00   2.93302402E+01   2.28902385E-01   2.78828888E+01  -3.85059476E+00   1.00295174E+00
             1334                2   3.02881832E+01   2.81594601E+01   2.81594601E+01  -4.76708673E-02  -3.85059476E+00   2.81594601E+01   2.81594601E+01  -4.76708673E-02  -3.85059476E+00   3.20100555E+01  -8.08706474E+00   2.97439442E+01  -4.59012110E-03   2.81163807E+01  -3.85059476E+00   1.10150075E+00
             1334                3   2.98426685E+01   2.78392487E+01   2.78392487E+01   2.72541672E-01  -3.85059476E+00   2.78392487E+01   2.78392487E+01   2.72541672E-01  -3.85059476E+00   3.16898422E+01  -8.08706474E+00   2.91915302E+01   3.28138798E-01   2.77836514E+01  -3.85059476E+00   1.23674023E+00
             1334                4   3.01785069E+01   2.80808716E+01   2.80808716E+01   3.09201777E-02  -3.85059476E+00   2.80808716E+01   2.80808716E+01   3.09201777E-02  -3.85059476E+00   3.19314671E+01  -8.08706570E+00   2.96091042E+01   9.46294665E-02   2.80171623E+01  -3.85059476E+00   1.33528221E+00
             1335                1   1.16074158E+02   1.40440994E+02   1.40440994E+02   2.43184967E+01   2.44152336E+01   1.40440994E+02   1.40440994E+02   2.44152336E+01   2.43184967E+01   1.16122498E+02  -6.30582428E+01   1.16074066E+02   2.43561707E+01   1.40403320E+02   2.44152336E+01   2.09124303E+00
             1335                2   1.15931488E+02   1.40345901E+02   1.40345901E+02   2.44135914E+01   2.44152336E+01   1.40345901E+02   1.40345901E+02   2.44152336E+01   2.44135914E+01   1.15932312E+02  -6.30582428E+01   1.15931496E+02   2.44475918E+01   1.40311905E+02   2.44152336E+01   1.98504436E+00
             1335                3   1.16229782E+02   1.40544678E+02   1.40544678E+02   2.42148113E+01   2.44152336E+01   1.40544678E+02   1.40544678E+02   2.44152336E+01   2.42148113E+01   1.16329865E+02  -6.30582428E+01   1.16229385E+02   2.42492313E+01   1.40510254E+02   2.44152336E+01   2.00076079E+00
             1335                4   1.16087326E+02   1.40449768E+02   1.40449768E+02   2.43097191E+01   2.44152336E+01   1.40449768E+02   1.40449768E+02   2.44152336E+01   2.43097191E+01   1.16140053E+02  -6.30582428E+01   1.16087212E+02   2.43406315E+01   1.40418854E+02   2.44152336E+01   1.89459085E+00
             1336                1   1.66695663E+02   1.67024994E+02   1.67024994E+02  -5.96358359E-01   1.27071929E+00   1.67024994E+02   1.67024994E+02   1.27071929E+00  -5.96358359E-01   1.67621353E+02  -5.58997841E+01   1.66672119E+02  -5.80815911E-01   1.67009445E+02   1.27071929E+00   1.61427999E+00
             1336                2   1.65926651E+02   1.66517517E+02   1.66517517E+02   6.51299059E-01   5.30526102E-01   1.66517517E+02   1.66517517E+02   6.51299059E-01   5.30526102E-01   1.65987000E+02  -5.58997841E+01   1.65926544E+02   6.86510324E-01   1.66482315E+02   5.30526102E-01   2.41635418E+00
             1336                3   1.66284271E+02   1.66754089E+02   1.66754089E+02  -8.51753354E-02   1.03042889E+00   1.66754089E+02   1.66754089E+02   1.03042889E+00  -8.51753354E-02   1.66839264E+02  -5.58997803E+01   1.66275848E+02  -8.42984393E-02   1.66753220E+02   1.03042889E+00  -3.81100297E-01
             1336                4   1.65503113E+02   1.66233963E+02   1.66233963E+02   1.18357706E+00   2.81807423E-01   1.66233963E+02   1.66233963E+02   1.18357706E+00   2.81807423E-01   1.65952164E+02  -5.58997841E+01   1.65497574E+02   1.18457019E+00   1.66232971E+02   2.81807423E-01   4.04890120E-01
             1337                1   9.46086197E+01   9.08386230E+01   9.08386230E+01  -3.80307102E+00  -3.73689461E+00   9.08386230E+01   9.08386230E+01  -3.73689461E+00  -3.80307102E+00   9.46416931E+01  -2.77662201E+01   9.46085739E+01  -2.98678374E+00   9.00223389E+01  -3.73689461E+00   8.75147343E+00
             1337                2   9.47804565E+01   9.09531021E+01   9.09531021E+01  -3.91754889E+00  -3.73689461E+00   9.09531021E+01   9.09531021E+01  -3.73689461E+00  -3.91754889E+00   9.48706512E+01  -2.77662201E+01   9.47800674E+01  -3.05178809E+00   9.00873413E+01  -3.73689461E+00   9.02140427E+00
             1337                3   9.42393570E+01   9.05923691E+01   9.05923691E+01  -3.55681825E+00  -3.73689461E+00   9.05923691E+01   9.05923691E+01  -3.55681825E+00  -3.73689461E+00   9.43292694E+01  -2.77662201E+01   9.42389679E+01  -2.72384191E+00   8.97593918E+01  -3.73689461E+00   8.81648922E+00
             1337                4   9.44111176E+01   9.07069550E+01   9.07069550E+01  -3.67140126E+00  -3.73689461E+00   9.07069550E+01   9.07069550E+01  -3.67140126E+00  -3.73689461E+00   9.44438477E+01  -2.77662201E+01   9.44110641E+01  -2.78855896E+00   8.98241119E+01  -3.73689461E+00   9.08525085E+00
             1338                1   8.68393707E+01   8.15968475E+01   8.15968475E+01  -4.97710991E+00  -5.50553274E+00   8.15968475E+01   8.15968475E+01  -4.97710991E+00  -5.50553274E+00   8.71023788E+01  -2.37047348E+01   8.68357544E+01  -3.34243035E+00   7.99621658E+01  -5.50553274E+00   1.17833996E+01
             1338                2   8.73720932E+01   8.19527054E+01   8.19527054E+01  -5.33297300E+00  -5.50553274E+00   8.19527054E+01   8.19527054E+01  -5.33297300E+00  -5.50553274E+00   8.74582443E+01  -2.37047348E+01   8.73717041E+01  -3.73785782E+00   8.03575897E+01  -5.50553274E+00   1.16913071E+01
             1338                3   8.71243820E+01   8.17873306E+01   8.17873306E+01  -5.16759300E+00  -5.50553274E+00   8.17873306E+01   8.17873306E+01  -5.16759300E+00  -5.50553274E+00   8.72928619E+01  -2.37047348E+01   8.71229095E+01  -3.42616391E+00   8.00458984E+01  -5.50553274E+00   1.21816807E+01
             1338                4   8.76562881E+01   8.21422577E+01   8.21422577E+01  -5.52252102E+00  -5.50553274E+00   8.21422577E+01   8.21422577E+01  -5.50553274E+00  -5.52252102E+00   8.76647797E+01  -2.37047348E+01   8.76562805E+01  -3.82156563E+00   8.04412994E+01  -5.50553274E+00   1.20921793E+01
             1339                1   4.53535881E+01   4.22183266E+01   4.22183266E+01  -1.97444963E+00  -4.21315765E+00   4.22183266E+01   4.22183266E+01  -1.97444963E+00  -4.21315765E+00   4.64314842E+01  -1.20102396E+01   4.52290230E+01   1.91294104E-02   4.02247467E+01  -4.21315765E+00   9.17210388E+00
             1339                2   4.49711380E+01   4.19562111E+01   4.19562111E+01  -1.71233726E+00  -4.21315765E+00   4.19562111E+01   4.19562111E+01  -1.71233726E+00  -4.21315765E+00   4.61693687E+01  -1.20102386E+01   4.48142929E+01   3.24478447E-01   3.99193954E+01  -4.21315765E+00   9.20848274E+00
             1339                3   4.51136932E+01   4.20540199E+01   4.20540199E+01  -1.81014466E+00  -4.21315765E+00   4.20540199E+01   4.20540199E+01  -1.81014466E+00  -4.21315765E+00   4.62671776E+01  -1.20102386E+01   4.49693642E+01   5.01651131E-02   4.01937103E+01  -4.21315765E+00   8.83968925E+00
             1339                4   4.47308998E+01   4.17910919E+01   4.17910919E+01  -1.54721284E+00  -4.21315765E+00   4.17910919E+01   4.17910919E+01  -1.54721284E+00  -4.21315765E+00   4.60042496E+01  -1.20102396E+01   4.45516281E+01   3.53128582E-01   3.98907471E+01  -4.21315765E+00   8.87391376E+00
             1340                1   1.44484024E+02   1.60818665E+02   1.60818665E+02   1.59574823E+01   1.67147942E+01   1.60818665E+02   1.60818665E+02   1.67147942E+01   1.59574823E+01   1.44861191E+02  -6.44969864E+01   1.44479553E+02   1.59760342E+01   1.60800125E+02   1.67147942E+01   1.63898480E+00
             1340                2   1.43190063E+02   1.59957016E+02   1.59957016E+02   1.68191452E+01   1.67147942E+01   1.59957016E+02   1.59957016E+02   1.68191452E+01   1.67147942E+01   1.43242218E+02  -6.44969864E+01   1.43189987E+02   1.68454800E+01   1.59930679E+02   1.67147942E+01   1.94116592E+00
             1340                3   1.44016708E+02   1.60507767E+02   1.60507767E+02   1.62683811E+01   1.67147942E+01   1.60507767E+02   1.60507767E+02   1.67147942E+01   1.62683811E+01   1.44239395E+02  -6.44969864E+01   1.44015152E+02   1.62724800E+01   1.60503677E+02   1.67147942E+01   7.68523693E-01
             1340                4   1.42719254E+02   1.59642853E+02   1.59642853E+02   1.71333046E+01   1.67147942E+01   1.59642853E+02   1.59642853E+02   1.71333046E+01   1.67147942E+01   1.42928055E+02  -6.44969864E+01   1.42717880E+02   1.71413479E+01   1.59634811E+02   1.67147942E+01   1.07023680E+00
             1341                1   1.00288589E+02   9.88289490E+01   9.88289490E+01  -1.45797896E+00  -1.46129942E+00   9.88289490E+01   9.88289490E+01  -1.45797896E+00  -1.46129942E+00   1.00290253E+02  -3.19698925E+01   1.00288589E+02  -1.32145596E+00   9.86924286E+01  -1.46129942E+00   3.69766688E+00
             1341                2   1.00243988E+02   9.87992172E+01   9.87992172E+01  -1.42824209E+00  -1.46129942E+00   9.87992172E+01   9.87992172E+01  -1.42824209E+00  -1.46129942E+00   1.00260513E+02  -3.19698925E+01   1.00243973E+02  -1.29831266E+00   9.86692810E+01  -1.46129942E+00   3.60637617E+00
             1341                3   1.00422264E+02   9.89180450E+01   9.89180450E+01  -1.54707539E+00  -1.46129942E+00   9.89180450E+01   9.89180450E+01  -1.46129942E+00  -1.54707539E+00   1.00465126E+02  -3.19698925E+01   1.00422173E+02  -1.41248608E+00   9.87834549E+01  -1.46129942E+00   3.67473936E+00
             1341                4   1.00377663E+02   9.88883209E+01   9.88883209E+01  -1.51735270E+00  -1.46129942E+00   9.88883209E+01   9.88883209E+01  -1.46129942E+00  -1.51735270E+00   1.00405678E+02  -3.19698925E+01   1.00377625E+02  -1.38930631E+00   9.87602768E+01  -1.46129942E+00   3.58333707E+00
             1342                1   1.11286140E+02   1.23193604E+02   1.23193604E+02   1.19147615E+01   1.19001608E+01   1.23193604E+02   1.23193604E+02   1.19147615E+01   1.19001608E+01   1.11293442E+02  -4.90028419E+01   1.11286133E+02   1.19624252E+01   1.23145935E+02   1.19001608E+01   2.30262494E+00
             1342                2   1.11473946E+02   1.23318779E+02   1.23318779E+02   1.17895870E+01   1.19001608E+01   1.23318779E+02   1.23318779E+02   1.19001608E+01   1.17895870E+01   1.11529198E+02  -4.90028419E+01   1.11473816E+02   1.18369856E+01   1.23271378E+02   1.19001608E+01   2.29874659E+00
             1342                3   1.11298836E+02   1.23202065E+02   1.23202065E+02   1.19063044E+01   1.19001608E+01   1.23202065E+02   1.23202065E+02   1.19063044E+01   1.19001608E+01   1.11301903E+02  -4.90028419E+01   1.11298828E+02   1.19593010E+01   1.23149063E+02   1.19001608E+01   2.42814803E+00
             1342                4   1.11486679E+02   1.23327263E+02   1.23327263E+02   1.17811012E+01   1.19001608E+01   1.23327263E+02   1.23327263E+02   1.19001608E+01   1.17811012E+01   1.11546165E+02  -4.90028419E+01   1.11486534E+02   1.18338118E+01   1.23274551E+02   1.19001608E+01   2.42424059E+00
             1343                1   2.27266407E+01   1.56395321E+01   1.56395321E+01  -1.16910204E-01  -1.04128752E+01   1.56395321E+01   1.56395321E+01  -1.16910204E-01  -1.04128752E+01   2.60524082E+01  -1.70324898E+00   1.60688438E+01  -8.98267180E-02   1.56124487E+01  -1.04128752E+01   6.52692854E-01
             1343                2   2.26208248E+01   1.55373564E+01   1.55373564E+01  -1.47341806E-02  -1.04128752E+01   1.55373564E+01   1.55373564E+01  -1.47341806E-02  -1.04128752E+01   2.59502316E+01  -1.70324898E+00   1.57237396E+01   4.45010886E-02   1.54781208E+01  -1.04128752E+01   9.57980573E-01
             1343                3   2.24041824E+01   1.53253994E+01   1.53253994E+01   1.97222486E-01  -1.04128752E+01   1.53253994E+01   1.53253994E+01   1.97222486E-01  -1.04128752E+01   2.57382755E+01  -1.70324898E+00   1.49712687E+01   2.15021819E-01   1.53076000E+01  -1.04128752E+01   5.18612325E-01
             1343                4   2.22965183E+01   1.52186050E+01   1.52186050E+01   3.04016739E-01  -1.04128752E+01   1.52186050E+01   1.52186050E+01   3.04016739E-01  -1.04128752E+01   2.56314812E+01  -1.70324898E+00   1.45704041E+01   3.49740982E-01   1.51728811E+01  -1.04128752E+01   8.24540854E-01
             1344                1   2.06296143E+02   1.78618637E+02   1.78618637E+02  -3.02783432E+01  -2.49743881E+01   1.78618637E+02   1.78618637E+02  -2.49743881E+01  -3.02783432E+01   2.08896973E+02  -4.11219673E+01   2.06142639E+02  -3.01231270E+01   1.78463409E+02  -2.49743881E+01  -5.69218493E+00
             1344                2   2.07006775E+02   1.79021500E+02   1.79021500E+02  -3.24885559E+01  -2.31670475E+01   1.79021500E+02   1.79021500E+02  -2.31670475E+01  -3.24885559E+01   2.11510056E+02  -4.11219673E+01   2.06533768E+02  -3.21236305E+01   1.78656570E+02  -2.31670475E+01  -8.77800560E+00
             1344                3   2.06911682E+02   1.78981628E+02   1.78981628E+02  -3.19124355E+01  -2.37033005E+01   1.78981628E+02   1.78981628E+02  -2.37033005E+01  -3.19124355E+01   2.10894073E+02  -4.11219673E+01   2.06544800E+02  -3.18966255E+01   1.78965820E+02  -2.37033005E+01  -1.82612491E+00
             1344                4   2.07584900E+02   1.79337067E+02   1.79337067E+02  -3.40079689E+01  -2.19632263E+01   1.79337067E+02   1.79337067E+02  -2.19632263E+01  -3.40079689E+01   2.13345032E+02  -4.11219597E+01   2.06796524E+02  -3.38936539E+01   1.79222763E+02  -2.19632263E+01  -4.93696642E+00
             1345                1   1.05841217E+02   1.09422127E+02   1.09422127E+02   3.33713508E+00   3.82637596E+00   1.09422127E+02   1.09422127E+02   3.82637596E+00   3.33713508E+00   1.06084991E+02  -3.88618813E+01   1.05838676E+02   4.33786678E+00   1.08421394E+02   3.82637596E+00   1.02548161E+01
             1345                2   1.05845215E+02   1.09424782E+02   1.09424782E+02   3.33447289E+00   3.82637596E+00   1.09424782E+02   1.09424782E+02   3.82637596E+00   3.33447289E+00   1.06090309E+02  -3.88618774E+01   1.05842644E+02   4.37729740E+00   1.08381958E+02   3.82637596E+00   1.04664221E+01
             1345                3   1.05525185E+02   1.09211815E+02   1.09211815E+02   3.54743814E+00   3.82637596E+00   1.09211815E+02   1.09211815E+02   3.82637596E+00   3.54743814E+00   1.05664375E+02  -3.88618774E+01   1.05524353E+02   4.54319906E+00   1.08216057E+02   3.82637596E+00   1.02090530E+01
             1345                4   1.05529167E+02   1.09214470E+02   1.09214470E+02   3.54478812E+00   3.82637596E+00   1.09214470E+02   1.09214470E+02   3.82637596E+00   3.54478812E+00   1.05669678E+02  -3.88618774E+01   1.05528320E+02   4.58257484E+00   1.08176682E+02   3.82637596E+00   1.04204311E+01
             1346                1   2.63369465E+01   2.09173260E+01   2.09173260E+01   8.66801478E-03  -8.66174507E+00   2.09173260E+01   2.09173260E+01   8.66801478E-03  -8.66174507E+00   2.95790710E+01  -4.08808327E+00   2.27771931E+01   2.02873856E-01   2.07231216E+01  -8.66174507E+00   2.00570560E+00
             1346                2   2.59827633E+01   2.06176071E+01   2.06176071E+01   3.08388203E-01  -8.66174507E+00   2.06176071E+01   2.06176071E+01   3.08388203E-01  -8.66174507E+00   2.92793522E+01  -4.08808327E+00   2.20725117E+01   4.85878795E-01   2.04401169E+01  -8.66174507E+00   1.89028478E+00
             1346                3   2.64132538E+01   2.09813023E+01   2.09813023E+01  -5.53072840E-02  -8.66174507E+00   2.09813023E+01   2.09813023E+01  -5.53072840E-02  -8.66174507E+00   2.96430473E+01  -4.08808327E+00   2.29246197E+01   8.67448375E-02   2.08392506E+01  -8.66174507E+00   1.72281897E+00
             1346                4   2.60601139E+01   2.06834641E+01   2.06834641E+01   2.42532685E-01  -8.66174507E+00   2.06834641E+01   2.06834641E+01   2.42532685E-01  -8.66174507E+00   2.93452091E+01  -4.08808374E+00   2.22294121E+01   3.69725555E-01   2.05562706E+01  -8.66174507E+00   1.60741258E+00
             1347                1   2.80277634E+01   3.82401886E+01   3.82401886E+01   8.43999958E+00   1.24077034E+01   3.82401886E+01   3.82401886E+01   1.24077034E+01   8.43999958E+00   2.98001881E+01  -1.96959629E+01   2.73852253E+01   1.27742758E+01   3.39059105E+01   1.24077034E+01   1.05060129E+01
             1347                2   2.77797775E+01   3.80845718E+01   3.80845718E+01   8.59561634E+00   1.24077034E+01   3.80845718E+01   3.80845718E+01   1.24077034E+01   8.59561634E+00   2.94889545E+01  -1.96959629E+01   2.71819744E+01   1.27894402E+01   3.38907471E+01   1.24077034E+01   1.02996759E+01
             1347                3   2.82469540E+01   3.83775253E+01   3.83775253E+01   8.30265713E+00   1.24077034E+01   3.83775253E+01   3.83775253E+01   1.24077034E+01   8.30265713E+00   3.00748692E+01  -1.96959629E+01   2.75638714E+01   1.25672092E+01   3.41129761E+01   1.24077034E+01   1.04913969E+01
             1347                4   2.80009308E+01   3.82233620E+01   3.82233620E+01   8.45682621E+00   1.24077034E+01   3.82233620E+01   3.82233620E+01   1.24077034E+01   8.45682621E+00   2.97665348E+01  -1.96959629E+01   2.73632927E+01   1.25823221E+01   3.40978661E+01   1.24077034E+01   1.02850370E+01
             1348                1   8.26928635E+01   7.68086548E+01   7.68086548E+01  -5.57102633E+00  -6.19387484E+00   7.68086548E+01   7.68086548E+01  -5.57102633E+00  -6.19387484E+00   8.30025253E+01  -2.16812496E+01   8.26875839E+01  -4.10713387E+00   7.53447571E+01  -6.19387484E+00   1.08835735E+01
             1348                2   8.31843643E+01   7.71372299E+01   7.71372299E+01  -5.89961338E+00  -6.19387484E+00   7.71372299E+01   7.71372299E+01  -5.89961338E+00  -6.19387484E+00   8.33311081E+01  -2.16812458E+01   8.31831970E+01  -4.47763634E+00   7.57152557E+01  -6.19387484E+00   1.07728500E+01
             1348                3   8.29940414E+01   7.70100784E+01   7.70100784E+01  -5.77245140E+00  -6.19387484E+00   7.70100784E+01   7.70100784E+01  -5.77245140E+00  -6.19387484E+00   8.32039490E+01  -2.16812496E+01   8.29916382E+01  -4.21125889E+00   7.54488831E+01  -6.19387484E+00   1.12606497E+01
             1348                4   8.34833755E+01   7.73368073E+01   7.73368073E+01  -6.09918785E+00  -6.19387484E+00   7.73368073E+01   7.73368073E+01  -6.09918785E+00  -6.19387484E+00   8.35306778E+01  -2.16812458E+01   8.34832611E+01  -4.58170891E+00   7.58193283E+01  -6.19387484E+00   1.11494160E+01
             1349                1   7.81953812E+01   7.21372528E+01   7.21372528E+01  -5.39005232E+00  -6.70950794E+00   7.21372528E+01   7.21372528E+01  -5.39005232E+00  -6.70950794E+00   7.88467636E+01  -2.00125637E+01   7.81703262E+01  -2.39057064E+00   6.91377716E+01  -6.70950794E+00   1.49514132E+01
             1349                2   7.89328537E+01   7.26323090E+01   7.26323090E+01  -5.88511181E+00  -6.70950794E+00   7.26323090E+01   7.26323090E+01  -5.88511181E+00  -6.70950794E+00   7.93418198E+01  -2.00125637E+01   7.89231644E+01  -2.95409608E+00   6.97012939E+01  -6.70950794E+00   1.48843918E+01
             1349                3   7.85997162E+01   7.24088821E+01   7.24088821E+01  -5.66168022E+00  -6.70950794E+00   7.24088821E+01   7.24088821E+01  -5.66168022E+00  -6.70950794E+00   7.91183853E+01  -2.00125637E+01   7.85839920E+01  -2.44601488E+00   6.91932144E+01  -6.70950794E+00   1.55147781E+01
             1349                4   7.93337402E+01   7.29007492E+01   7.29007492E+01  -6.15354919E+00  -6.70950794E+00   7.29007492E+01   7.29007492E+01  -6.15354919E+00  -6.70950794E+00   7.96102600E+01  -2.00125637E+01   7.93293533E+01  -3.00695896E+00   6.97541580E+01  -6.70950794E+00   1.54547892E+01
             1350                1   1.45392776E+02   1.75165604E+02   1.75165604E+02   2.69853363E+01   3.27306519E+01   1.75165604E+02   1.75165604E+02   3.27306519E+01   2.69853363E+01   1.48180267E+02  -7.82938614E+01   1.45137039E+02   2.95013123E+01   1.72649628E+02   3.27306519E+01   1.91438694E+01
             1350                2   1.47149185E+02   1.76312576E+02   1.76312576E+02   2.58383598E+01   3.27306519E+01   1.76312576E+02   1.76312576E+02   3.27306519E+01   2.58383598E+01   1.50474228E+02  -7.82938614E+01   1.46785355E+02   2.78792591E+01   1.74271683E+02   3.27306519E+01   1.74050941E+01
             1350                3   1.47966171E+02   1.76844803E+02   1.76844803E+02   2.53061371E+01   3.27306519E+01   1.76844803E+02   1.76844803E+02   3.27306519E+01   2.53061371E+01   1.51538666E+02  -7.82938614E+01   1.47546219E+02   2.83104935E+01   1.73840454E+02   3.27306519E+01   2.11246071E+01
             1350                4   1.49376663E+02   1.77761780E+02   1.77761780E+02   2.43891544E+01   3.27306519E+01   1.77761780E+02   1.77761780E+02   3.27306519E+01   2.43891544E+01   1.53372635E+02  -7.82938614E+01   1.48851288E+02   2.69226665E+01   1.75228271E+02   3.27306519E+01   1.95487347E+01
             1351                1   7.09125061E+01   6.48574295E+01   6.48574295E+01  -5.82699680E+00  -6.28098106E+00   6.48574295E+01   6.48574295E+01  -5.82699680E+00  -6.28098106E+00   7.11384125E+01  -1.75831509E+01   7.09092407E+01  -4.25072336E+00   6.32811584E+01  -6.28098106E+00   1.04371090E+01
             1351                2   7.04707565E+01   6.45616608E+01   6.45616608E+01  -5.53122807E+00  -6.28098106E+00   6.45616608E+01   6.45616608E+01  -5.53122807E+00  -6.28098106E+00   7.08426437E+01  -1.75831509E+01   7.04617844E+01  -3.90199208E+00   6.29324265E+01  -6.28098106E+00   1.05614109E+01
             1351                3   7.05878067E+01   6.46400909E+01   6.46400909E+01  -5.60965872E+00  -6.28098106E+00   6.46400909E+01   6.46400909E+01  -5.60965872E+00  -6.28098106E+00   7.09210739E+01  -1.75831509E+01   7.05806274E+01  -4.12998629E+00   6.31604195E+01  -6.28098106E+00   1.00874786E+01
             1351                4   7.01437912E+01   6.43423309E+01   6.43423309E+01  -5.31189585E+00  -6.28098106E+00   6.43423309E+01   6.43423309E+01  -5.31189585E+00  -6.28098106E+00   7.06233139E+01  -1.75831509E+01   7.01287231E+01  -3.78124976E+00   6.28116837E+01  -6.28098106E+00   1.02114182E+01
             1352                1   2.19476364E+02   1.91403702E+02   1.91403702E+02  -4.12199020E+01  -1.19975290E+01   1.91403702E+02   1.91403702E+02  -1.19975290E+01  -4.12199020E+01   2.32623611E+02  -4.60620918E+01   2.15034195E+02  -4.11483002E+01   1.91332108E+02  -1.19975290E+01   4.08055735E+00
             1352                2   2.19075363E+02   1.91468475E+02   1.91468475E+02  -3.85045929E+01  -1.47776175E+01   1.91468475E+02   1.91468475E+02  -1.47776175E+01  -3.85045929E+01   2.29973068E+02  -4.60620880E+01   2.16156296E+02  -3.85011597E+01   1.91465042E+02  -1.47776175E+01  -8.88485730E-01
             1352                3   2.19565155E+02   1.91125366E+02   1.91125366E+02  -4.34137039E+01  -9.52539539E+00   1.91125366E+02   1.91125366E+02  -9.52539539E+00  -4.34137039E+01   2.34539062E+02  -4.60620880E+01   2.13562302E+02  -4.34040184E+01   1.91115677E+02  -9.52539539E+00  -1.50693762E+00
             1352                4   2.19429260E+02   1.91385330E+02   1.91385330E+02  -4.11115608E+01  -1.20874977E+01   1.91385330E+02   1.91385330E+02  -1.20874977E+01  -4.11115608E+01   2.32496887E+02  -4.60620918E+01   2.15047089E+02  -4.09237671E+01   1.91197540E+02  -1.20874977E+01  -6.60499239E+00
             1353                1   2.09149429E+02   2.02872925E+02   2.02872925E+02  -1.16609526E+01  -4.40335423E-01   2.02872925E+02   2.02872925E+02  -4.40335423E-01  -1.16609526E+01   2.14533875E+02  -6.35905457E+01   2.08470627E+02  -1.12776051E+01   2.02489578E+02  -4.40335423E-01   9.06059837E+00
             1353                2   2.08645355E+02   2.02589828E+02   2.02589828E+02  -1.04215937E+01  -1.39659512E+00   2.02589828E+02   2.02589828E+02  -1.39659512E+00  -1.04215937E+01   2.13011414E+02  -6.35905457E+01   2.08205505E+02  -1.02416067E+01   2.02409836E+02  -1.39659512E+00   6.18923235E+00
             1353                3   2.09668884E+02   2.03157578E+02   2.03157578E+02  -1.28610620E+01   4.75129724E-01   2.03157578E+02   2.03157578E+02   4.75129724E-01  -1.28610620E+01   2.16018631E+02  -6.35905457E+01   2.08711426E+02  -1.26673346E+01   2.02963837E+02   4.75129724E-01   6.46627331E+00
             1353                4   2.09185486E+02   2.02897354E+02   2.02897354E+02  -1.16663809E+01  -4.59338158E-01   2.02897354E+02   2.02897354E+02  -4.59338158E-01  -1.16663809E+01   2.14563736E+02  -6.35905457E+01   2.08508438E+02  -1.16065226E+01   2.02837494E+02  -4.59338158E-01   3.58328891E+00
             1354                1   1.03593582E+02   1.04498337E+02   1.04498337E+02   8.34927142E-01   9.74735022E-01   1.04498337E+02   1.04498337E+02   9.74735022E-01   8.34927142E-01   1.03663414E+02  -3.54360008E+01   1.03593369E+02   1.09833729E+00   1.04234932E+02   9.74735022E-01   5.21885061E+00
             1354                2   1.03591835E+02   1.04497177E+02   1.04497177E+02   8.36091638E-01   9.74735022E-01   1.04497177E+02   1.04497177E+02   9.74735022E-01   8.36091638E-01   1.03661087E+02  -3.54360008E+01   1.03591629E+02   1.11142600E+00   1.04221840E+02   9.74735022E-01   5.33533382E+00
             1354                3   1.03418968E+02   1.04381981E+02   1.04381981E+02   9.51288044E-01   9.74735022E-01   1.04381981E+02   1.04381981E+02   9.74735022E-01   9.51288044E-01   1.03430695E+02  -3.54360008E+01   1.03418968E+02   1.21389484E+00   1.04119370E+02   9.74735022E-01   5.20508766E+00
             1354                4   1.03417206E+02   1.04380798E+02   1.04380798E+02   9.52457964E-01   9.74735022E-01   1.04380798E+02   1.04380798E+02   9.74735022E-01   9.52457964E-01   1.03428345E+02  -3.54359970E+01   1.03417206E+02   1.22698581E+00   1.04106277E+02   9.74735022E-01   5.32148600E+00
             1355                1   2.17224335E+02   2.26491821E+02   2.26491821E+02  -3.12560630E+00   2.42572079E+01   2.26491821E+02   2.26491821E+02   2.42572079E+01  -3.12560630E+00   2.29617416E+02  -8.25411377E+01   2.13289536E+02  -2.98178053E+00   2.26347992E+02   2.42572079E+01   5.74491978E+00
             1355                2   2.17026062E+02   2.26503403E+02   2.26503403E+02  -1.94020033E+00   2.30602245E+01   2.26503403E+02   2.26503403E+02   2.30602245E+01  -1.94020033E+00   2.28443604E+02  -8.25411453E+01   2.13750412E+02  -1.92289925E+00   2.26486099E+02   2.30602245E+01   1.98808026E+00
             1355                3   2.17510590E+02   2.26471222E+02   2.26471222E+02  -4.70082188E+00   2.58530293E+01   2.26471222E+02   2.26471222E+02   2.58530293E+01  -4.70082188E+00   2.31172043E+02  -8.25411453E+01   2.12602127E+02  -4.65735388E+00   2.26427750E+02   2.58530293E+01   3.16983962E+00
             1355                4   2.17323959E+02   2.26497894E+02   2.26497894E+02  -3.59959745E+00   2.47251129E+01   2.26497894E+02   2.26497894E+02   2.47251129E+01  -3.59959745E+00   2.30097488E+02  -8.25411377E+01   2.13111832E+02  -3.59827828E+00   2.26496582E+02   2.47251129E+01  -5.50196767E-01
             1356                1   3.39143448E+01   3.48387375E+01   3.48387375E+01   2.92633414E-01   1.59359026E+00   3.48387375E+01   3.48387375E+01   1.59359026E+00   2.92633414E-01   3.45461044E+01  -1.22416534E+01   3.38581352E+01   5.29573441E-01   3.46017990E+01   1.59359026E+00   2.85116625E+00
             1356                2   3.42006874E+01   3.50259209E+01   3.50259209E+01   1.05455130E-01   1.59359026E+00   3.50259209E+01   3.50259209E+01   1.59359026E+00   1.05455130E-01   3.49204636E+01  -1.22416544E+01   3.41277313E+01   3.60156983E-01   3.47712173E+01   1.59359026E+00   2.97143650E+00
             1356                3   3.37744217E+01   3.47471085E+01   3.47471085E+01   3.84266853E-01   1.59359026E+00   3.47471085E+01   3.47471085E+01   1.59359026E+00   3.84266853E-01   3.43628426E+01  -1.22416544E+01   3.37256546E+01   6.51862085E-01   3.44795113E+01   1.59359026E+00   3.02055621E+00
             1356                4   3.40619278E+01   3.49352684E+01   3.49352684E+01   1.96105480E-01   1.59359026E+00   3.49352684E+01   3.49352684E+01   1.59359026E+00   1.96105480E-01   3.47391624E+01  -1.22416544E+01   3.39973373E+01   4.82432097E-01   3.46489410E+01   1.59359026E+00   3.14082885E+00
             1357                1   1.17103508E+02   1.43012085E+02   1.43012085E+02   2.58366299E+01   2.59806499E+01   1.43012085E+02   1.43012085E+02   2.59806499E+01   2.58366299E+01   1.17175446E+02  -6.49431229E+01   1.17103310E+02   2.58646603E+01   1.42984055E+02   2.59806499E+01   1.81201351E+00
             1357                2   1.17185852E+02   1.43066940E+02   1.43066940E+02   2.57817707E+01   2.59806499E+01   1.43066940E+02   1.43066940E+02   2.59806499E+01   2.57817707E+01   1.17285164E+02  -6.49431229E+01   1.17185463E+02   2.58138828E+01   1.43034821E+02   2.59806499E+01   1.94046903E+00
             1357                3   1.16912666E+02   1.42884903E+02   1.42884903E+02   2.59638138E+01   2.59806499E+01   1.42884903E+02   1.42884903E+02   2.59806499E+01   2.59638138E+01   1.16921082E+02  -6.49431229E+01   1.16912659E+02   2.59934559E+01   1.42855255E+02   2.59806499E+01   1.86136687E+00
             1357                4   1.16995346E+02   1.42940002E+02   1.42940002E+02   2.59087029E+01   2.59806499E+01   1.42940002E+02   1.42940002E+02   2.59806499E+01   2.59087029E+01   1.17031303E+02  -6.49431229E+01   1.16995293E+02   2.59425507E+01   1.42906158E+02   2.59806499E+01   1.99001849E+00
             1358                1   8.49542618E+01   7.92416916E+01   7.92416916E+01  -5.51021004E+00  -5.91349316E+00   7.92416916E+01   7.92416916E+01  -5.51021004E+00  -5.91349316E+00   8.51551895E+01  -2.26059971E+01   8.49521103E+01  -4.58426332E+00   7.83157501E+01  -5.91349316E+00   8.81011200E+00
             1358                2   8.53386612E+01   7.94983749E+01   7.94983749E+01  -5.76689291E+00  -5.91349316E+00   7.94983749E+01   7.94983749E+01  -5.76689291E+00  -5.91349316E+00   8.54118729E+01  -2.26059971E+01   8.53383789E+01  -4.87050343E+00   7.86019897E+01  -5.91349316E+00   8.69638538E+00
             1358                3   8.52069397E+01   7.94104614E+01   7.94104614E+01  -5.67897129E+00  -5.91349316E+00   7.94104614E+01   7.94104614E+01  -5.67897129E+00  -5.91349316E+00   8.53239594E+01  -2.26060009E+01   8.52062073E+01  -4.69460583E+00   7.84260941E+01  -5.91349316E+00   9.09892178E+00
             1358                4   8.55912018E+01   7.96667938E+01   7.96667938E+01  -5.93530655E+00  -5.91349316E+00   7.96667938E+01   7.96667938E+01  -5.91349316E+00  -5.93530655E+00   8.56021042E+01  -2.26060009E+01   8.55911865E+01  -4.98129559E+00   7.87127838E+01  -5.91349316E+00   8.98640347E+00
             1359                1   7.53139877E+01   6.92057800E+01   6.92057800E+01  -5.69231796E+00  -6.51732731E+00   6.92057800E+01   6.92057800E+01  -5.69231796E+00  -6.51732731E+00   7.57231064E+01  -1.89987106E+01   7.53038177E+01  -4.21512508E+00   6.77285843E+01  -6.51732731E+00   1.04142580E+01
             1359                2   7.57750626E+01   6.95145340E+01   6.95145340E+01  -6.00108242E+00  -6.51732731E+00   6.95145340E+01   6.95145340E+01  -6.00108242E+00  -6.51732731E+00   7.60318680E+01  -1.89987087E+01   7.57711029E+01  -4.57097149E+00   6.80844269E+01  -6.51732731E+00   1.02932291E+01
             1359                3   7.56316528E+01   6.94185715E+01   6.94185715E+01  -5.90511560E+00  -6.51732731E+00   6.94185715E+01   6.94185715E+01  -5.90511560E+00  -6.51732731E+00   7.59358978E+01  -1.89987087E+01   7.56260757E+01  -4.33192015E+00   6.78453751E+01  -6.51732731E+00   1.07714462E+01
             1359                4   7.60905914E+01   6.97254639E+01   6.97254639E+01  -6.21201038E+00  -6.51732731E+00   6.97254639E+01   6.97254639E+01  -6.21201038E+00  -6.51732731E+00   7.62427902E+01  -1.89987087E+01   7.60892181E+01  -4.68777704E+00   6.82012329E+01  -6.51732731E+00   1.06500320E+01
             1360                1   5.99400978E+01   5.81279831E+01   5.81279831E+01  -1.86771452E+00  -1.75635886E+00   5.81279831E+01   5.81279831E+01  -1.75635886E+00  -1.86771452E+00   5.99956970E+01  -1.81679707E+01   5.99398651E+01  -1.81655896E+00   5.80768280E+01  -1.75635886E+00   1.75114310E+00
             1360                2   5.98815231E+01   5.80889626E+01   5.80889626E+01  -1.82869482E+00  -1.75635886E+00   5.80889626E+01   5.80889626E+01  -1.75635886E+00  -1.82869482E+00   5.99176598E+01  -1.81679707E+01   5.98814278E+01  -1.76459444E+00   5.80248642E+01  -1.75635886E+00   1.95872486E+00
             1360                3   5.96245079E+01   5.79176025E+01   5.79176025E+01  -1.65733242E+00  -1.75635886E+00   5.79176025E+01   5.79176025E+01  -1.65733242E+00  -1.75635886E+00   5.96739616E+01  -1.81679707E+01   5.96243248E+01  -1.60886097E+00   5.78691292E+01  -1.75635886E+00   1.69864452E+00
             1360                4   5.95654716E+01   5.78782043E+01   5.78782043E+01  -1.61793363E+00  -1.75635886E+00   5.78782043E+01   5.78782043E+01  -1.61793363E+00  -1.75635886E+00   5.96345634E+01  -1.81679707E+01   5.95651093E+01  -1.55679786E+00   5.78170662E+01  -1.75635886E+00   1.90621376E+00
             1361                1   4.30831223E+01   4.40196037E+01   4.40196037E+01   1.14912891E+00   7.26932645E-01   4.40196037E+01   4.40196037E+01   1.14912891E+00   7.26932645E-01   4.32926712E+01  -1.52985544E+01   4.30784683E+01   2.89875913E+00   4.22699738E+01   7.26932645E-01   8.48211193E+00
             1361                2   4.32377281E+01   4.41231194E+01   4.41231194E+01   1.04561555E+00   7.26932645E-01   4.41231194E+01   4.41231194E+01   1.04561555E+00   7.26932645E-01   4.33961868E+01  -1.52985563E+01   4.32350845E+01   2.73288727E+00   4.24358482E+01   7.26932645E-01   8.35682774E+00
             1361                3   4.33601036E+01   4.42049675E+01   4.42049675E+01   9.63766336E-01   7.26932645E-01   4.42049675E+01   4.42049675E+01   9.63766336E-01   7.26932645E-01   4.34780350E+01  -1.52985563E+01   4.33586502E+01   2.77414298E+00   4.23945923E+01   7.26932645E-01   8.66056633E+00
             1361                4   4.35153809E+01   4.43087082E+01   4.43087082E+01   8.60026419E-01   7.26932645E-01   4.43087082E+01   4.43087082E+01   8.60026419E-01   7.26932645E-01   4.35817757E+01  -1.52985563E+01   4.35149231E+01   2.60684109E+00   4.25618935E+01   7.26932645E-01   8.53495598E+00
             1362                1   3.21512909E+01   3.22839279E+01   3.22839279E+01   1.69426739E-01   9.59709212E-02   3.22839279E+01   3.22839279E+01   1.69426739E-01   9.59709212E-02   3.21879578E+01  -1.08497744E+01   3.21511040E+01   2.23414749E-01   3.22299385E+01   9.59709212E-02   1.31563807E+00
             1362                2   3.25531540E+01   3.25515862E+01   3.25515862E+01  -9.82331708E-02   9.59709212E-02   3.25515862E+01   3.25515862E+01   9.59709212E-02  -9.82331708E-02   3.26498184E+01  -1.08497744E+01   3.25518494E+01  -3.42521369E-02   3.24876060E+01   9.59709212E-02   1.44390953E+00
             1362                3   3.19938374E+01   3.21787491E+01   3.21787491E+01   2.74603784E-01   9.59709212E-02   3.21787491E+01   3.21787491E+01   2.74603784E-01   9.59709212E-02   3.20827789E+01  -1.08497744E+01   3.19927158E+01   3.52416366E-01   3.21009369E+01   9.59709212E-02   1.57369292E+00
             1362                4   3.23975754E+01   3.24480972E+01   3.24480972E+01   5.26107289E-03   9.59709212E-02   3.24480972E+01   3.24480972E+01   9.59709212E-02   5.26107289E-03   3.24428368E+01  -1.08497763E+01   3.23972893E+01   9.47896019E-02   3.23585663E+01   9.59709212E-02   1.70194077E+00
             1363                1   3.64442291E+01   3.89487419E+01   3.89487419E+01  -5.03096431E-02   5.75661993E+00   3.89487419E+01   3.89487419E+01   5.75661993E+00  -5.03096431E-02   3.89990540E+01  -1.48850174E+01   3.53808823E+01   2.77005415E-02   3.88707314E+01   5.75661993E+00   1.74250031E+00
             1363                2   3.55879211E+01   3.84142075E+01   3.84142075E+01   4.84224528E-01   5.75661993E+00   3.84142075E+01   3.84142075E+01   5.75661993E+00   4.84224528E-01   3.79299850E+01  -1.48850174E+01   3.46928978E+01   5.44062018E-01   3.83543701E+01   5.75661993E+00   1.50536156E+00
             1363                3   3.67618179E+01   3.91464577E+01   3.91464577E+01  -2.48024434E-01   5.75661993E+00   3.91464577E+01   3.91464577E+01   5.75661993E+00  -2.48024434E-01   3.93944817E+01  -1.48850174E+01   3.56333847E+01  -2.10054144E-01   3.91084862E+01   5.75661993E+00   1.22247410E+00
             1363                4   3.59140167E+01   3.86180229E+01   3.86180229E+01   2.80408382E-01   5.75661993E+00   3.86180229E+01   3.86180229E+01   5.75661993E+00   2.80408382E-01   3.83376122E+01  -1.48850164E+01   3.49561577E+01   3.05585146E-01   3.85928459E+01   5.75661993E+00   9.82108951E-01
             1364                1   3.41970558E+01   3.02506523E+01   3.02506523E+01  -7.13255405E-01  -6.45312738E+00   3.02506523E+01   3.02506523E+01  -7.13255405E-01  -6.45312738E+00   3.67037811E+01  -7.69475698E+00   3.30871658E+01   2.77067244E-01   2.92603302E+01  -6.45312738E+00   5.44825840E+00
             1364                2   3.37473831E+01   2.99181767E+01   2.99181767E+01  -3.80779058E-01  -6.45312738E+00   2.99181767E+01   2.99181767E+01  -3.80779058E-01  -6.45312738E+00   3.63713036E+01  -7.69475698E+00   3.24839745E+01   6.01242006E-01   2.89361553E+01  -6.45312738E+00   5.36561728E+00
             1364                3   3.41569901E+01   3.02211418E+01   3.02211418E+01  -6.83745325E-01  -6.45312738E+00   3.02211418E+01   3.02211418E+01  -6.83745325E-01  -6.45312738E+00   3.66742706E+01  -7.69475698E+00   3.30339928E+01   1.90800324E-01   2.93465977E+01  -6.45312738E+00   5.12473297E+00
             1364                4   3.37066727E+01   2.98879356E+01   2.98879356E+01  -3.50537747E-01  -6.45312738E+00   2.98879356E+01   2.98879356E+01  -3.50537747E-01  -6.45312738E+00   3.63410606E+01  -7.69475698E+00   3.24286537E+01   5.14827788E-01   2.90225697E+01  -6.45312738E+00   5.04167366E+00
             1365                1   5.71844482E+01   5.26352539E+01   5.26352539E+01  -3.96192551E+00  -5.11890411E+00   5.26352539E+01   5.26352539E+01  -3.96192551E+00  -5.11890411E+00   5.77541580E+01  -1.45181417E+01   5.71581039E+01  -1.90534461E+00   5.05786743E+01  -5.11890411E+00   1.05908966E+01
             1365                2   5.67527275E+01   5.23440552E+01   5.23440552E+01  -3.67072558E+00  -5.11890411E+00   5.23440552E+01   5.23440552E+01  -3.67072558E+00  -5.11890411E+00   5.74629593E+01  -1.45181417E+01   5.67111320E+01  -1.53405404E+00   5.02073822E+01  -5.11890411E+00   1.07293911E+01
             1365                3   5.68248100E+01   5.23927307E+01   5.23927307E+01  -3.71940207E+00  -5.11890411E+00   5.23927307E+01   5.23927307E+01  -3.71940207E+00  -5.11890411E+00   5.75116348E+01  -1.45181417E+01   5.67860146E+01  -1.80233431E+00   5.04756622E+01  -5.11890411E+00   1.01929207E+01
             1365                4   5.63911209E+01   5.20995178E+01   5.20995178E+01  -3.42618632E+00  -5.11890411E+00   5.20995178E+01   5.20995178E+01  -3.42618632E+00  -5.11890411E+00   5.72184219E+01  -1.45181427E+01   5.63339157E+01  -1.43142438E+00   5.01047554E+01  -5.11890411E+00   1.03335161E+01
             1366                1   3.97434540E+01   4.26208420E+01   4.26208420E+01  -6.13774657E-01   7.67620134E+00   4.26208420E+01   4.26208420E+01   7.67620134E+00  -6.13774657E-01   4.32346191E+01  -1.65610905E+01   3.77238884E+01  -5.28809726E-01   4.25358772E+01   7.67620134E+00   1.91474700E+00
             1366                2   3.89534569E+01   4.21360855E+01   4.21360855E+01  -1.29015729E-01   7.67620134E+00   4.21360855E+01   4.21360855E+01   7.67620134E+00  -1.29015729E-01   4.22650986E+01  -1.65610905E+01   3.71324387E+01   1.43497996E-02   4.19927177E+01   7.67620134E+00   2.45740724E+00
             1366                3   3.88105698E+01   4.20482674E+01   4.20482674E+01  -4.12033089E-02   7.67620134E+00   4.20482674E+01   4.20482674E+01   7.67620134E+00  -4.12033089E-02   4.20894699E+01  -1.65610886E+01   3.70247269E+01   3.30781378E-03   4.20037575E+01   7.67620134E+00   1.36800897E+00
             1366                4   3.79997025E+01   4.15490913E+01   4.15490913E+01   4.57978070E-01   7.67620134E+00   4.15490913E+01   4.15490913E+01   7.67620134E+00   4.57978070E-01   4.10911140E+01  -1.65610905E+01   3.64090233E+01   5.47263503E-01   4.14598045E+01   7.67620134E+00   1.91334546E+00
             1367                1   3.41729584E+01   3.48352585E+01   3.48352585E+01   4.01139915E-01   9.29590225E-01   3.48352585E+01   3.48352585E+01   9.29590225E-01   4.01139915E-01   3.44341164E+01  -1.20553284E+01   3.41637611E+01   7.85212636E-01   3.44511833E+01   9.29590225E-01   3.61631322E+00
             1367                2   3.44029045E+01   3.49872322E+01   3.49872322E+01   2.49163806E-01   9.29590225E-01   3.49872322E+01   3.49872322E+01   9.29590225E-01   2.49163806E-01   3.47380676E+01  -1.20553284E+01   3.43877602E+01   6.49730980E-01   3.45866661E+01   9.29590225E-01   3.70870137E+00
             1367                3   3.40778351E+01   3.47722969E+01   3.47722969E+01   4.64100182E-01   9.29590225E-01   3.47722969E+01   3.47722969E+01   9.29590225E-01   4.64100182E-01   3.43081970E+01  -1.20553284E+01   3.40706825E+01   8.79391193E-01   3.43570061E+01   9.29590225E-01   3.75171995E+00
             1367                4   3.43083382E+01   3.49247704E+01   3.49247704E+01   3.11624825E-01   9.29590225E-01   3.49247704E+01   3.49247704E+01   9.29590225E-01   3.11624825E-01   3.46131477E+01  -1.20553284E+01   3.42958145E+01   7.43930817E-01   3.44924660E+01   9.29590225E-01   3.84403205E+00
             1368                1   3.29073257E+01   4.04828224E+01   4.04828224E+01   7.05283880E+00   8.12432575E+00   4.04828224E+01   4.04828224E+01   8.12432575E+00   7.05283880E+00   3.34299812E+01  -1.85533276E+01   3.28680420E+01   9.20277309E+00   3.83328857E+01   8.12432575E+00   8.20061398E+00
             1368                2   3.28783913E+01   4.04638329E+01   4.04638329E+01   7.07182789E+00   8.12432575E+00   4.04638329E+01   4.04638329E+01   8.12432575E+00   7.07182789E+00   3.33920059E+01  -1.85533276E+01   3.28404579E+01   9.11353207E+00   3.84221268E+01   8.12432575E+00   8.00050449E+00
             1368                3   3.32432556E+01   4.07029495E+01   4.07029495E+01   6.83271122E+00   8.12432575E+00   4.07029495E+01   4.07029495E+01   8.12432575E+00   6.83271122E+00   3.38702393E+01  -1.85533276E+01   3.31867256E+01   9.00126457E+00   3.85343933E+01   8.12432575E+00   8.29137039E+00
             1368                4   3.32145424E+01   4.06841583E+01   4.06841583E+01   6.85150003E+00   8.12432575E+00   4.06841583E+01   4.06841583E+01   8.12432575E+00   6.85150003E+00   3.38326607E+01  -1.85533276E+01   3.31596031E+01   8.91209030E+00   3.86235695E+01   8.12432575E+00   8.09130478E+00
             1369                1   1.98277222E+02   1.87556122E+02   1.87556122E+02  -1.25704079E+01  -8.81854439E+00   1.87556122E+02   1.87556122E+02  -8.81854439E+00  -1.25704079E+01   2.00126526E+02  -5.53890572E+01   1.98197327E+02  -1.24750957E+01   1.87460815E+02  -8.81854439E+00   4.36634970E+00
             1369                2   1.97609818E+02   1.87120697E+02   1.87120697E+02  -1.17536087E+01  -9.19990540E+00   1.87120697E+02   1.87120697E+02  -9.19990540E+00  -1.17536087E+01   1.98874298E+02  -5.53890572E+01   1.97572693E+02  -1.16108980E+01   1.86977982E+02  -9.19990540E+00   5.32546568E+00
             1369                3   1.97913132E+02   1.87321503E+02   1.87321503E+02  -1.19585772E+01  -9.19575310E+00   1.87321503E+02   1.87321503E+02  -9.19575310E+00  -1.19585772E+01   1.99280090E+02  -5.53890572E+01   1.97869736E+02  -1.19102049E+01   1.87273132E+02  -9.19575310E+00   3.10448265E+00
             1369                4   1.97237411E+02   1.86877640E+02   1.86877640E+02  -1.11285334E+01  -9.58192062E+00   1.86877640E+02   1.86877640E+02  -9.58192062E+00  -1.11285334E+01   1.98006165E+02  -5.53890572E+01   1.97223770E+02  -1.10450621E+01   1.86794159E+02  -9.58192062E+00   4.06465149E+00
             1370                1   5.31098404E+01   5.37928581E+01   5.37928581E+01   7.34864175E-01   6.31318033E-01   5.37928581E+01   5.37928581E+01   7.34864175E-01   6.31318033E-01   5.31615410E+01  -1.83863468E+01   5.31096153E+01   7.77660728E-01   5.37500610E+01   6.31318033E-01   1.50627029E+00
             1370                2   5.34437141E+01   5.40154228E+01   5.40154228E+01   5.12296915E-01   6.31318033E-01   5.40154228E+01   5.40154228E+01   6.31318033E-01   5.12296915E-01   5.35031281E+01  -1.83863468E+01   5.34434204E+01   5.57179570E-01   5.39705429E+01   6.31318033E-01   1.54896462E+00
             1370                3   5.30658035E+01   5.37634659E+01   5.37634659E+01   7.64255106E-01   6.31318033E-01   5.37634659E+01   5.37634659E+01   7.64255106E-01   6.31318033E-01   5.31321487E+01  -1.83863468E+01   5.30654335E+01   8.20527673E-01   5.37071953E+01   6.31318033E-01   1.72602272E+00
             1370                4   5.34001999E+01   5.39864426E+01   5.39864426E+01   5.41283429E-01   6.31318033E-01   5.39864426E+01   5.39864426E+01   6.31318033E-01   5.41283429E-01   5.34451599E+01  -1.83863468E+01   5.34000282E+01   5.99878728E-01   5.39278450E+01   6.31318033E-01   1.76869440E+00
             1371                1   3.55045853E+01   3.21314850E+01   3.21314850E+01  -4.94140208E-01  -5.68137264E+00   3.21314850E+01   3.21314850E+01  -4.94140208E-01  -5.68137264E+00   3.78128586E+01  -8.65198994E+00   3.46366615E+01   5.12743711E-01   3.11246014E+01  -5.68137264E+00   5.64237356E+00
             1371                2   3.59439392E+01   3.24491119E+01   3.24491119E+01  -8.11768830E-01  -5.68137264E+00   3.24491119E+01   3.24491119E+01  -8.11768830E-01  -5.68137264E+00   3.81304855E+01  -8.65198994E+00   3.51903305E+01   1.99922293E-01   3.14374218E+01  -5.68137264E+00   5.71193743E+00
             1371                3   3.55631752E+01   3.21739731E+01   3.21739731E+01  -5.36627054E-01  -5.68137264E+00   3.21739731E+01   3.21739731E+01  -5.36627054E-01  -5.68137264E+00   3.78553429E+01  -8.65198994E+00   3.47111206E+01   5.86049497E-01   3.10512943E+01  -5.68137264E+00   5.95508480E+00
             1371                4   3.60015640E+01   3.24906120E+01   3.24906120E+01  -8.53267908E-01  -5.68137264E+00   3.24906120E+01   3.24906120E+01  -8.53267908E-01  -5.68137264E+00   3.81719856E+01  -8.65198994E+00   3.52621651E+01   2.73229957E-01   3.13641148E+01  -5.68137264E+00   6.02435064E+00
             1372                1   4.43936768E+01   4.45414314E+01   4.45414314E+01   4.83714610E-01  -1.80748194E-01   4.45414314E+01   4.45414314E+01   4.83714610E-01  -1.80748194E-01   4.47221794E+01  -1.49481325E+01   4.43824883E+01   2.22359133E+00   4.28015556E+01  -1.80748194E-01   8.58066463E+00
             1372                2   4.45872116E+01   4.46713409E+01   4.46713409E+01   3.53807122E-01  -1.80748194E-01   4.46713409E+01   4.46713409E+01   3.53807122E-01  -1.80748194E-01   4.48520889E+01  -1.49481325E+01   4.45800018E+01   2.03444004E+00   4.29907074E+01  -1.80748194E-01   8.46504211E+00
             1372                3   4.46709290E+01   4.47274704E+01   4.47274704E+01   2.97674716E-01  -1.80748194E-01   4.47274704E+01   4.47274704E+01   2.97674716E-01  -1.80748194E-01   4.49082184E+01  -1.49481325E+01   4.46651649E+01   2.10386753E+00   4.29212799E+01  -1.80748194E-01   8.77418995E+00
             1372                4   4.48588104E+01   4.48533134E+01   4.48533134E+01   1.71835318E-01  -1.80748194E-01   4.48533134E+01   4.48533134E+01   1.71835318E-01  -1.80748194E-01   4.50340614E+01  -1.49481344E+01   4.48556938E+01   1.91818142E+00   4.31069679E+01  -1.80748194E-01   8.65907860E+00
             1373                1   1.98935013E+01   1.10239859E+01   1.10239859E+01  -1.56899899E-01  -1.19443798E+01   1.10239859E+01  -1.19443798E+01  -1.56899899E-01  -1.19443798E+01   2.29683666E+01   3.59097809E-01  -7.11364698E+00  -1.11312449E-01   1.09783993E+01  -1.19443798E+01   7.12478280E-01
             1373                2   1.98301105E+01   1.09484053E+01   1.09484053E+01  -8.13175216E-02  -1.19443798E+01   1.09484053E+01  -1.19443798E+01  -8.13175216E-02  -1.19443798E+01   2.28927841E+01   3.59097481E-01  -7.89046621E+00   3.18972468E-02   1.08351898E+01  -1.19443798E+01   1.11171627E+00
             1373                3   1.95549507E+01   1.06105394E+01   1.06105394E+01   2.56547779E-01  -1.19443798E+01   1.06105394E+01  -1.19443798E+01   2.56547779E-01  -1.19443798E+01   2.25549202E+01   3.59097481E-01  -1.01840630E+01   2.88097203E-01   1.05789900E+01  -1.19443798E+01   5.70674181E-01
             1373                4   1.94905853E+01   1.05289898E+01   1.05289898E+01   3.38097781E-01  -1.19443798E+01   1.05289898E+01  -1.19443798E+01   3.38097781E-01  -1.19443798E+01   2.24733696E+01   3.59097481E-01  -1.05888500E+01   4.31183517E-01   1.04359035E+01  -1.19443798E+01   9.69517767E-01
             1374                1   2.98928013E+01   2.67572079E+01   2.67572079E+01   2.10849330E-01  -5.62219334E+00   2.67572079E+01   2.67572079E+01   2.10849330E-01  -5.62219334E+00   3.23794022E+01  -7.11528778E+00   2.85699787E+01   3.66137177E-01   2.66019211E+01  -5.62219334E+00   2.02440023E+00
             1374                2   3.02464638E+01   2.70216408E+01   2.70216408E+01  -5.35835773E-02  -5.62219334E+00   2.70216408E+01   2.70216408E+01  -5.35835773E-02  -5.62219334E+00   3.26438332E+01  -7.11528778E+00   2.90593987E+01   1.13815986E-01   2.68542423E+01  -5.62219334E+00   2.12234306E+00
             1374                3   2.98169022E+01   2.67001801E+01   2.67001801E+01   2.67877817E-01  -5.62219334E+00   2.67001801E+01   2.67001801E+01   2.67877817E-01  -5.62219334E+00   3.23223724E+01  -7.11528778E+00   2.84634991E+01   4.65473026E-01   2.65025845E+01  -5.62219334E+00   2.27680826E+00
             1374                4   3.01712933E+01   2.69656105E+01   2.69656105E+01   2.44666962E-03  -5.62219334E+00   2.69656105E+01   2.69656105E+01   2.44666962E-03  -5.62219334E+00   3.25878029E+01  -7.11528778E+00   2.89562759E+01   2.13251203E-01   2.67548065E+01  -5.62219334E+00   2.37476659E+00
             1375                1   3.55058060E+01   4.45698547E+01   4.45698547E+01   9.12708473E+00   9.00134563E+00   4.45698547E+01   4.45698547E+01   9.12708473E+00   9.00134563E+00   3.55685081E+01  -2.08994274E+01   3.55053024E+01   9.13174820E+00   4.45651894E+01   9.00134563E+00   4.06533957E-01
             1375                2   3.55114212E+01   4.45736046E+01   4.45736046E+01   9.12333584E+00   9.00134563E+00   4.45736046E+01   4.45736046E+01   9.12333584E+00   9.00134563E+00   3.55722618E+01  -2.08994293E+01   3.55109482E+01   9.12393093E+00   4.45730095E+01   9.00134563E+00   1.45397082E-01
             1375                3   3.58988075E+01   4.48318367E+01   4.48318367E+01   8.86510086E+00   9.00134563E+00   4.48318367E+01   4.48318367E+01   9.00134563E+00   8.86510086E+00   3.59667358E+01  -2.08994274E+01   3.58982239E+01   8.86989594E+00   4.48270416E+01   9.00134563E+00   4.15262371E-01
             1375                4   3.59047432E+01   4.48357887E+01   4.48357887E+01   8.86115074E+00   9.00134563E+00   4.48357887E+01   4.48357887E+01   9.00134563E+00   8.86115074E+00   3.59746361E+01  -2.08994274E+01   3.59041290E+01   8.86181450E+00   4.48351250E+01   9.00134563E+00   1.54310986E-01
             1376                1   2.17791718E+02   2.27864563E+02   2.27864563E+02  -3.97206593E+00   2.75539093E+01   2.27864563E+02   2.27864563E+02   2.75539093E+01  -3.97206593E+00   2.31836639E+02  -8.38154678E+01   2.12567230E+02  -3.96729469E+00   2.27859802E+02   2.75539093E+01  -1.05108857E+00
             1376                2   2.17931137E+02   2.27766525E+02   2.27766525E+02  -5.18637657E+00   2.88662510E+01   2.27766525E+02   2.27766525E+02   2.88662510E+01  -5.18637657E+00   2.32952911E+02  -8.38154678E+01   2.11821350E+02  -5.14406633E+00   2.27724228E+02   2.88662510E+01   3.13892245E+00
             1376                3   2.17571991E+02   2.27967712E+02   2.27967712E+02  -2.19934583E+00   2.56780472E+01   2.27967712E+02   2.27967712E+02   2.56780472E+01  -2.19934583E+00   2.30167068E+02  -8.38154678E+01   2.13498474E+02  -2.18325686E+00   2.27951630E+02   2.56780472E+01   1.92422116E+00
             1376                4   2.17721146E+02   2.27884109E+02   2.27884109E+02  -3.51603484E+00   2.70783482E+01   2.27884109E+02   2.27884109E+02   2.70783482E+01  -3.51603484E+00   2.31400146E+02  -8.38154755E+01   2.12804337E+02  -3.35268307E+00   2.27720749E+02   2.70783482E+01   6.14609575E+00
             1377                1   2.85152092E+01   2.48103752E+01   2.48103752E+01   4.68875766E-02  -6.36483431E+00   2.48103752E+01   2.48103752E+01   4.68875766E-02  -6.36483431E+00   3.11752110E+01  -6.16414309E+00   2.68204269E+01   1.44820988E-01   2.47124424E+01  -6.36483431E+00   1.55421567E+00
             1377                2   2.81914959E+01   2.45607662E+01   2.45607662E+01   2.96498060E-01  -6.36483431E+00   2.45607662E+01   2.45607662E+01   2.96498060E-01  -6.36483431E+00   3.09256001E+01  -6.16414309E+00   2.63319950E+01   3.83813053E-01   2.44734497E+01  -6.36483431E+00   1.45293844E+00
             1377                3   2.86113911E+01   2.48841152E+01   2.48841152E+01  -2.68542580E-02  -6.36483431E+00   2.48841152E+01   2.48841152E+01  -2.68542580E-02  -6.36483431E+00   3.12489510E+01  -6.16414261E+00   2.69632168E+01   4.28013243E-02   2.48144608E+01  -6.36483431E+00   1.31541848E+00
             1377                4   2.82886791E+01   2.46359386E+01   2.46359386E+01   2.21324727E-01  -6.36483431E+00   2.46359386E+01   2.46359386E+01   2.21324727E-01  -6.36483431E+00   3.10007725E+01  -6.16414309E+00   2.64799385E+01   2.81854093E-01   2.45754089E+01  -6.36483431E+00   1.21414590E+00
             1378                1   2.42505074E+01   1.74056797E+01   1.74056797E+01  -8.27748477E-02  -1.02779922E+01   1.74056797E+01   1.74056797E+01  -8.27748477E-02  -1.02779922E+01   2.76836720E+01  -2.34830403E+00   1.84099541E+01   2.54154623E-01   1.70687504E+01  -1.02779922E+01   2.40392327E+00
             1378                2   2.38616619E+01   1.70415154E+01   1.70415154E+01   2.81389832E-01  -1.02779922E+01   1.70415154E+01   1.70415154E+01   2.81389832E-01  -1.02779922E+01   2.73195076E+01  -2.34830403E+00   1.72988129E+01   5.97330332E-01   1.67255745E+01  -1.02779922E+01   2.27933764E+00
             1378                3   2.42892876E+01   1.74414845E+01   1.74414845E+01  -1.18580766E-01  -1.02779922E+01   1.74414845E+01   1.74414845E+01  -1.18580766E-01  -1.02779922E+01   2.77194767E+01  -2.34830403E+00   1.85145493E+01   1.26419321E-01   1.71964855E+01  -1.02779922E+01   2.05965734E+00
             1378                4   2.39011765E+01   1.70789680E+01   1.70789680E+01   2.43938848E-01  -1.02779922E+01   1.70789680E+01   1.70789680E+01   2.43938848E-01  -1.02779922E+01   2.73569603E+01  -2.34830475E+00   1.74174442E+01   4.69185889E-01   1.68537197E+01  -1.02779922E+01   1.93424892E+00
             1379                1   5.34084930E+01   4.84236183E+01   4.84236183E+01  -3.53171611E+00  -6.32816458E+00   4.84236183E+01   4.84236183E+01  -3.53171611E+00  -6.32816458E+00   5.47517853E+01  -1.28545799E+01   5.32434044E+01  -1.00243580E+00   4.58943405E+01  -6.32816458E+00   1.11808882E+01
             1379                2   5.39392357E+01   4.87866135E+01   4.87866135E+01  -3.89470720E+00  -6.32816458E+00   4.87866135E+01   4.87866135E+01  -3.89470720E+00  -6.32816458E+00   5.51147804E+01  -1.28545809E+01   5.38155212E+01  -1.43455648E+00   4.63264618E+01  -6.32816458E+00   1.11153822E+01
             1379                3   5.37546387E+01   4.86605263E+01   4.86605263E+01  -3.76861835E+00  -6.32816458E+00   4.86605263E+01   4.86605263E+01  -3.76861835E+00  -6.32816458E+00   5.49886894E+01  -1.28545809E+01   5.36172752E+01  -1.04316485E+00   4.59350700E+01  -6.32816458E+00   1.16389503E+01
             1379                4   5.42706146E+01   4.90125351E+01   4.90125351E+01  -4.12062836E+00  -6.32816458E+00   4.90125351E+01   4.90125351E+01  -4.12062836E+00  -6.32816458E+00   5.53406982E+01  -1.28545809E+01   5.41694565E+01  -1.47518229E+00   4.63670883E+01  -6.32816458E+00   1.15569277E+01
             1380                1   3.35745735E+01   3.38650703E+01   3.38650703E+01   5.26225939E-02   5.33541501E-01   3.38650703E+01   3.38650703E+01   5.33541501E-01   5.26225939E-02   3.38124504E+01  -1.14837456E+01   3.35668221E+01   2.51002848E-01   3.36666908E+01   5.33541501E-01   2.58232093E+00
             1380                2   3.34459534E+01   3.37798767E+01   3.37798767E+01   1.37816951E-01   5.33541501E-01   3.37798767E+01   3.37798767E+01   5.33541501E-01   1.37816951E-01   3.36420593E+01  -1.14837456E+01   3.34406853E+01   3.68356943E-01   3.35493355E+01   5.33541501E-01   2.77538228E+00
             1380                3   3.32603683E+01   3.36567650E+01   3.36567650E+01   2.60929406E-01   5.33541501E-01   3.36567650E+01   3.36567650E+01   5.33541501E-01   2.60929406E-01   3.33958359E+01  -1.14837456E+01   3.32578506E+01   4.44194794E-01   3.34734993E+01   5.33541501E-01   2.46712685E+00
             1380                4   3.31306343E+01   3.35705719E+01   3.35705719E+01   3.47122759E-01   5.33541501E-01   3.35705719E+01   3.35705719E+01   5.33541501E-01   3.47122759E-01   3.32234497E+01  -1.14837456E+01   3.31294518E+01   5.61514139E-01   3.33561783E+01   5.33541501E-01   2.66024661E+00
             1381                1   7.25625839E+01   6.61628571E+01   6.61628571E+01  -5.56313229E+00  -7.20835018E+00   6.61628571E+01   6.61628571E+01  -5.56313229E+00  -7.20835018E+00   7.33712082E+01  -1.77971249E+01   7.25206070E+01  -2.62076759E+00   6.32204933E+01  -7.20835018E+00   1.42262564E+01
             1381                2   7.32550278E+01   6.66290665E+01   6.66290665E+01  -6.02934313E+00  -7.20835018E+00   6.66290665E+01   6.66290665E+01  -6.02934313E+00  -7.20835018E+00   7.38374176E+01  -1.77971249E+01   7.32336807E+01  -3.16909313E+00   6.37688179E+01  -7.20835018E+00   1.41294060E+01
             1381                3   7.29704742E+01   6.64376755E+01   6.64376755E+01  -5.83794975E+00  -7.20835018E+00   6.64376755E+01   6.64376755E+01  -5.83794975E+00  -7.20835018E+00   7.36460266E+01  -1.77971249E+01   7.29415131E+01  -2.68292117E+00   6.32826462E+01  -7.20835018E+00   1.47674427E+01
             1381                4   7.36542130E+01   6.68971176E+01   6.68971176E+01  -6.29739094E+00  -7.20835018E+00   6.68971176E+01   6.68971176E+01  -6.29739094E+00  -7.20835018E+00   7.41054611E+01  -1.77971249E+01   7.36415329E+01  -3.23198199E+00   6.38317070E+01  -7.20835018E+00   1.46620007E+01
             1382                1   4.26131554E+01   4.80791893E+01   4.80791893E+01   5.40054607E+00   5.53182364E+00   4.80791893E+01   4.80791893E+01   5.53182364E+00   5.40054607E+00   4.26786461E+01  -1.96705189E+01   4.26127052E+01   5.41346025E+00   4.80662766E+01   5.53182364E+00   7.42279530E-01
             1382                2   4.25980225E+01   4.80691147E+01   4.80691147E+01   5.41062117E+00   5.53182364E+00   4.80691147E+01   4.80691147E+01   5.53182364E+00   5.41062117E+00   4.26584930E+01  -1.96705189E+01   4.25976334E+01   5.43337440E+00   4.80463600E+01   5.53182364E+00   9.84975040E-01
             1382                3   4.22473297E+01   4.78353310E+01   4.78353310E+01   5.64440393E+00   5.53182364E+00   4.78353310E+01   4.78353310E+01   5.64440393E+00   5.53182364E+00   4.23035088E+01  -1.96705189E+01   4.22469940E+01   5.65675306E+00   4.78229828E+01   5.53182364E+00   7.21721470E-01
             1382                4   4.22320366E+01   4.78251228E+01   4.78251228E+01   5.65461349E+00   5.53182364E+00   4.78251228E+01   4.78251228E+01   5.65461349E+00   5.53182364E+00   4.22933006E+01  -1.96705189E+01   4.22316399E+01   5.67668581E+00   4.78030510E+01   5.53182364E+00   9.64522183E-01
             1383                1   1.40048889E+02   1.60732330E+02   1.60732330E+02   2.01473770E+01   2.12257347E+01   1.60732330E+02   1.60732330E+02   2.12257347E+01   2.01473770E+01   1.40584961E+02  -6.73684845E+01   1.40039551E+02   2.01960964E+01   1.60683624E+02   2.12257347E+01   2.61648750E+00
             1383                2   1.38991974E+02   1.60029541E+02   1.60029541E+02   2.08501835E+01   2.12257347E+01   1.60029541E+02   1.60029541E+02   2.12257347E+01   2.08501835E+01   1.39179367E+02  -6.73684921E+01   1.38990829E+02   2.09186707E+01   1.59961060E+02   2.12257347E+01   3.08663154E+00
             1383                3   1.39320190E+02   1.60247971E+02   1.60247971E+02   2.06317387E+01   2.12257347E+01   1.60247971E+02   1.60247971E+02   2.12257347E+01   2.06317387E+01   1.39616241E+02  -6.73684845E+01   1.39317337E+02   2.06572762E+01   1.60222443E+02   2.12257347E+01   1.88792574E+00
             1383                4   1.38257523E+02   1.59540146E+02   1.59540146E+02   2.13395748E+01   2.12257347E+01   1.59540146E+02   1.59540146E+02   2.13395748E+01   2.12257347E+01   1.38314407E+02  -6.73684845E+01   1.38257416E+02   2.13798275E+01   1.59499893E+02   2.12257347E+01   2.35806823E+00
             1384                1   8.59798965E+01   8.03074875E+01   8.03074875E+01  -5.61131334E+00  -5.73336983E+00   8.03074875E+01   8.03074875E+01  -5.61131334E+00  -5.73336983E+00   8.60408554E+01  -2.29876022E+01   8.59796982E+01  -5.50734377E+00   8.02035217E+01  -5.73336983E+00   2.98694563E+00
             1384                2   8.61026154E+01   8.03893433E+01   8.03893433E+01  -5.69316101E+00  -5.73336983E+00   8.03893433E+01   8.03893433E+01  -5.69316101E+00  -5.73336983E+00   8.61227112E+01  -2.29876041E+01   8.61025925E+01  -5.59817123E+00   8.02943497E+01  -5.73336983E+00   2.85801792E+00
             1384                3   8.61822205E+01   8.04424133E+01   8.04424133E+01  -5.74623919E+00  -5.73336983E+00   8.04424133E+01   8.04424133E+01  -5.73336983E+00  -5.74623919E+00   8.61886520E+01  -2.29876022E+01   8.61822128E+01  -5.63616085E+00   8.03323364E+01  -5.73336983E+00   3.07819819E+00
             1384                4   8.63046875E+01   8.05240326E+01   8.05240326E+01  -5.82785368E+00  -5.73336983E+00   8.05240326E+01   8.05240326E+01  -5.73336983E+00  -5.82785368E+00   8.63518906E+01  -2.29876041E+01   8.63045654E+01  -5.72700644E+00   8.04231873E+01  -5.73336983E+00   2.94928527E+00
             1385                1   1.13724228E+02   1.32149307E+02   1.32149307E+02   1.84128456E+01   1.84373169E+01   1.32149307E+02   1.32149307E+02   1.84373169E+01   1.84128456E+01   1.13736458E+02  -5.63331566E+01   1.13724220E+02   1.84532146E+01   1.32108932E+02   1.84373169E+01   2.14245701E+00
             1385                2   1.13938850E+02   1.32292328E+02   1.32292328E+02   1.82698193E+01   1.84373169E+01   1.32292328E+02   1.32292328E+02   1.84373169E+01   1.82698193E+01   1.14022514E+02  -5.63331566E+01   1.13938568E+02   1.83117313E+01   1.32250412E+02   1.84373169E+01   2.18574691E+00
             1385                3   1.13666229E+02   1.32110641E+02   1.32110641E+02   1.84514980E+01   1.84373169E+01   1.32110641E+02   1.32110641E+02   1.84514980E+01   1.84373169E+01   1.13673317E+02  -5.63331490E+01   1.13666229E+02   1.84973927E+01   1.32064743E+02   1.84373169E+01   2.28342986E+00
             1385                4   1.13880882E+02   1.32253708E+02   1.32253708E+02   1.83084373E+01   1.84373169E+01   1.32253708E+02   1.32253708E+02   1.84373169E+01   1.83084373E+01   1.13945274E+02  -5.63331566E+01   1.13880714E+02   1.83559666E+01   1.32206177E+02   1.84373169E+01   2.32672191E+00
             1386                1   7.85523605E+01   7.27873001E+01   7.27873001E+01  -5.64986372E+00  -5.87975454E+00   7.27873001E+01   7.27873001E+01  -5.64986372E+00  -5.87975454E+00   7.86670532E+01  -2.04192276E+01   7.85516052E+01  -5.36930704E+00   7.25067444E+01  -5.87975454E+00   4.68265438E+00
             1386                2   7.87438812E+01   7.29151154E+01   7.29151154E+01  -5.77767897E+00  -5.87975454E+00   7.29151154E+01   7.29151154E+01  -5.77767897E+00  -5.87975454E+00   7.87948685E+01  -2.04192276E+01   7.87437286E+01  -5.51619482E+00   7.26536331E+01  -5.87975454E+00   4.52861452E+00
             1386                3   7.88079071E+01   7.29578171E+01   7.29578171E+01  -5.82037640E+00  -5.87975454E+00   7.29578171E+01   7.29578171E+01  -5.82037640E+00  -5.87975454E+00   7.88375778E+01  -2.04192295E+01   7.88078461E+01  -5.52302837E+00   7.26604691E+01  -5.87975454E+00   4.83077145E+00
             1386                4   7.89992218E+01   7.30853577E+01   7.30853577E+01  -5.94792509E+00  -5.87975454E+00   7.30853577E+01   7.30853577E+01  -5.87975454E+00  -5.94792509E+00   7.90332870E+01  -2.04192276E+01   7.89991531E+01  -5.67017365E+00   7.28076096E+01  -5.87975454E+00   4.67701387E+00
             1387                1   2.15730057E+02   2.13009048E+02   2.13009048E+02  -1.35223322E+01   1.00097971E+01   2.13009048E+02   2.13009048E+02   1.00097971E+01  -1.35223322E+01   2.26531372E+02  -6.98321686E+01   2.12813797E+02  -1.34537287E+01   2.12940445E+02   1.00097971E+01  -3.94139791E+00
             1387                2   2.16144653E+02   2.13121536E+02   2.13121536E+02  -1.50016899E+01   1.13766632E+01   2.13121536E+02   2.13121536E+02   1.13766632E+01  -1.50016899E+01   2.28123215E+02  -6.98321686E+01   2.12478073E+02  -1.47395668E+01   2.12859406E+02   1.13766632E+01  -7.72842264E+00
             1387                3   2.16385696E+02   2.13230148E+02   2.13230148E+02  -1.54812832E+01   1.17476358E+01   2.13230148E+02   2.13230148E+02   1.17476358E+01  -1.54812832E+01   2.28711441E+02  -6.98321686E+01   2.12480118E+02  -1.54712610E+01   2.13220139E+02   1.17476358E+01  -1.51346076E+00
             1387                4   2.16605804E+02   2.13188339E+02   2.13188339E+02  -1.68830357E+01   1.31912041E+01   2.13188339E+02   2.13188339E+02   1.31912041E+01  -1.68830357E+01   2.30071365E+02  -6.98321686E+01   2.11832214E+02  -1.67517967E+01   2.13057098E+02   1.31912041E+01  -5.49327469E+00
             1388                1   6.08676834E+01   5.60674362E+01   5.60674362E+01  -4.10178185E+00  -5.47545958E+00   5.60674362E+01   5.60674362E+01  -4.10178185E+00  -5.47545958E+00   6.15428925E+01  -1.54967308E+01   6.08327904E+01  -2.28412294E+00   5.42497749E+01  -5.47545958E+00   1.02987022E+01
             1388                2   6.13002434E+01   5.63587799E+01   5.63587799E+01  -4.39312887E+00  -5.47545958E+00   5.63587799E+01   5.63587799E+01  -4.39312887E+00  -5.47545958E+00   6.18342400E+01  -1.54967308E+01   6.12787399E+01  -2.63316035E+00   5.45988121E+01  -5.47545958E+00   1.01894064E+01
             1388                3   6.11951523E+01   5.62880669E+01   5.62880669E+01  -4.32241583E+00  -5.47545958E+00   5.62880669E+01   5.62880669E+01  -4.32241583E+00  -5.47545958E+00   6.17635269E+01  -1.54967308E+01   6.11707039E+01  -2.39000392E+00   5.43556557E+01  -5.47545958E+00   1.06484852E+01
             1388                4   6.16256027E+01   5.65774422E+01   5.65774422E+01  -4.61178827E+00  -5.47545958E+00   5.65774422E+01   5.65774422E+01  -4.61178827E+00  -5.47545958E+00   6.20529022E+01  -1.54967308E+01   6.16119843E+01  -2.73912907E+00   5.47047806E+01  -5.47545958E+00   1.05394392E+01
             1389                1   4.20347328E+01   4.76022034E+01   4.76022034E+01   5.62804890E+00   5.50714827E+00   4.76022034E+01   4.76022034E+01   5.62804890E+00   5.50714827E+00   4.20950546E+01  -1.95791340E+01   4.20343437E+01   5.72903776E+00   4.75012131E+01   5.50714827E+00   2.05638957E+00
             1389                2   4.20676727E+01   4.76241913E+01   4.76241913E+01   5.60606003E+00   5.50714827E+00   4.76241913E+01   4.76241913E+01   5.60606003E+00   5.50714827E+00   4.21170425E+01  -1.95791340E+01   4.20674133E+01   5.68475389E+00   4.75454979E+01   5.50714827E+00   1.81668901E+00
             1389                3   4.24050446E+01   4.78490677E+01   4.78490677E+01   5.38118219E+00   5.50714827E+00   4.78490677E+01   4.78490677E+01   5.50714827E+00   5.38118219E+00   4.24678879E+01  -1.95791340E+01   4.24046211E+01   5.48551083E+00   4.77447395E+01   5.50714827E+00   2.10232592E+00
             1389                4   4.24385147E+01   4.78713455E+01   4.78713455E+01   5.35890198E+00   5.50714827E+00   4.78713455E+01   4.78713455E+01   5.50714827E+00   5.35890198E+00   4.25124435E+01  -1.95791321E+01   4.24379311E+01   5.44069004E+00   4.77895584E+01   5.50714827E+00   1.86286759E+00
             1390                1   7.39724350E+01   6.78149796E+01   6.78149796E+01  -5.65682650E+00  -6.64813423E+00   6.78149796E+01   6.78149796E+01  -5.65682650E+00  -6.64813423E+00   7.44631119E+01  -1.85033398E+01   7.39574890E+01  -3.91945601E+00   6.60776062E+01  -6.64813423E+00   1.11637478E+01
             1390                2   7.44741974E+01   6.81513672E+01   6.81513672E+01  -5.99321413E+00  -6.64813423E+00   6.81513672E+01   6.81513672E+01  -5.99321413E+00  -6.64813423E+00   7.47994995E+01  -1.85033398E+01   7.44677200E+01  -4.30798006E+00   6.64661331E+01  -6.64813423E+00   1.10503788E+01
             1390                3   7.43044128E+01   6.80376282E+01   6.80376282E+01  -5.87947655E+00  -6.64813423E+00   6.80376282E+01   6.80376282E+01  -5.87947655E+00  -6.64813423E+00   7.46857605E+01  -1.85033398E+01   7.42954636E+01  -4.02733612E+00   6.61854858E+01  -6.64813423E+00   1.15531130E+01
             1390                4   7.48038635E+01   6.83719482E+01   6.83719482E+01  -6.21380329E+00  -6.64813423E+00   6.83719482E+01   6.83719482E+01  -6.21380329E+00  -6.64813423E+00   7.50200806E+01  -1.85033360E+01   7.48010330E+01  -4.41589689E+00   6.65740433E+01  -6.64813423E+00   1.14396610E+01
             1391                1   2.18117950E+02   1.82637466E+02   1.82637466E+02  -4.55879936E+01  -2.37265415E+01   1.82637466E+02   1.82637466E+02  -2.37265415E+01  -4.55879936E+01   2.28225464E+02  -3.77743111E+01   2.15632477E+02  -4.55027657E+01   1.82552231E+02  -2.37265415E+01   4.40963459E+00
             1391                2   2.17869370E+02   1.82708893E+02   1.82708893E+02  -4.29288330E+01  -2.64571438E+01   1.82708893E+02   1.82708893E+02  -2.64571438E+01  -4.29288330E+01   2.25637726E+02  -3.77743034E+01   2.16461823E+02  -4.29183426E+01   1.82698410E+02  -2.64571438E+01  -1.53778958E+00
             1391                3   2.18465683E+02   1.82570953E+02   1.82570953E+02  -4.82082977E+01  -2.10397396E+01   1.82570953E+02   1.82570953E+02  -2.10397396E+01  -4.82082977E+01   2.30779251E+02  -3.77743034E+01   2.14615616E+02  -4.82004967E+01   1.82563156E+02  -2.10397396E+01  -1.34149146E+00
             1391                4   2.18239990E+02   1.82697571E+02   1.82697571E+02  -4.58303223E+01  -2.35443344E+01   1.82697571E+02   1.82697571E+02  -2.35443344E+01  -4.58303223E+01   2.28527893E+02  -3.77743034E+01   2.15657669E+02  -4.56020699E+01   1.82469315E+02  -2.35443344E+01  -7.21876097E+00
             1392                1   1.10308434E+02   1.20152473E+02   1.20152473E+02   9.86890507E+00   9.81917953E+00   1.20152473E+02   1.20152473E+02   9.86890507E+00   9.81917953E+00   1.10333290E+02  -4.66135216E+01   1.10308411E+02   9.87775707E+00   1.20143623E+02   9.81917953E+00   9.87843931E-01
             1392                2   1.10481804E+02   1.20268051E+02   1.20268051E+02   9.75332832E+00   9.81917953E+00   1.20268051E+02   1.20268051E+02   9.81917953E+00   9.75332832E+00   1.10514717E+02  -4.66135216E+01   1.10481766E+02   9.76205826E+00   1.20259323E+02   9.81917953E+00   9.81961429E-01
             1392                3   1.10320198E+02   1.20160316E+02   1.20160316E+02   9.86106014E+00   9.81917953E+00   1.20160316E+02   1.20160316E+02   9.86106014E+00   9.81917953E+00   1.10341141E+02  -4.66135216E+01   1.10320183E+02   9.87210464E+00   1.20149277E+02   9.81917953E+00   1.10346389E+00
             1392                4   1.10493637E+02   1.20275932E+02   1.20275932E+02   9.74544811E+00   9.81917953E+00   1.20275932E+02   1.20275932E+02   9.81917953E+00   9.74544811E+00   1.10530479E+02  -4.66135216E+01   1.10493576E+02   9.75634956E+00   1.20265030E+02   9.81917953E+00   1.09757209E+00
             1393                1   9.14949265E+01   8.67507782E+01   8.67507782E+01  -4.66366243E+00  -4.82443094E+00   8.67507782E+01   8.67507782E+01  -4.66366243E+00  -4.82443094E+00   9.15752029E+01  -2.57542267E+01   9.14946136E+01  -4.29477644E+00   8.63818893E+01  -4.82443094E+00   5.79529047E+00
             1393                2   9.17365952E+01   8.69119568E+01   8.69119568E+01  -4.82484579E+00  -4.82443094E+00   8.69119568E+01   8.69119568E+01  -4.82443094E+00  -4.82484579E+00   9.17368011E+01  -2.57542267E+01   9.17366028E+01  -4.46884727E+00   8.65559616E+01  -4.82443094E+00   5.70361853E+00
             1393                3   9.16637650E+01   8.68633957E+01   8.68633957E+01  -4.77628613E+00  -4.82443094E+00   8.68633957E+01   8.68633957E+01  -4.77628613E+00  -4.82443094E+00   9.16878281E+01  -2.57542267E+01   9.16637344E+01  -4.38566160E+00   8.64727707E+01  -4.82443094E+00   5.97029352E+00
             1393                4   9.19049835E+01   8.70241776E+01   8.70241776E+01  -4.93706846E+00  -4.82443094E+00   8.70241776E+01   8.70241776E+01  -4.82443094E+00  -4.93706846E+00   9.19612503E+01  -2.57542267E+01   9.19048233E+01  -4.55973387E+00   8.66468430E+01  -4.82443094E+00   5.87861109E+00
             1394                1   7.34667740E+01   6.77658157E+01   6.77658157E+01  -5.42063999E+00  -5.97810698E+00   6.77658157E+01   6.77658157E+01  -5.42063999E+00  -5.97810698E+00   7.37439270E+01  -1.87890224E+01   7.34620209E+01  -4.52915001E+00   6.68743286E+01  -5.97810698E+00   8.02808189E+00
             1394                2   7.38035278E+01   6.79910049E+01   6.79910049E+01  -5.64582539E+00  -5.97810698E+00   6.79910049E+01   6.79910049E+01  -5.64582539E+00  -5.97810698E+00   7.39691086E+01  -1.87890224E+01   7.38018494E+01  -4.79215860E+00   6.71373367E+01  -5.97810698E+00   7.88241386E+00
             1394                3   7.37644196E+01   6.79648666E+01   6.79648666E+01  -5.61969137E+00  -5.97810698E+00   6.79648666E+01   6.79648666E+01  -5.61969137E+00  -5.97810698E+00   7.39429779E+01  -1.87890224E+01   7.37624588E+01  -4.67295218E+00   6.70181274E+01  -5.97810698E+00   8.29271793E+00
             1394                4   7.40996399E+01   6.81887207E+01   6.81887207E+01  -5.84354782E+00  -5.97810698E+00   6.81887207E+01   6.81887207E+01  -5.84354782E+00  -5.97810698E+00   7.41668320E+01  -1.87890224E+01   7.40993652E+01  -4.93589830E+00   6.72810745E+01  -5.97810698E+00   8.14687347E+00
             1395                1   2.69005184E+01   3.78285713E+01   3.78285713E+01   9.56025410E+00   1.25447626E+01   3.78285713E+01   3.78285713E+01   1.25447626E+01   9.56025410E+00   2.82683163E+01  -1.99778614E+01   2.65242062E+01   1.30367737E+01   3.43520508E+01   1.25447626E+01   9.28381157E+00
             1395                2   2.67654800E+01   3.77428551E+01   3.77428551E+01   9.64596939E+00   1.25447626E+01   3.77428551E+01   3.77428551E+01   1.25447626E+01   9.64596939E+00   2.80968857E+01  -1.99778614E+01   2.64088573E+01   1.29906902E+01   3.43981361E+01   1.25447626E+01   9.09884930E+00
             1395                3   2.71695499E+01   3.79990692E+01   3.79990692E+01   9.38975430E+00   1.25447626E+01   3.79990692E+01   3.79990692E+01   1.25447626E+01   9.38975430E+00   2.86093159E+01  -1.99778614E+01   2.67527676E+01   1.28516207E+01   3.45372047E+01   1.25447626E+01   9.33043957E+00
             1395                4   2.70359383E+01   3.79144363E+01   3.79144363E+01   9.47438812E+00   1.25447626E+01   3.79144363E+01   3.79144363E+01   1.25447626E+01   9.47438812E+00   2.84400482E+01  -1.99778614E+01   2.66394596E+01   1.28055067E+01   3.45833168E+01   1.25447626E+01   9.14553738E+00
             1396                1   3.71714401E+01   3.37990608E+01   3.37990608E+01  -7.40925372E-01  -5.53805399E+00   3.37990608E+01   3.37990608E+01  -7.40925372E-01  -5.53805399E+00   3.93371162E+01  -9.17336082E+00   3.64652672E+01   4.92710978E-01   3.25654259E+01  -5.53805399E+00   6.40998411E+00
             1396                2   3.76135330E+01   3.41152344E+01   3.41152344E+01  -1.05709946E+00  -5.53805399E+00   3.41152344E+01   3.41152344E+01  -1.05709946E+00  -5.53805399E+00   3.96532898E+01  -9.17336082E+00   3.70058861E+01   1.74835503E-01   3.28833008E+01  -5.53805399E+00   6.46624756E+00
             1396                3   3.72620010E+01   3.38639946E+01   3.38639946E+01  -8.05857122E-01  -5.53805399E+00   3.38639946E+01   3.38639946E+01  -8.05857122E-01  -5.53805399E+00   3.94020462E+01  -9.17336082E+00   3.65767975E+01   5.54127753E-01   3.25040092E+01  -5.53805399E+00   6.73059511E+00
             1396                4   3.77028656E+01   3.41788864E+01   3.41788864E+01  -1.12074912E+00  -5.53805399E+00   3.41788864E+01   3.41788864E+01  -1.12074912E+00  -5.53805399E+00   3.97169380E+01  -9.17336082E+00   3.71139908E+01   2.35618621E-01   3.28225174E+01  -5.53805399E+00   6.78524494E+00
             1397                1   1.78646866E+02   1.80489273E+02   1.80489273E+02  -2.65286064E+00   6.70554543E+00   1.80489273E+02   1.80489273E+02   6.70554543E+00  -2.65286064E+00   1.83142136E+02  -6.15139885E+01   1.78094101E+02  -2.61618209E+00   1.80452591E+02   6.70554543E+00   2.59159255E+00
             1397                2   1.77346237E+02   1.79678528E+02   1.79678528E+02  -9.96216118E-01   5.85962963E+00   1.79678528E+02   1.79678528E+02   5.85962963E+00  -9.96216118E-01   1.80674744E+02  -6.15139809E+01   1.77047714E+02  -8.47667933E-01   1.79529984E+02   5.85962963E+00   5.17843533E+00
             1397                3   1.77303040E+02   1.79647430E+02   1.79647430E+02  -1.03935242E+00   5.93388367E+00   1.79647430E+02   1.79647430E+02   5.93388367E+00  -1.03935242E+00   1.80686783E+02  -6.15139885E+01   1.76994110E+02  -1.03935957E+00   1.79647430E+02   5.93388367E+00   2.78253085E-03
             1397                4   1.75955185E+02   1.78790421E+02   1.78790421E+02   6.95271313E-01   5.05625391E+00   1.78790421E+02   1.78790421E+02   5.05625391E+00   6.95271313E-01   1.78095139E+02  -6.15139809E+01   1.75833527E+02   7.32566774E-01   1.78753128E+02   5.05625391E+00   2.57670379E+00
             1398                1   3.69461746E+01   3.97559242E+01   3.97559242E+01   5.28976798E-01   5.61817074E+00   3.97559242E+01   3.97559242E+01   5.61817074E+00   5.28976798E-01   3.92269478E+01  -1.53010244E+01   3.61449699E+01   1.22968757E+00   3.90552139E+01   5.61817074E+00   5.19574022E+00
             1398                2   3.69527702E+01   3.97600670E+01   3.97600670E+01   5.24837732E-01   5.61817074E+00   3.97600670E+01   3.97600670E+01   5.61817074E+00   5.24837732E-01   3.92352295E+01  -1.53010254E+01   3.61503906E+01   1.25884509E+00   3.90260582E+01   5.61817074E+00   5.31603479E+00
             1398                3   3.67475357E+01   3.96311378E+01   3.96311378E+01   6.53767109E-01   5.61817074E+00   3.96311378E+01   3.96311378E+01   5.61817074E+00   6.53767109E-01   3.89773712E+01  -1.53010254E+01   3.59814949E+01   1.35077202E+00   3.89341316E+01   5.61817074E+00   5.16542673E+00
             1398                4   3.67537384E+01   3.96350365E+01   3.96350365E+01   6.49864376E-01   5.61817074E+00   3.96350365E+01   3.96350365E+01   5.61817074E+00   6.49864376E-01   3.89851723E+01  -1.53010244E+01   3.59866104E+01   1.38008988E+00   3.89048119E+01   5.61817074E+00   5.28532839E+00
             1399                1   8.11867447E+01   7.51894379E+01   7.51894379E+01  -6.03273678E+00  -5.96184158E+00   7.51894379E+01   7.51894379E+01  -5.96184158E+00  -6.03273678E+00   8.12221756E+01  -2.10649529E+01   8.11866837E+01  -5.73907280E+00   7.48957748E+01  -5.96184158E+00   4.87500048E+00
             1399                2   8.09870377E+01   7.50562973E+01   7.50562973E+01  -5.89959717E+00  -5.96184158E+00   7.50562973E+01   7.50562973E+01  -5.89959717E+00  -5.96184158E+00   8.10181351E+01  -2.10649529E+01   8.09869843E+01  -5.58701229E+00   7.47437134E+01  -5.96184158E+00   5.02073717E+00
             1399                3   8.09434662E+01   7.50272369E+01   7.50272369E+01  -5.87053585E+00  -5.96184158E+00   7.50272369E+01   7.50272369E+01  -5.87053585E+00  -5.96184158E+00   8.09890747E+01  -2.10649529E+01   8.09433517E+01  -5.59392500E+00   7.47506256E+01  -5.96184158E+00   4.72235775E+00
             1399                4   8.07430725E+01   7.48935089E+01   7.48935089E+01  -5.73681021E+00  -5.96184158E+00   7.48935089E+01   7.48935089E+01  -5.73681021E+00  -5.96184158E+00   8.08553543E+01  -2.10649529E+01   8.07423630E+01  -5.44182682E+00   7.45985260E+01  -5.96184158E+00   4.86802435E+00
             1400                1   6.25417862E+01   5.88380928E+01   5.88380928E+01  -3.42719078E+00  -3.97657728E+00   5.88380928E+01   5.88380928E+01  -3.42719078E+00  -3.97657728E+00   6.28146667E+01  -1.71447735E+01   6.25363541E+01  -2.59740543E+00   5.80083046E+01  -3.97657728E+00   7.13991165E+00
             1400                2   6.28039818E+01   5.90135384E+01   5.90135384E+01  -3.60264158E+00  -3.97657728E+00   5.90135384E+01   5.90135384E+01  -3.60264158E+00  -3.97657728E+00   6.29901161E+01  -1.71447735E+01   6.28014793E+01  -2.81596565E+00   5.82268639E+01  -3.97657728E+00   6.97421408E+00
             1400                3   6.28577003E+01   5.90494537E+01   5.90494537E+01  -3.63855267E+00  -3.97657728E+00   5.90494537E+01   5.90494537E+01  -3.63855267E+00  -3.97657728E+00   6.30260315E+01  -1.71447735E+01   6.28556557E+01  -2.76239681E+00   5.81732979E+01  -3.97657728E+00   7.35912752E+00
             1400                4   6.31184082E+01   5.92236061E+01   5.92236061E+01  -3.81270671E+00  -3.97657728E+00   5.92236061E+01   5.92236061E+01  -3.81270671E+00  -3.97657728E+00   6.32001839E+01  -1.71447735E+01   6.31179314E+01  -2.98084664E+00   5.83917465E+01  -3.97657728E+00   7.19342852E+00
             1401                1   4.89276314E+01   5.13189049E+01   5.13189049E+01   2.34407258E+00   2.43861699E+00   5.13189049E+01   5.13189049E+01   2.43861699E+00   2.34407258E+00   4.89748344E+01  -1.87005329E+01   4.89274254E+01   2.44927597E+00   5.12137032E+01   2.43861699E+00   2.26743388E+00
             1401                2   4.85796852E+01   5.10868912E+01   5.10868912E+01   2.57608771E+00   2.43861699E+00   5.10868912E+01   5.10868912E+01   2.57608771E+00   2.43861699E+00   4.86482735E+01  -1.87005329E+01   4.85792465E+01   2.67757845E+00   5.09854012E+01   2.43861699E+00   2.21654654E+00
             1401                3   4.89749832E+01   5.13504372E+01   5.13504372E+01   2.31254029E+00   2.43861699E+00   5.13504372E+01   5.13504372E+01   2.43861699E+00   2.31254029E+00   4.90378990E+01  -1.87005329E+01   4.89746170E+01   2.39767313E+00   5.12653046E+01   2.43861699E+00   2.04146075E+00
             1401                4   4.86275330E+01   5.11188316E+01   5.11188316E+01   2.54414821E+00   2.43861699E+00   5.11188316E+01   5.11188316E+01   2.54414821E+00   2.43861699E+00   4.86802139E+01  -1.87005329E+01   4.86272774E+01   2.62585211E+00   5.10371284E+01   2.43861699E+00   1.99047780E+00
             1402                1   4.26559486E+01   4.03015709E+01   4.03015709E+01  -1.03292000E+00  -3.56319118E+00   4.03015709E+01   4.03015709E+01  -1.03292000E+00  -3.56319118E+00   4.38647614E+01  -1.19018202E+01   4.24866066E+01   6.95216715E-01   3.85734329E+01  -3.56319118E+00   8.27316189E+00
             1402                2   4.30120506E+01   4.05461388E+01   4.05461388E+01  -1.27748394E+00  -3.56319118E+00   4.05461388E+01   4.05461388E+01  -1.27748394E+00  -3.56319118E+00   4.41093292E+01  -1.19018211E+01   4.28750839E+01   4.20934796E-01   3.88477173E+01  -3.56319118E+00   8.25526905E+00
             1402                3   4.28407478E+01   4.04285927E+01   4.04285927E+01  -1.15994453E+00  -3.56319118E+00   4.04285927E+01   4.04285927E+01  -1.15994453E+00  -3.56319118E+00   4.39917870E+01  -1.19018202E+01   4.26886902E+01   6.81618273E-01   3.85870323E+01  -3.56319118E+00   8.55549717E+00
             1402                4   4.31939468E+01   4.06707420E+01   4.06707420E+01  -1.40208769E+00  -3.56319118E+00   4.06707420E+01   4.06707420E+01  -1.40208769E+00  -3.56319118E+00   4.42339325E+01  -1.19018211E+01   4.30720558E+01   4.06240821E-01   3.88624115E+01  -3.56319118E+00   8.53296566E+00
             1403                1   1.10352348E+02   1.20124123E+02   1.20124123E+02   9.74796200E+00   9.79559422E+00   1.20124123E+02   1.20124123E+02   9.79559422E+00   9.74796200E+00   1.10376160E+02  -4.65558929E+01   1.10352325E+02   9.88322544E+00   1.19988853E+02   9.79559422E+00   3.86159444E+00
             1403                2   1.10510406E+02   1.20229446E+02   1.20229446E+02   9.64263725E+00   9.79559422E+00   1.20229446E+02   1.20229446E+02   9.79559422E+00   9.64263725E+00   1.10586815E+02  -4.65558929E+01   1.10510170E+02   9.77579689E+00   1.20096283E+02   9.79559422E+00   3.83512712E+00
             1403                3   1.10401367E+02   1.20156792E+02   1.20156792E+02   9.71529675E+00   9.79559422E+00   1.20156792E+02   1.20156792E+02   9.79559422E+00   9.71529675E+00   1.10441490E+02  -4.65558929E+01   1.10401299E+02   9.85810757E+00   1.20013977E+02   9.79559422E+00   3.96886945E+00
             1403                4   1.10559540E+02   1.20262177E+02   1.20262177E+02   9.60991001E+00   9.79559422E+00   1.20262177E+02   1.20262177E+02   9.79559422E+00   9.60991001E+00   1.10652267E+02  -4.65558929E+01   1.10559189E+02   9.75054646E+00   1.20121536E+02   9.79559422E+00   3.94236493E+00
             1404                1   5.98121452E+01   5.66701584E+01   5.66701584E+01  -2.83982563E+00  -3.43963075E+00   5.66701584E+01   5.66701584E+01  -2.83982563E+00  -3.43963075E+00   6.01097908E+01  -1.67968998E+01   5.98053780E+01  -1.90032244E+00   5.57306557E+01  -3.43963075E+00   7.41803122E+00
             1404                2   6.00750618E+01   5.68461952E+01   5.68461952E+01  -3.01586080E+00  -3.43963075E+00   5.68461952E+01   5.68461952E+01  -3.01586080E+00  -3.43963075E+00   6.02858238E+01  -1.67968998E+01   6.00717010E+01  -2.12343049E+00   5.59537659E+01  -3.43963075E+00   7.25439072E+00
             1404                3   6.01323280E+01   5.68845024E+01   5.68845024E+01  -3.05416799E+00  -3.43963075E+00   5.68845024E+01   5.68845024E+01  -3.05416799E+00  -3.43963075E+00   6.03241310E+01  -1.67968998E+01   6.01295509E+01  -2.06358743E+00   5.58939209E+01  -3.43963075E+00   7.64152098E+00
             1404                4   6.03937263E+01   5.70592003E+01   5.70592003E+01  -3.22886801E+00  -3.43963075E+00   5.70592003E+01   5.70592003E+01  -3.22886801E+00  -3.43963075E+00   6.04988327E+01  -1.67968998E+01   6.03929024E+01  -2.28661990E+00   5.61169548E+01  -3.43963075E+00   7.47786236E+00
             1405                1   1.74152786E+02   1.69885284E+02   1.69885284E+02  -5.57213163E+00  -2.93287039E+00   1.69885284E+02   1.69885284E+02  -2.93287039E+00  -5.57213163E+00   1.75457413E+02  -5.37934265E+01   1.74107788E+02  -5.56366062E+00   1.69876816E+02  -2.93287039E+00   1.21917522E+00
             1405                2   1.72731766E+02   1.68947922E+02   1.68947922E+02  -3.71787262E+00  -3.84975743E+00   1.68947922E+02   1.68947922E+02  -3.71787262E+00  -3.84975743E+00   1.72797668E+02  -5.37934265E+01   1.72731659E+02  -3.68923473E+00   1.68919281E+02  -3.84975743E+00   2.22332168E+00
             1405                3   1.73666428E+02   1.69566818E+02   1.69566818E+02  -4.95148468E+00  -3.23504734E+00   1.69566818E+02   1.69566818E+02  -3.23504734E+00  -4.95148468E+00   1.74518295E+02  -5.37934265E+01   1.73647354E+02  -4.93750858E+00   1.69552841E+02  -3.23504734E+00  -1.56132793E+00
             1405                4   1.72224091E+02   1.68607727E+02   1.68607727E+02  -3.06216168E+00  -4.16528893E+00   1.68607727E+02   1.68607727E+02  -3.06216168E+00  -4.16528893E+00   1.72773010E+02  -5.37934265E+01   1.72216141E+02  -3.06019235E+00   1.68605759E+02  -4.16528893E+00  -5.80912352E-01
             1406                1   5.18490410E+01   5.07081337E+01   5.07081337E+01  -8.13380241E-01  -1.46234703E+00   5.07081337E+01   5.07081337E+01  -8.13380241E-01  -1.46234703E+00   5.21704788E+01  -1.61441345E+01   5.18399048E+01   4.22241986E-01   4.94725113E+01  -1.46234703E+00   7.88253307E+00
             1406                2   5.20873985E+01   5.08679199E+01   5.08679199E+01  -9.73167062E-01  -1.46234703E+00   5.08679199E+01   5.08679199E+01  -9.73167062E-01  -1.46234703E+00   5.23302650E+01  -1.61441345E+01   5.20822334E+01   1.99322492E-01   4.96954308E+01  -1.46234703E+00   7.70768213E+00
             1406                3   5.22177963E+01   5.09552269E+01   5.09552269E+01  -1.06047094E+00  -1.46234703E+00   5.09552269E+01   5.09552269E+01  -1.06047094E+00  -1.46234703E+00   5.24175758E+01  -1.61441364E+01   5.22143135E+01   2.43919507E-01   4.96508369E+01  -1.46234703E+00   8.13310146E+00
             1406                4   5.24530907E+01   5.11125793E+01   5.11125793E+01  -1.21782613E+00  -1.46234703E+00   5.11125793E+01   5.11125793E+01  -1.21782613E+00  -1.46234703E+00   5.25749245E+01  -1.61441345E+01   5.24518127E+01   2.23865043E-02   4.98723679E+01  -1.46234703E+00   7.96006346E+00
             1407                1   1.92966278E+02   2.20153793E+02   2.20153793E+02   1.72093792E+01   3.90188332E+01   2.20153793E+02   2.20153793E+02   3.90188332E+01   1.72093792E+01   2.02944412E+02  -9.21273422E+01   1.90163773E+02   2.69555302E+01   2.10407639E+02   3.90188332E+01   4.33928642E+01
             1407                2   1.93614685E+02   2.20353729E+02   2.20353729E+02   1.52062674E+01   4.08219986E+01   2.20353729E+02   2.20353729E+02   4.08219986E+01   1.52062674E+01   2.05147461E+02  -9.21273270E+01   1.89746170E+02   2.55885353E+01   2.09971466E+02   4.08219986E+01   4.49678078E+01
             1407                3   1.91298111E+02   2.19132294E+02   2.19132294E+02   1.85935459E+01   3.86561661E+01   2.19132294E+02   2.19132294E+02   3.86561661E+01   1.85935459E+01   2.00538757E+02  -9.21273422E+01   1.88909454E+02   3.03760853E+01   2.07349762E+02   3.86561661E+01   4.71595917E+01
             1407                4   1.93211594E+02   2.20182693E+02   2.20182693E+02   1.60604134E+01   4.01389084E+01   2.20182693E+02   2.20182693E+02   4.01389084E+01   1.60604134E+01   2.04122269E+02  -9.21273422E+01   1.89792038E+02   2.85805817E+01   2.07662521E+02   4.01389084E+01   4.89784698E+01
             1408                1   5.30845642E+01   4.82796860E+01   4.82796860E+01  -3.74249244E+00  -5.80702734E+00   4.82796860E+01   4.82796860E+01  -3.74249244E+00  -5.80702734E+00   5.40867119E+01  -1.29100561E+01   5.29941216E+01  -1.29080451E+00   4.58279991E+01  -5.80702734E+00   1.10241241E+01
             1408                2   5.25967369E+01   4.79472275E+01   4.79472275E+01  -3.41003227E+00  -5.80702734E+00   4.79472275E+01   4.79472275E+01  -3.41003227E+00  -5.80702734E+00   5.37542534E+01  -1.29100561E+01   5.24736328E+01  -8.90609086E-01   4.54278030E+01  -5.80702734E+00   1.10924816E+01
             1408                3   5.27812271E+01   4.80731010E+01   4.80731010E+01  -3.53590441E+00  -5.80702734E+00   4.80731010E+01   4.80731010E+01  -3.53590441E+00  -5.80702734E+00   5.38801270E+01  -1.29100571E+01   5.26711197E+01  -1.24438620E+00   4.57815819E+01  -5.80702734E+00   1.06307096E+01
             1408                4   5.22974014E+01   4.77426224E+01   4.77426224E+01  -3.20542717E+00  -5.80702734E+00   4.77426224E+01   4.77426224E+01  -3.20542717E+00  -5.80702734E+00   5.35496483E+01  -1.29100561E+01   5.21515083E+01  -8.46771538E-01   4.53839645E+01  -5.80702734E+00   1.07054033E+01
             1409                1   8.54301605E+01   8.00591583E+01   8.00591583E+01  -5.04010487E+00  -5.69810057E+00   8.00591583E+01   8.00591583E+01  -5.04010487E+00  -5.69810057E+00   8.57572556E+01  -2.31069851E+01   8.54244537E+01  -3.05093932E+00   7.80699921E+01  -5.69810057E+00   1.28576660E+01
             1409                2   8.60237579E+01   8.04559631E+01   8.04559631E+01  -5.43690300E+00  -5.69810057E+00   8.04559631E+01   8.04559631E+01  -5.43690300E+00  -5.69810057E+00   8.61540604E+01  -2.31069870E+01   8.60228653E+01  -3.49406481E+00   7.85131226E+01  -5.69810057E+00   1.27711134E+01
             1409                3   8.57466965E+01   8.02708664E+01   8.02708664E+01  -5.25181770E+00  -5.69810057E+00   8.02708664E+01   8.02708664E+01  -5.25181770E+00  -5.69810057E+00   8.59689713E+01  -2.31069851E+01   8.57440872E+01  -3.12807155E+00   7.81471252E+01  -5.69810057E+00   1.33085661E+01
             1409                4   8.63376083E+01   8.06653824E+01   8.06653824E+01  -5.64632416E+00  -5.69810057E+00   8.06653824E+01   8.06653824E+01  -5.64632416E+00  -5.69810057E+00   8.63634796E+01  -2.31069870E+01   8.63375702E+01  -3.57117462E+00   7.85902328E+01  -5.69810057E+00   1.32213259E+01
             1410                1   1.83718613E+02   1.80837204E+02   1.80837204E+02  -7.21803427E+00   1.78635347E+00   1.80837204E+02   1.80837204E+02   1.78635347E+00  -7.21803427E+00   1.88055237E+02  -5.84685059E+01   1.83221161E+02  -7.21536207E+00   1.80834534E+02   1.78635347E+00   7.08811343E-01
             1410                2   1.82177856E+02   1.79862167E+02   1.79862167E+02  -5.48556232E+00   1.02892745E+00   1.79862167E+02   1.79862167E+02   1.02892745E+00  -5.48556232E+00   1.85347733E+02  -5.84685097E+01   1.81915512E+02  -5.43647671E+00   1.79813080E+02   1.02892745E+00   3.01584339E+00
             1410                3   1.82348190E+02   1.79969025E+02   1.79969025E+02  -5.72247553E+00   1.15897202E+00   1.79969025E+02   1.79969025E+02   1.15897202E+00  -5.72247553E+00   1.85691498E+02  -5.84685059E+01   1.82055710E+02  -5.70466185E+00   1.79951218E+02   1.15897202E+00  -1.81843674E+00
             1410                4   1.80761871E+02   1.78950821E+02   1.78950821E+02  -3.92390132E+00   3.78607184E-01   1.78950821E+02   1.78950821E+02   3.78607184E-01  -3.92390132E+00   1.82874725E+02  -5.84685059E+01   1.80646622E+02  -3.92265248E+00   1.78949570E+02   3.78607184E-01   4.77775872E-01
             1411                1   4.39003792E+01   4.83420868E+01   4.83420868E+01   4.50541782E+00   4.37827349E+00   4.83420868E+01   4.83420868E+01   4.50541782E+00   4.37827349E+00   4.39638138E+01  -1.90752583E+01   4.38999634E+01   4.73875332E+00   4.81087494E+01   4.37827349E+00   3.18970966E+00
             1411                2   4.39576759E+01   4.83803329E+01   4.83803329E+01   4.46717119E+00   4.37827349E+00   4.83803329E+01   4.83803329E+01   4.46717119E+00   4.37827349E+00   4.40020599E+01  -1.90752583E+01   4.39574738E+01   4.66767883E+00   4.81798248E+01   4.37827349E+00   2.96052647E+00
             1411                3   4.42655258E+01   4.85855331E+01   4.85855331E+01   4.26197100E+00   4.37827349E+00   4.85855331E+01   4.85855331E+01   4.37827349E+00   4.26197100E+00   4.43235626E+01  -1.90752583E+01   4.42651825E+01   4.50304842E+00   4.83444557E+01   4.37827349E+00   3.25995040E+00
             1411                4   4.43220634E+01   4.86231689E+01   4.86231689E+01   4.22433567E+00   4.37827349E+00   4.86231689E+01   4.86231689E+01   4.37827349E+00   4.22433567E+00   4.43988342E+01  -1.90752583E+01   4.43214645E+01   4.43226194E+00   4.84152412E+01   4.37827349E+00   3.03125024E+00
             1412                1   4.79978790E+01   5.03952408E+01   5.03952408E+01   2.45224786E+00   2.34265828E+00   5.03952408E+01   5.03952408E+01   2.45224786E+00   2.34265828E+00   4.80525818E+01  -1.83967152E+01   4.79976006E+01   2.73907614E+00   5.01084137E+01   2.34265828E+00   3.69717026E+00
             1412                2   4.83437347E+01   5.06257973E+01   5.06257973E+01   2.22169518E+00   2.34265828E+00   5.06257973E+01   5.06257973E+01   2.34265828E+00   2.22169518E+00   4.84041023E+01  -1.83967171E+01   4.83433914E+01   2.52017951E+00   5.03273125E+01   2.34265828E+00   3.78929806E+00
             1412                3   4.79123077E+01   5.03381081E+01   5.03381081E+01   2.50938344E+00   2.34265828E+00   5.03381081E+01   5.03381081E+01   2.50938344E+00   2.34265828E+00   4.79954491E+01  -1.83967171E+01   4.79116516E+01   2.83199978E+00   5.00154915E+01   2.34265828E+00   3.91488099E+00
             1412                4   4.82591209E+01   5.05694389E+01   5.05694389E+01   2.27804780E+00   2.34265828E+00   5.05694389E+01   5.05694389E+01   2.34265828E+00   2.27804780E+00   4.82913933E+01  -1.83967152E+01   4.82590218E+01   2.61282516E+00   5.02346649E+01   2.34265828E+00   4.00683308E+00
             1413                1   1.12276321E+02   1.26293770E+02   1.26293770E+02   1.39774227E+01   1.40575323E+01   1.26293770E+02   1.26293770E+02   1.40575323E+01   1.39774227E+01   1.12316353E+02  -5.14429054E+01   1.12276268E+02   1.39856253E+01   1.26285576E+02   1.40575323E+01   9.59637225E-01
             1413                2   1.12272354E+02   1.26291138E+02   1.26291138E+02   1.39800711E+01   1.40575323E+01   1.26291138E+02   1.26291138E+02   1.40575323E+01   1.39800711E+01   1.12311066E+02  -5.14429131E+01   1.12272293E+02   1.39908457E+01   1.26280357E+02   1.40575323E+01   1.10014403E+00
             1413                3   1.12065193E+02   1.26153023E+02   1.26153023E+02   1.41181688E+01   1.40575323E+01   1.26153023E+02   1.26153023E+02   1.41181688E+01   1.40575323E+01   1.12095490E+02  -5.14429054E+01   1.12065163E+02   1.41263018E+01   1.26144897E+02   1.40575323E+01   9.54451442E-01
             1413                4   1.12060913E+02   1.26150169E+02   1.26150169E+02   1.41210213E+01   1.40575323E+01   1.26150169E+02   1.26150169E+02   1.41210213E+01   1.40575323E+01   1.12092644E+02  -5.14429054E+01   1.12060883E+02   1.41317263E+01   1.26139473E+02   1.40575323E+01   1.09499538E+00
             1414                1   1.46446594E+02   1.62870300E+02   1.62870300E+02   1.58237705E+01   1.70311108E+01   1.62870300E+02   1.62870300E+02   1.70311108E+01   1.58237705E+01   1.47046539E+02  -6.52417297E+01   1.46435394E+02   1.58676977E+01   1.62826385E+02   1.70311108E+01   2.54094434E+00
             1414                2   1.45153458E+02   1.62010498E+02   1.62010498E+02   1.66835938E+01   1.70311108E+01   1.62010498E+02   1.62010498E+02   1.70311108E+01   1.66835938E+01   1.45326904E+02  -6.52417374E+01   1.45152512E+02   1.67476921E+01   1.61946396E+02   1.70311108E+01   3.05148983E+00
             1414                3   1.45656158E+02   1.62345032E+02   1.62345032E+02   1.63490467E+01   1.70311108E+01   1.62345032E+02   1.62345032E+02   1.70311108E+01   1.63490467E+01   1.45995987E+02  -6.52417297E+01   1.45652557E+02   1.63678246E+01   1.62326248E+02   1.70311108E+01   1.65584171E+00
             1414                4   1.44356888E+02   1.61479599E+02   1.61479599E+02   1.72144794E+01   1.70311108E+01   1.61479599E+02   1.61479599E+02   1.72144794E+01   1.70311108E+01   1.44448486E+02  -6.52417297E+01   1.44356628E+02   1.72469997E+01   1.61447083E+02   1.70311108E+01   2.16555691E+00
             1415                1   2.18027145E+02   2.30161377E+02   2.30161377E+02  -2.66408777E+00   3.08024921E+01   2.30161377E+02   2.30161377E+02   3.08024921E+01  -2.66408777E+00   2.32825455E+02  -8.60999222E+01   2.12132797E+02  -2.65557528E+00   2.30152863E+02   3.08024921E+01  -1.40750456E+00
             1415                2   2.18203690E+02   2.29994659E+02   2.29994659E+02  -4.33204365E+00   3.26371727E+01   2.29994659E+02   2.29994659E+02   3.26371727E+01  -4.33204365E+00   2.34326706E+02  -8.60999222E+01   2.10984558E+02  -4.12929392E+00   2.29791901E+02   3.26371727E+01  -6.88984489E+00
             1415                3   2.18277557E+02   2.29956696E+02   2.29956696E+02  -4.81843519E+00   3.31615181E+01   2.29956696E+02   2.29956696E+02   3.31615181E+01  -4.81843519E+00   2.34775131E+02  -8.60999222E+01   2.10650345E+02  -4.78879070E+00   2.29927048E+02   3.31615181E+01   2.63811207E+00
             1415                4   2.18439926E+02   2.29773041E+02   2.29773041E+02  -6.32453680E+00   3.48512688E+01   2.29773041E+02   2.29773041E+02   3.48512688E+01  -6.32453680E+00   2.36097580E+02  -8.60999222E+01   2.09439957E+02  -6.29063368E+00   2.29739136E+02   3.48512688E+01  -2.82898474E+00
             1416                1   6.55426025E+01   6.08159752E+01   6.08159752E+01  -4.35746098E+00  -5.08966255E+00   6.08159752E+01   6.08159752E+01  -4.35746098E+00  -5.08966255E+00   6.59056396E+01  -1.71229496E+01   6.55334015E+01  -3.26115465E+00   5.97196693E+01  -5.08966255E+00   8.38142014E+00
             1416                2   6.58759613E+01   6.10392761E+01   6.10392761E+01  -4.58075953E+00  -5.08966255E+00   6.10392761E+01   6.10392761E+01  -4.58075953E+00  -5.08966255E+00   6.61289368E+01  -1.71229496E+01   6.58715363E+01  -3.53095126E+00   5.99894676E+01  -5.08966255E+00   8.23324203E+00
             1416                3   6.58589935E+01   6.10279198E+01   6.10279198E+01  -4.56940460E+00  -5.08966255E+00   6.10279198E+01   6.10279198E+01  -4.56940460E+00  -5.08966255E+00   6.61175842E+01  -1.71229496E+01   6.58543701E+01  -3.40767145E+00   5.98661880E+01  -5.08966255E+00   8.65198612E+00
             1416                4   6.61906891E+01   6.12497406E+01   6.12497406E+01  -4.79122066E+00  -5.08966255E+00   6.12497406E+01   6.12497406E+01  -4.79122066E+00  -5.08966255E+00   6.63394012E+01  -1.71229534E+01   6.61891708E+01  -3.67744637E+00   6.01359634E+01  -5.08966255E+00   8.50378418E+00
             1417                1   2.18168564E+01   1.41663294E+01   1.41663294E+01  -1.27972856E-01  -1.09455070E+01   1.41663294E+01   1.41663294E+01  -1.27972856E-01  -1.09455070E+01   2.51118374E+01  -1.03094995E+00   1.35016365E+01  -9.55622196E-02   1.41339188E+01  -1.09455070E+01   6.79882586E-01
             1417                2   2.17221489E+01   1.40695171E+01   1.40695171E+01  -3.11606508E-02  -1.09455070E+01   1.40695171E+01   1.40695171E+01  -3.11606508E-02  -1.09455070E+01   2.50150242E+01  -1.03094995E+00   1.30823946E+01   4.18465547E-02   1.39965105E+01  -1.09455070E+01   1.01198673E+00
             1417                3   2.14854984E+01   1.38235083E+01   1.38235083E+01   2.14848980E-01  -1.09455070E+01   1.38235083E+01   1.38235083E+01   2.14848980E-01  -1.09455070E+01   2.47690144E+01  -1.03094995E+00   1.19066010E+01   2.36618876E-01   1.38017378E+01  -1.09455070E+01   5.43862760E-01
             1417                4   2.13892746E+01   1.37216940E+01   1.37216940E+01   3.16664010E-01  -1.09455070E+01   1.37216940E+01   1.37216940E+01   3.16664010E-01  -1.09455070E+01   2.46672001E+01  -1.03095019E+00   1.13590097E+01   3.74180436E-01   1.36641769E+01  -1.09455070E+01   8.76188278E-01
             1418                1   8.78800278E+01   8.34138031E+01   8.34138031E+01  -4.14743519E+00  -4.78158474E+00   8.34138031E+01   8.34138031E+01  -4.14743519E+00  -4.78158474E+00   8.81953812E+01  -2.48282604E+01   8.78748779E+01  -1.47534537E+00   8.07417068E+01  -4.78158474E+00   1.50609331E+01
             1418                2   8.85981216E+01   8.38936081E+01   8.38936081E+01  -4.62724018E+00  -4.78158474E+00   8.38936081E+01   8.38936081E+01  -4.62724018E+00  -4.78158474E+00   8.86751862E+01  -2.48282604E+01   8.85978165E+01  -2.01021099E+00   8.12765732E+01  -4.78158474E+00   1.49937658E+01
             1418                3   8.82436371E+01   8.36569214E+01   8.36569214E+01  -4.39055395E+00  -4.78158474E+00   8.36569214E+01   8.36569214E+01  -4.39055395E+00  -4.78158474E+00   8.84385071E+01  -2.48282604E+01   8.82416840E+01  -1.53351188E+00   8.07998734E+01  -4.78158474E+00   1.56010551E+01
             1418                4   8.89580994E+01   8.41336441E+01   8.41336441E+01  -4.86727524E+00  -4.78158474E+00   8.41336441E+01   8.41336441E+01  -4.78158474E+00  -4.86727524E+00   8.90009155E+01  -2.48282604E+01   8.89580078E+01  -2.06739831E+00   8.13337631E+01  -4.78158474E+00   1.55355186E+01
             1419                1   2.01570251E+02   1.89809174E+02   1.89809174E+02  -1.47319002E+01  -8.65272808E+00   1.89809174E+02   1.89809174E+02  -8.65272808E+00  -1.47319002E+01   2.04541077E+02  -5.54748497E+01   2.01363831E+02  -1.45927019E+01   1.89669968E+02  -8.65272808E+00   5.33416700E+00
             1419                2   2.00713730E+02   1.89257111E+02   1.89257111E+02  -1.37390137E+01  -9.09356976E+00   1.89257111E+02   1.89257111E+02  -9.09356976E+00  -1.37390137E+01   2.02996124E+02  -5.54748421E+01   2.00592712E+02  -1.35322514E+01   1.89050354E+02  -9.09356976E+00   6.47519112E+00
             1419                3   2.01032608E+02   1.89466965E+02   1.89466965E+02  -1.39614973E+01  -9.08092785E+00   1.89466965E+02   1.89466965E+02  -9.08092785E+00  -1.39614973E+01   2.03428452E+02  -5.54748421E+01   2.00899246E+02  -1.38901091E+01   1.89395569E+02  -9.08092785E+00   3.81022620E+00
             1419                4   2.00045197E+02   1.88823776E+02   1.88823776E+02  -1.29048452E+01  -9.49439526E+00   1.88823776E+02   1.88823776E+02  -9.49439526E+00  -1.29048452E+01   2.01728622E+02  -5.54748421E+01   1.99979782E+02  -1.27838278E+01   1.88702759E+02  -9.49439526E+00   4.93941593E+00
             1420                1   6.86066971E+01   6.21894608E+01   6.21894608E+01  -5.41027212E+00  -7.38170099E+00   6.21894608E+01   6.21894608E+01  -5.41027212E+00  -7.38170099E+00   6.95711670E+01  -1.64658298E+01   6.85429230E+01  -2.37391520E+00   5.91531067E+01  -7.38170099E+00   1.40013351E+01
             1420                2   6.93220520E+01   6.26725426E+01   6.26725426E+01  -5.89335299E+00  -7.38170099E+00   6.26725426E+01   6.26725426E+01  -5.89335299E+00  -7.38170099E+00   7.00542450E+01  -1.64658298E+01   6.92860947E+01  -2.96518469E+00   5.97443733E+01  -7.38170099E+00   1.38635635E+01
             1420                3   6.90437241E+01   6.24848061E+01   6.24848061E+01  -5.70561647E+00  -7.38170099E+00   6.24848061E+01   6.24848061E+01  -5.70561647E+00  -7.38170099E+00   6.98665085E+01  -1.64658298E+01   6.89979324E+01  -2.43238449E+00   5.92115746E+01  -7.38170099E+00   1.45770035E+01
             1420                4   6.97482071E+01   6.29594612E+01   6.29594612E+01  -6.18026972E+00  -7.38170099E+00   6.29594612E+01   6.29594612E+01  -6.18026972E+00  -7.38170099E+00   7.03411636E+01  -1.64658298E+01   6.97249222E+01  -3.02172899E+00   5.98009186E+01  -7.38170099E+00   1.44362154E+01
             1421                1   3.46849976E+01   3.64855614E+01   3.64855614E+01  -1.20873898E-01   4.11018705E+00   3.64855614E+01   3.64855614E+01   4.11018705E+00  -1.20873898E-01   3.66064377E+01  -1.34916258E+01   3.40971527E+01  -6.93579465E-02   3.64340477E+01   4.11018705E+00   1.37227166E+00
             1421                2   3.39390869E+01   3.60133667E+01   3.60133667E+01   3.51321876E-01   4.11018705E+00   3.60133667E+01   3.60133667E+01   4.11018705E+00   3.51321876E-01   3.56620445E+01  -1.34916258E+01   3.34659767E+01   3.86968225E-01   3.59777222E+01   4.11018705E+00   1.12689698E+00
             1421                3   3.50291786E+01   3.67027626E+01   3.67027626E+01  -3.38073641E-01   4.11018705E+00   3.67027626E+01   3.67027626E+01   4.11018705E+00  -3.38073641E-01   3.70408363E+01  -1.34916258E+01   3.43851395E+01  -3.15472364E-01   3.66801605E+01   4.11018705E+00   9.14705217E-01
             1421                4   3.42908401E+01   3.62363014E+01   3.62363014E+01   1.28388748E-01   4.11018705E+00   3.62363014E+01   3.62363014E+01   4.11018705E+00   1.28388748E-01   3.61079102E+01  -1.34916258E+01   3.37648506E+01   1.40783831E-01   3.62239037E+01   4.11018705E+00   6.68922126E-01
             1422                1   3.10358143E+01   2.91488113E+01   2.91488113E+01   2.16264337E-01  -3.63146138E+00   2.91488113E+01   2.91488113E+01   2.16264337E-01  -3.63146138E+00   3.27802734E+01  -8.57787132E+00   3.04922791E+01   3.34361881E-01   2.90307140E+01  -3.63146138E+00   1.84470057E+00
             1422                2   3.13784542E+01   2.93931332E+01   2.93931332E+01  -2.80564558E-02  -3.63146138E+00   2.93931332E+01   2.93931332E+01  -2.80564558E-02  -3.63146138E+00   3.30245934E+01  -8.57787132E+00   3.09078236E+01   1.00822739E-01   2.92642536E+01  -3.63146138E+00   1.94297731E+00
             1422                3   3.09426289E+01   2.90821171E+01   2.90821171E+01   2.82958806E-01  -3.63146138E+00   2.90821171E+01   2.90821171E+01   2.82958806E-01  -3.63146138E+00   3.27135773E+01  -8.57787132E+00   3.03780899E+01   4.33759183E-01   2.89313164E+01  -3.63146138E+00   2.07850862E+00
             1422                4   3.12861347E+01   2.93274422E+01   2.93274422E+01   3.76344174E-02  -3.63146138E+00   2.93274422E+01   2.93274422E+01   3.76344174E-02  -3.63146138E+00   3.29589043E+01  -8.57787132E+00   3.07965164E+01   2.00321630E-01   2.91647549E+01  -3.63146138E+00   2.17683196E+00
             1423                1   8.44735794E+01   7.86942978E+01   7.86942978E+01  -5.64488792E+00  -5.91303635E+00   7.86942978E+01   7.86942978E+01  -5.64488792E+00  -5.91303635E+00   8.46073303E+01  -2.23787899E+01   8.44726257E+01  -5.16437387E+00   7.82137833E+01  -5.91303635E+00   6.34784460E+00
             1423                2   8.47419662E+01   7.88734131E+01   7.88734131E+01  -5.82400131E+00  -5.91303635E+00   7.88734131E+01   7.88734131E+01  -5.82400131E+00  -5.91303635E+00   8.47864456E+01  -2.23787899E+01   8.47418594E+01  -5.36444330E+00   7.84138489E+01  -5.91303635E+00   6.22192812E+00
             1423                3   8.47047653E+01   7.88485947E+01   7.88485947E+01  -5.79918623E+00  -5.91303635E+00   7.88485947E+01   7.88485947E+01  -5.79918623E+00  -5.91303635E+00   8.47616272E+01  -2.23787899E+01   8.47045975E+01  -5.28939009E+00   7.83387985E+01  -5.91303635E+00   6.54928732E+00
             1423                4   8.49726791E+01   7.90272293E+01   7.90272293E+01  -5.97782469E+00  -5.91303635E+00   7.90272293E+01   7.90272293E+01  -5.91303635E+00  -5.97782469E+00   8.50050583E+01  -2.23787899E+01   8.49726257E+01  -5.48962545E+00   7.85390320E+01  -5.91303635E+00   6.42348814E+00
             1424                1   5.80560684E+01   5.48670998E+01   5.48670998E+01  -2.77877474E+00  -3.59064627E+00   5.48670998E+01   5.48670998E+01  -2.77877474E+00  -3.59064627E+00   5.84577446E+01  -1.61658936E+01   5.80432930E+01  -1.53355455E+00   5.36218796E+01  -3.59064627E+00   8.38040924E+00
             1424                2   5.83585320E+01   5.50699921E+01   5.50699921E+01  -2.98166561E+00  -3.59064627E+00   5.50699921E+01   5.50699921E+01  -2.98166561E+00  -3.59064627E+00   5.86606369E+01  -1.61658936E+01   5.83513794E+01  -1.78951037E+00   5.38778343E+01  -3.59064627E+00   8.23319149E+00
             1424                3   5.83772354E+01   5.50825233E+01   5.50825233E+01  -2.99419975E+00  -3.59064627E+00   5.50825233E+01   5.50825233E+01  -2.99419975E+00  -3.59064627E+00   5.86731720E+01  -1.61658936E+01   5.83703766E+01  -1.68014288E+00   5.37684669E+01  -3.59064627E+00   8.63651848E+00
             1424                4   5.86778107E+01   5.52837677E+01   5.52837677E+01  -3.19544387E+00  -3.59064627E+00   5.52837677E+01   5.52837677E+01  -3.19544387E+00  -3.59064627E+00   5.88744164E+01  -1.61658936E+01   5.86748161E+01  -1.93592358E+00   5.40242500E+01  -3.59064627E+00   8.48936462E+00
             1425                1   6.69882736E+01   6.14475555E+01   6.14475555E+01  -4.97715235E+00  -6.09040308E+00   6.14475555E+01   6.14475555E+01  -4.97715235E+00  -6.09040308E+00   6.75379562E+01  -1.67933331E+01   6.69674530E+01  -3.32632232E+00   5.97967224E+01  -6.09040308E+00   1.03407335E+01
             1425                2   6.74341354E+01   6.17469673E+01   6.17469673E+01  -5.27656651E+00  -6.09040308E+00   6.17469673E+01   6.17469673E+01  -5.27656651E+00  -6.09040308E+00   6.78373718E+01  -1.67933331E+01   6.74230881E+01  -3.67986321E+00   6.01502647E+01  -6.09040308E+00   1.02209225E+01
             1425                3   6.73190613E+01   6.16697578E+01   6.16697578E+01  -5.19935942E+00  -6.09040308E+00   6.16697578E+01   6.16697578E+01  -5.19935942E+00  -6.09040308E+00   6.77601624E+01  -1.67933311E+01   6.73057938E+01  -3.44275951E+00   5.99131584E+01  -6.09040308E+00   1.06946983E+01
             1425                4   6.77625885E+01   6.19670944E+01   6.19670944E+01  -5.49669313E+00  -6.09040308E+00   6.19670944E+01   6.19670944E+01  -5.49669313E+00  -6.09040308E+00   6.80574951E+01  -1.67933331E+01   6.77567368E+01  -3.79626179E+00   6.02666626E+01  -6.09040308E+00   1.05747814E+01
             1426                1   1.06777222E+02   1.10958694E+02   1.10958694E+02   4.19160604E+00   4.17133474E+00   1.10958694E+02   1.10958694E+02   4.19160604E+00   4.17133474E+00   1.06787361E+02  -3.97738762E+01   1.06777222E+02   4.24357367E+00   1.10906723E+02   4.17133474E+00   2.35498738E+00
             1426                2   1.06862724E+02   1.11015694E+02   1.11015694E+02   4.13461590E+00   4.17133474E+00   1.11015694E+02   1.11015694E+02   4.17133474E+00   4.13461590E+00   1.06881073E+02  -3.97738800E+01   1.06862709E+02   4.18480349E+00   1.10965500E+02   4.17133474E+00   2.31559038E+00
             1426                3   1.06839806E+02   1.11000412E+02   1.11000412E+02   4.14988661E+00   4.17133474E+00   1.11000412E+02   1.11000412E+02   4.17133474E+00   4.14988661E+00   1.06850525E+02  -3.97738762E+01   1.06839798E+02   4.20444536E+00   1.10945854E+02   4.17133474E+00   2.41383100E+00
             1426                4   1.06925240E+02   1.11057358E+02   1.11057358E+02   4.09294128E+00   4.17133474E+00   1.11057358E+02   1.11057358E+02   4.17133474E+00   4.09294128E+00   1.06964417E+02  -3.97738762E+01   1.06925179E+02   4.14567423E+00   1.11004623E+02   4.17133474E+00   2.37442899E+00
             1427                1   5.32896004E+01   5.38456955E+01   5.38456955E+01   4.98410881E-01   6.13963544E-01   5.38456955E+01   5.38456955E+01   6.13963544E-01   4.98410881E-01   5.33472824E+01  -1.83193569E+01   5.32893181E+01   5.88818967E-01   5.37552872E+01   6.13963544E-01   2.19426060E+00
             1427                2   5.32293396E+01   5.38055573E+01   5.38055573E+01   5.38547993E-01   6.13963544E-01   5.38055573E+01   5.38055573E+01   6.13963544E-01   5.38547993E-01   5.32670097E+01  -1.83193569E+01   5.32292213E+01   6.47988498E-01   5.36961174E+01   6.13963544E-01   2.41195560E+00
             1427                3   5.29560471E+01   5.36233330E+01   5.36233330E+01   7.20774174E-01   6.13963544E-01   5.36233330E+01   5.36233330E+01   7.20774174E-01   6.13963544E-01   5.30093727E+01  -1.83193569E+01   5.29558029E+01   8.07086349E-01   5.35370216E+01   6.13963544E-01   2.13511491E+00
             1427                4   5.28949394E+01   5.35825462E+01   5.35825462E+01   7.61562169E-01   6.13963544E-01   5.35825462E+01   5.35825462E+01   7.61562169E-01   6.13963544E-01   5.29685822E+01  -1.83193569E+01   5.28944740E+01   8.66574228E-01   5.34775352E+01   6.13963544E-01   2.35282063E+00
             1428                1   3.74894409E+01   3.89184914E+01   3.89184914E+01   1.32781160E+00   1.53112185E+00   3.89184914E+01   3.89184914E+01   1.53112185E+00   1.32781160E+00   3.75906792E+01  -1.39258080E+01   3.74881973E+01   2.97025943E+00   3.72760429E+01   1.53112185E+00   7.68395329E+00
             1428                2   3.75887909E+01   3.89845200E+01   3.89845200E+01   1.26178277E+00   1.53112185E+00   3.89845200E+01   3.89845200E+01   1.53112185E+00   1.26178277E+00   3.77227364E+01  -1.39258080E+01   3.75866241E+01   2.88040566E+00   3.73658981E+01   1.53112185E+00   7.64453650E+00
             1428                3   3.76104469E+01   3.89989052E+01   3.89989052E+01   1.24739957E+00   1.53112185E+00   3.89989052E+01   3.89989052E+01   1.53112185E+00   1.24739957E+00   3.77515030E+01  -1.39258080E+01   3.76080399E+01   2.92624927E+00   3.73200531E+01   1.53112185E+00   7.78206968E+00
             1428                4   3.77089043E+01   3.90642700E+01   3.90642700E+01   1.18203270E+00   1.53112185E+00   3.90642700E+01   3.90642700E+01   1.53112185E+00   1.18203270E+00   3.78822365E+01  -1.39258080E+01   3.77052727E+01   2.83680701E+00   3.74094963E+01   1.53112185E+00   7.74262762E+00
             1429                1   3.77923203E+01   4.56526451E+01   4.56526451E+01   7.92229748E+00   7.79866076E+00   4.56526451E+01   4.56526451E+01   7.92229748E+00   7.79866076E+00   3.78539848E+01  -2.04578686E+01   3.77918625E+01   7.92678308E+00   4.56481590E+01   7.79866076E+00   4.11429822E-01
             1429                2   3.77980804E+01   4.56564941E+01   4.56564941E+01   7.91844940E+00   7.79866076E+00   4.56564941E+01   4.56564941E+01   7.91844940E+00   7.79866076E+00   3.78578339E+01  -2.04578686E+01   3.77976532E+01   7.91909742E+00   4.56558456E+01   7.79866076E+00   1.56436324E-01
             1429                3   3.81758499E+01   4.59083214E+01   4.59083214E+01   7.66661882E+00   7.79866076E+00   4.59083214E+01   4.59083214E+01   7.79866076E+00   7.66661882E+00   3.82417030E+01  -2.04578667E+01   3.81753387E+01   7.67122793E+00   4.59037132E+01   7.79866076E+00   4.19745594E-01
             1429                4   3.81818352E+01   4.59123039E+01   4.59123039E+01   7.66263914E+00   7.79866076E+00   4.59123039E+01   4.59123039E+01   7.79866076E+00   7.66263914E+00   3.82496643E+01  -2.04578686E+01   3.81812897E+01   7.66334867E+00   4.59115944E+01   7.79866076E+00   1.64800555E-01
             1430                1   3.20382423E+01   2.81935692E+01   2.81935692E+01  -1.12537943E-01  -6.58767509E+00   2.81935692E+01   2.81935692E+01  -1.12537943E-01  -6.58767509E+00   3.47812462E+01  -7.16445208E+00   3.05135098E+01   5.09855807E-01   2.75711765E+01  -6.58767509E+00   4.15092230E+00
             1430                2   3.24691887E+01   2.85172329E+01   2.85172329E+01  -4.36201334E-01  -6.58767509E+00   2.85172329E+01   2.85172329E+01  -4.36201334E-01  -6.58767509E+00   3.51049080E+01  -7.16445208E+00   3.11173782E+01   1.99271902E-01   2.78817596E+01  -6.58767509E+00   4.24208832E+00
             1430                3   3.20447121E+01   2.81984520E+01   2.81984520E+01  -1.17419250E-01  -6.58767509E+00   2.81984520E+01   2.81984520E+01  -1.17419250E-01  -6.58767509E+00   3.47861252E+01  -7.16445208E+00   3.05226917E+01   6.03679955E-01   2.74773521E+01  -6.58767509E+00   4.46078014E+00
             1430                4   3.24754028E+01   2.85218773E+01   2.85218773E+01  -4.40844923E-01  -6.58767509E+00   2.85218773E+01   2.85218773E+01  -4.40844923E-01  -6.58767509E+00   3.51095505E+01  -7.16445208E+00   3.11259708E+01   2.93196052E-01   2.77878361E+01  -6.58767509E+00   4.55203247E+00
             1431                1   7.44926300E+01   6.85565338E+01   6.85565338E+01  -5.59233141E+00  -6.27517319E+00   6.85565338E+01   6.85565338E+01  -5.59233141E+00  -6.27517319E+00   7.48317032E+01  -1.88963413E+01   7.44855881E+01  -4.43304968E+00   6.73972473E+01  -6.27517319E+00   9.19866657E+00
             1431                2   7.48890915E+01   6.88218231E+01   6.88218231E+01  -5.85762548E+00  -6.27517319E+00   6.88218231E+01   6.88218231E+01  -5.85762548E+00  -6.27517319E+00   7.50969925E+01  -1.88963413E+01   7.48864746E+01  -4.74060965E+00   6.77048035E+01  -6.27517319E+00   9.06479549E+00
             1431                3   7.47983398E+01   6.87611313E+01   6.87611313E+01  -5.79693842E+00  -6.27517319E+00   6.87611313E+01   6.87611313E+01  -5.79693842E+00  -6.27517319E+00   7.50363083E+01  -1.88963413E+01   7.47948990E+01  -4.56412554E+00   6.75283203E+01  -6.27517319E+00   9.50769997E+00
             1431                4   7.51931152E+01   6.90249329E+01   6.90249329E+01  -6.06072998E+00  -6.27517319E+00   6.90249329E+01   6.90249329E+01  -6.06072998E+00  -6.27517319E+00   7.53001022E+01  -1.88963413E+01   7.51924286E+01  -4.87168360E+00   6.78358841E+01  -6.27517319E+00   9.37371540E+00
             1432                1   5.57209320E+01   5.54592285E+01   5.54592285E+01  -3.20462227E-01  -2.02757761E-01   5.54592285E+01   5.54592285E+01  -2.02757761E-01  -3.20462227E-01   5.57796898E+01  -1.83120022E+01   5.57206535E+01  -3.04666847E-01   5.54434357E+01  -2.02757761E-01   9.38468695E-01
             1432                2   5.56909676E+01   5.54392738E+01   5.54392738E+01  -3.00504774E-01  -2.02757761E-01   5.54392738E+01   5.54392738E+01  -2.02757761E-01  -3.00504774E-01   5.57397766E+01  -1.83120022E+01   5.56907768E+01  -2.76537240E-01   5.54153061E+01  -2.02757761E-01   1.15554392E+00
             1432                3   5.53936768E+01   5.52410736E+01   5.52410736E+01  -1.02304153E-01  -2.02757761E-01   5.52410736E+01   5.52410736E+01  -1.02304153E-01  -2.02757761E-01   5.54438324E+01  -1.83120041E+01   5.53934708E+01  -8.73387754E-02   5.52261086E+01  -2.02757761E-01   9.09989893E-01
             1432                4   5.53634682E+01   5.52209167E+01   5.52209167E+01  -8.21463913E-02  -2.02757761E-01   5.52209167E+01   5.52209167E+01  -8.21463913E-02  -2.02757761E-01   5.54236755E+01  -1.83120041E+01   5.53631744E+01  -5.91678098E-02   5.51979370E+01  -2.02757761E-01   1.12710273E+00
             1433                1   7.45063400E+01   6.81701660E+01   6.81701660E+01  -5.63216352E+00  -7.02077579E+00   6.81701660E+01   6.81701660E+01  -5.63216352E+00  -7.02077579E+00   7.51909485E+01  -1.85057430E+01   7.44772186E+01  -3.01914740E+00   6.55571518E+01  -7.02077579E+00   1.36388712E+01
             1433                2   7.51586838E+01   6.86085281E+01   6.86085281E+01  -6.07052374E+00  -7.02077579E+00   6.86085281E+01   6.86085281E+01  -6.07052374E+00  -7.02077579E+00   7.56293030E+01  -1.85057430E+01   7.51451721E+01  -3.52278471E+00   6.60607910E+01  -7.02077579E+00   1.35562487E+01
             1433                3   7.48859940E+01   6.84254456E+01   6.84254456E+01  -5.88744116E+00  -7.02077579E+00   6.84254456E+01   6.84254456E+01  -5.88744116E+00  -7.02077579E+00   7.54462204E+01  -1.85057430E+01   7.48666916E+01  -3.08996940E+00   6.56279755E+01  -7.02077579E+00   1.41443443E+01
             1433                4   7.55349579E+01   6.88607635E+01   6.88607635E+01  -6.32276487E+00  -7.02077579E+00   6.88607635E+01   6.88607635E+01  -6.32276487E+00  -7.02077579E+00   7.58815460E+01  -1.85057430E+01   7.55277023E+01  -3.59407783E+00   6.61320801E+01  -7.02077579E+00   1.40608177E+01
             1434                1   3.34211617E+01   3.46558456E+01   3.46558456E+01  -1.08086877E-01   2.76265144E+00   3.46558456E+01   3.46558456E+01   2.76265144E+00  -1.08086877E-01   3.47639351E+01  -1.24368029E+01   3.31420746E+01  -7.32460767E-02   3.46210060E+01   2.76265144E+00   1.09999633E+00
             1434                2   3.27540169E+01   3.42272453E+01   3.42272453E+01   3.20513368E-01   2.76265144E+00   3.42272453E+01   3.42272453E+01   2.76265144E+00   3.20513368E-01   3.39067345E+01  -1.24368029E+01   3.25482368E+01   3.45461816E-01   3.42022972E+01   2.76265144E+00   9.19419110E-01
             1434                3   3.36703529E+01   3.48154182E+01   3.48154182E+01  -2.67663270E-01   2.76265144E+00   3.48154182E+01   3.48154182E+01   2.76265144E+00  -2.67663270E-01   3.50830841E+01  -1.24368029E+01   3.33614883E+01  -2.54461497E-01   3.48022194E+01   2.76265144E+00   6.80385590E-01
             1434                4   3.30084419E+01   3.43909416E+01   3.43909416E+01   1.56818390E-01   2.76265144E+00   3.43909416E+01   3.43909416E+01   2.76265144E+00   1.56818390E-01   3.42341232E+01  -1.24368029E+01   3.27758293E+01   1.64111987E-01   3.43836479E+01   2.76265144E+00   4.99640018E-01
             1435                1   8.70651703E+01   8.16446762E+01   8.16446762E+01  -5.23469639E+00  -5.60510635E+00   8.16446762E+01   8.16446762E+01  -5.23469639E+00  -5.60510635E+00   8.72497864E+01  -2.36016235E+01   8.70634003E+01  -4.26104450E+00   8.06710281E+01  -5.60510635E+00   9.14560223E+00
             1435                2   8.74614563E+01   8.19092255E+01   8.19092255E+01  -5.49924850E+00  -5.60510635E+00   8.19092255E+01   8.19092255E+01  -5.49924850E+00  -5.60510635E+00   8.75143356E+01  -2.36016235E+01   8.74613113E+01  -4.55339050E+00   8.09633713E+01  -5.60510635E+00   9.04330444E+00
             1435                3   8.73056793E+01   8.18052826E+01   8.18052826E+01  -5.39530277E+00  -5.60510635E+00   8.18052826E+01   8.18052826E+01  -5.39530277E+00  -5.60510635E+00   8.74103928E+01  -2.36016235E+01   8.73051147E+01  -4.36129570E+00   8.07712784E+01  -5.60510635E+00   9.43910408E+00
             1435                4   8.77011337E+01   8.20690384E+01   8.20690384E+01  -5.65905905E+00  -5.60510635E+00   8.20690384E+01   8.20690384E+01  -5.60510635E+00  -5.65905905E+00   8.77280960E+01  -2.36016235E+01   8.77011032E+01  -4.65377569E+00   8.10637589E+01  -5.60510635E+00   9.33706474E+00
             1436                1   3.79252586E+01   3.76777039E+01   3.76777039E+01   2.22010508E-01  -7.00290799E-01   3.76777039E+01   3.76777039E+01   2.22010508E-01  -7.00290799E-01   3.83779945E+01  -1.23998079E+01   3.79000092E+01   1.53332376E+00   3.63663902E+01  -7.00290799E-01   6.88452291E+00
             1436                2   3.77202034E+01   3.75391502E+01   3.75391502E+01   3.60565990E-01  -7.00290799E-01   3.75391502E+01   3.75391502E+01   3.60565990E-01  -7.00290799E-01   3.82394409E+01  -1.23998079E+01   3.76866150E+01   1.68381858E+00   3.62158966E+01  -7.00290799E-01   6.88808155E+00
             1436                3   3.78413963E+01   3.76210709E+01   3.76210709E+01   2.78638870E-01  -7.00290799E-01   3.76210709E+01   3.76210709E+01   2.78638870E-01  -7.00290799E-01   3.83213654E+01  -1.23998070E+01   3.78128929E+01   1.53397560E+00   3.63657379E+01  -7.00290799E-01   6.73063087E+00
             1436                4   3.76336708E+01   3.74805946E+01   3.74805946E+01   4.19116020E-01  -7.00290799E-01   3.74805946E+01   3.74805946E+01   4.19116020E-01  -7.00290799E-01   3.81808853E+01  -1.23998070E+01   3.75961876E+01   1.68517482E+00   3.62145386E+01  -7.00290799E-01   6.73194218E+00
             1437                1   8.79748383E+01   8.26410141E+01   8.26410141E+01  -5.18621302E+00  -5.48068094E+00   8.26410141E+01   8.26410141E+01  -5.18621302E+00  -5.48068094E+00   8.81216965E+01  -2.39913731E+01   8.79737244E+01  -4.45283127E+00   8.19076309E+01  -5.48068094E+00   7.99208260E+00
             1437                2   8.83185043E+01   8.28703690E+01   8.28703690E+01  -5.41556454E+00  -5.48068094E+00   8.28703690E+01   8.28703690E+01  -5.41556454E+00  -5.48068094E+00   8.83510513E+01  -2.39913731E+01   8.83184586E+01  -4.70494604E+00   8.21597519E+01  -5.48068094E+00   7.88875437E+00
             1437                3   8.81949234E+01   8.27879257E+01   8.27879257E+01  -5.33312893E+00  -5.48068094E+00   8.27879257E+01   8.27879257E+01  -5.33312893E+00  -5.48068094E+00   8.82686081E+01  -2.39913712E+01   8.81946487E+01  -4.55479860E+00   8.20095978E+01  -5.48068094E+00   8.24507046E+00
             1437                4   8.85376053E+01   8.30164261E+01   8.30164261E+01  -5.56162691E+00  -5.48068094E+00   8.30164261E+01   8.30164261E+01  -5.48068094E+00  -5.56162691E+00   8.85780487E+01  -2.39913712E+01   8.85375214E+01  -4.80686617E+00   8.22616653E+01  -5.48068094E+00   8.14157772E+00
             1438                1   1.09418808E+02   1.17216301E+02   1.17216301E+02   7.76939106E+00   7.82562637E+00   1.17216301E+02   1.17216301E+02   7.82562637E+00   7.76939106E+00   1.09446915E+02  -4.42704430E+01   1.09418770E+02   7.77830315E+00   1.17207390E+02   7.82562637E+00   9.87681031E-01
             1438                2   1.09437378E+02   1.17228683E+02   1.17228683E+02   7.75701237E+00   7.82562637E+00   1.17228683E+02   1.17228683E+02   7.82562637E+00   7.75701237E+00   1.09471672E+02  -4.42704430E+01   1.09437325E+02   7.76779222E+00   1.17217903E+02   7.82562637E+00   1.08623540E+00
             1438                3   1.09271187E+02   1.17117897E+02   1.17117897E+02   7.86779976E+00   7.82562637E+00   1.17117897E+02   1.17117897E+02   7.86779976E+00   7.82562637E+00   1.09292267E+02  -4.42704430E+01   1.09271164E+02   7.87692308E+00   1.17108772E+02   7.82562637E+00   9.98283625E-01
             1438                4   1.09289719E+02   1.17130249E+02   1.17130249E+02   7.85544443E+00   7.82562637E+00   1.17130249E+02   1.17130249E+02   7.85544443E+00   7.82562637E+00   1.09304626E+02  -4.42704430E+01   1.09289703E+02   7.86645412E+00   1.17119240E+02   7.82562637E+00   1.09683812E+00
             1439                1   2.09175777E+01   1.20344658E+01   1.20344658E+01  -3.06145221E-01  -1.21171379E+01   1.20344658E+01  -1.21171379E+01  -3.06145221E-01  -1.21171379E+01   2.41516037E+01   1.29605934E-01   7.03063631E+00   3.62889409E-01   1.13654308E+01  -1.21171379E+01   2.79440284E+00
             1439                2   2.05252705E+01   1.15784607E+01   1.15784607E+01   1.49858922E-01  -1.21171379E+01   1.15784607E+01  -1.21171379E+01   1.49858922E-01  -1.21171379E+01   2.36955986E+01   1.29606247E-01  -8.09019089E+00   8.10281157E-01   1.09180384E+01  -1.21171379E+01   2.66674733E+00
             1439                3   2.08588963E+01   1.19678879E+01   1.19678879E+01  -2.39567816E-01  -1.21171379E+01   1.19678879E+01  -1.21171379E+01  -2.39567816E-01  -1.21171379E+01   2.40850258E+01   1.29605934E-01   5.99331379E+00   2.29639560E-01   1.14986801E+01  -1.21171379E+01   2.34684420E+00
             1439                4   2.04651604E+01   1.15061378E+01   1.15061378E+01   2.22182170E-01  -1.21171379E+01   1.15061378E+01  -1.21171379E+01   2.22182170E-01  -1.21171379E+01   2.36232758E+01   1.29605934E-01  -8.71725178E+00   6.77005112E-01   1.10513153E+01  -1.21171379E+01   2.21930957E+00
             1440                1   7.28084717E+01   6.76699905E+01   6.76699905E+01  -5.18249083E+00  -5.09438705E+00   6.76699905E+01   6.76699905E+01  -5.09438705E+00  -5.18249083E+00   7.28524780E+01  -1.91310368E+01   7.28083496E+01  -5.04117823E+00   6.75286789E+01  -5.09438705E+00   3.20546961E+00
             1440                2   7.26813736E+01   6.75852890E+01   6.75852890E+01  -5.09778452E+00  -5.09438705E+00   6.75852890E+01   6.75852890E+01  -5.09438705E+00  -5.09778452E+00   7.26830750E+01  -1.91310387E+01   7.26813736E+01  -4.94009542E+00   6.74275970E+01  -5.09438705E+00   3.38179874E+00
             1440                3   7.25310211E+01   6.74850235E+01   6.74850235E+01  -4.99752188E+00  -5.09438705E+00   6.74850235E+01   6.74850235E+01  -4.99752188E+00  -5.09438705E+00   7.25794067E+01  -1.91310368E+01   7.25308762E+01  -4.86441517E+00   6.73519135E+01  -5.09438705E+00   3.10324502E+00
             1440                4   7.24036026E+01   6.73999939E+01   6.73999939E+01  -4.91249704E+00  -5.09438705E+00   6.73999939E+01   6.73999939E+01  -4.91249704E+00  -5.09438705E+00   7.24943771E+01  -1.91310368E+01   7.24030914E+01  -4.76344109E+00   6.72509384E+01  -5.09438705E+00   3.27967310E+00
             1441                1   5.03752289E+01   5.18812561E+01   5.18812561E+01   1.56381214E+00   1.44843638E+00   5.18812561E+01   5.18812561E+01   1.56381214E+00   1.44843638E+00   5.04328194E+01  -1.82978344E+01   5.03749352E+01   1.77401817E+00   5.16710510E+01   1.44843638E+00   3.24542809E+00
             1441                2   5.07152176E+01   5.21079178E+01   5.21079178E+01   1.33714867E+00   1.44843638E+00   5.21079178E+01   5.21079178E+01   1.44843638E+00   1.33714867E+00   5.07707710E+01  -1.82978344E+01   5.07149429E+01   1.55652738E+00   5.18885422E+01   1.44843638E+00   3.33014059E+00
             1441                3   5.02918892E+01   5.18256149E+01   5.18256149E+01   1.61945236E+00   1.44843638E+00   5.18256149E+01   5.18256149E+01   1.61945236E+00   1.44843638E+00   5.03771782E+01  -1.82978344E+01   5.02912369E+01   1.85932660E+00   5.15857430E+01   1.44843638E+00   3.46201730E+00
             1441                4   5.06329079E+01   5.20530930E+01   5.20530930E+01   1.39198065E+00   1.44843638E+00   5.20530930E+01   5.20530930E+01   1.44843638E+00   1.39198065E+00   5.06611099E+01  -1.82978363E+01   5.06328354E+01   1.64151633E+00   5.18035545E+01   1.44843638E+00   3.54676628E+00
             1442                1   7.26778793E+01   6.63428268E+01   6.63428268E+01  -5.62592840E+00  -7.02400160E+00   6.63428268E+01   6.63428268E+01  -5.62592840E+00  -7.02400160E+00   7.33668289E+01  -1.78976307E+01   7.26476135E+01  -3.18457818E+00   6.39014740E+01  -7.02400160E+00   1.30284595E+01
             1442                2   7.32859497E+01   6.67515945E+01   6.67515945E+01  -6.03469753E+00  -7.02400160E+00   6.67515945E+01   6.67515945E+01  -6.03469753E+00  -7.02400160E+00   7.37755966E+01  -1.78976307E+01   7.32709274E+01  -3.65938640E+00   6.43762817E+01  -7.02400160E+00   1.29324417E+01
             1442                3   7.30448074E+01   6.65896301E+01   6.65896301E+01  -5.87273359E+00  -7.02400160E+00   6.65896301E+01   6.65896301E+01  -5.87273359E+00  -7.02400160E+00   7.36136322E+01  -1.78976326E+01   7.30243835E+01  -3.26134968E+00   6.39782486E+01  -7.02400160E+00   1.35058384E+01
             1442                4   7.36552734E+01   6.69992828E+01   6.69992828E+01  -6.28238201E+00  -7.02400160E+00   6.69992828E+01   6.69992828E+01  -6.28238201E+00  -7.02400160E+00   7.40232849E+01  -1.78976326E+01   7.36468735E+01  -3.73970437E+00   6.44566040E+01  -7.02400160E+00   1.34114256E+01
             1443                1   7.81762619E+01   7.20177994E+01   7.20177994E+01  -5.58704281E+00  -6.71762514E+00   7.20177994E+01   7.20177994E+01  -5.58704281E+00  -6.71762514E+00   7.87354202E+01  -1.99043770E+01   7.81578674E+01  -3.14241982E+00   6.95731735E+01  -6.71762514E+00   1.35550194E+01
             1443                2   7.88194046E+01   7.24490967E+01   7.24490967E+01  -6.01833868E+00  -6.71762514E+00   7.24490967E+01   7.24490967E+01  -6.01833868E+00  -6.71762514E+00   7.91667175E+01  -1.99043770E+01   7.88124237E+01  -3.63283014E+00   7.00635834E+01  -6.71762514E+00   1.34719810E+01
             1443                3   7.85422821E+01   7.22634048E+01   7.22634048E+01  -5.83264780E+00  -6.71762514E+00   7.22634048E+01   7.22634048E+01  -5.83264780E+00  -6.71762514E+00   7.89810257E+01  -1.99043770E+01   7.85310593E+01  -3.21758986E+00   6.96483459E+01  -6.71762514E+00   1.40494528E+01
             1443                4   7.91820526E+01   7.26917496E+01   7.26917496E+01  -6.26099586E+00  -6.71762514E+00   7.26917496E+01   7.26917496E+01  -6.26099586E+00  -6.71762514E+00   7.94093781E+01  -1.99043770E+01   7.91790848E+01  -3.70796490E+00   7.01387177E+01  -6.71762514E+00   1.39660673E+01
             1444                1   3.52855148E+01   3.58590317E+01   3.58590317E+01   6.03378236E-01   5.43731868E-01   3.58590317E+01   3.58590317E+01   6.03378236E-01   5.43731868E-01   3.53153000E+01  -1.23353806E+01   3.52854004E+01   1.38144195E+00   3.50809669E+01   5.43731868E-01   5.17936277E+00
             1444                2   3.54512444E+01   3.59695244E+01   3.59695244E+01   4.92885262E-01   5.43731868E-01   3.59695244E+01   3.59695244E+01   5.43731868E-01   4.92885262E-01   3.54766388E+01  -1.23353806E+01   3.54511604E+01   1.27873242E+00   3.51836777E+01   5.43731868E-01   5.22126961E+00
             1444                3   3.52695122E+01   3.58483543E+01   3.58483543E+01   6.14057541E-01   5.43731868E-01   3.58483543E+01   3.58483543E+01   6.14057541E-01   5.43731868E-01   3.53046188E+01  -1.23353806E+01   3.52693520E+01   1.42472088E+00   3.50376892E+01   5.43731868E-01   5.28261042E+00
             1444                4   3.54353065E+01   3.59589081E+01   3.59589081E+01   5.03502250E-01   5.43731868E-01   3.59589081E+01   3.59589081E+01   5.43731868E-01   5.03502250E-01   3.54554062E+01  -1.23353806E+01   3.54352570E+01   1.32197964E+00   3.51404305E+01   5.43731868E-01   5.32442856E+00
             1445                1   2.17256775E+02   2.29162262E+02   2.29162262E+02  -8.25721204E-01   2.73947086E+01   2.29162262E+02   2.29162262E+02   2.73947086E+01  -8.25721204E-01   2.29987991E+02  -8.52437515E+01   2.13074722E+02  -7.59225070E-01   2.29095779E+02   2.73947086E+01   3.90991044E+00
             1445                2   2.17106644E+02   2.29202606E+02   2.29202606E+02   2.77729183E-01   2.62509346E+01   2.29202606E+02   2.29202606E+02   2.62509346E+01   2.77729183E-01   2.28924866E+02  -8.52437515E+01   2.13569321E+02   2.78225929E-01   2.29202103E+02   2.62509346E+01   3.38180602E-01
             1445                3   2.17461136E+02   2.29090851E+02   2.29090851E+02  -2.30433488E+00   2.89447613E+01   2.29090851E+02   2.29090851E+02   2.89447613E+01  -2.30433488E+00   2.31395187E+02  -8.52437592E+01   2.12321548E+02  -2.29556465E+00   2.29082077E+02   2.89447613E+01   1.42469966E+00
             1445                4   2.17319153E+02   2.29143295E+02   2.29143295E+02  -1.27405500E+00   2.78620262E+01   2.29143295E+02   2.29143295E+02   2.78620262E+01  -1.27405500E+00   2.30417358E+02  -8.52437592E+01   2.12858398E+02  -1.25455022E+00   2.29123795E+02   2.78620262E+01  -2.12003922E+00
             1446                1   7.01084747E+01   6.43901596E+01   6.43901596E+01  -5.55483294E+00  -5.88066530E+00   6.43901596E+01   6.43901596E+01  -5.55483294E+00  -5.88066530E+00   7.02708282E+01  -1.76515541E+01   7.01067734E+01  -4.29554892E+00   6.31308746E+01  -5.88066530E+00   9.30026340E+00
             1446                2   6.97271652E+01   6.41351242E+01   6.41351242E+01  -5.29979515E+00  -5.88066530E+00   6.41351242E+01   6.41351242E+01  -5.29979515E+00  -5.88066530E+00   7.00157852E+01  -1.76515541E+01   6.97217255E+01  -3.99224496E+00   6.28275719E+01  -5.88066530E+00   9.43821907E+00
             1446                3   6.97940063E+01   6.41798630E+01   6.41798630E+01  -5.34453678E+00  -5.88066530E+00   6.41798630E+01   6.41798630E+01  -5.34453678E+00  -5.88066530E+00   7.00605316E+01  -1.76515541E+01   6.97893753E+01  -4.16036034E+00   6.29956894E+01  -5.88066530E+00   8.99593067E+00
             1446                4   6.94106903E+01   6.39230843E+01   6.39230843E+01  -5.08775806E+00  -5.88066530E+00   6.39230843E+01   6.39230843E+01  -5.08775806E+00  -5.88066530E+00   6.98037491E+01  -1.76515541E+01   6.94005051E+01  -3.85695529E+00   6.26922836E+01  -5.88066530E+00   9.13366127E+00
             1447                1   4.26474876E+01   4.81191978E+01   4.81191978E+01   5.40915251E+00   5.53454542E+00   4.81191978E+01   4.81191978E+01   5.53454542E+00   5.40915251E+00   4.27100449E+01  -1.96876316E+01   4.26470718E+01   5.41354179E+00   4.81148109E+01   5.53454542E+00   4.32864547E-01
             1447                2   4.22809448E+01   4.78748474E+01   4.78748474E+01   5.65350866E+00   5.53454542E+00   4.78748474E+01   4.78748474E+01   5.65350866E+00   5.53454542E+00   4.23403015E+01  -1.96876335E+01   4.22805672E+01   5.65776300E+00   4.78705902E+01   5.53454542E+00   4.23876464E-01
             1447                3   4.26550369E+01   4.81242256E+01   4.81242256E+01   5.40412569E+00   5.53454542E+00   4.81242256E+01   4.81242256E+01   5.53454542E+00   5.40412569E+00   4.27201004E+01  -1.96876316E+01   4.26545906E+01   5.40496206E+00   4.81233902E+01   5.53454542E+00   1.88879266E-01
             1447                4   4.22888069E+01   4.78800964E+01   4.78800964E+01   5.64825869E+00   5.53454542E+00   4.78800964E+01   4.78800964E+01   5.64825869E+00   5.53454542E+00   4.23455505E+01  -1.96876335E+01   4.22884636E+01   5.64902496E+00   4.78793297E+01   5.53454542E+00   1.79902703E-01
             1448                1   6.91034927E+01   6.37783394E+01   6.37783394E+01  -5.21710157E+00  -5.43270016E+00   6.37783394E+01   6.37783394E+01  -5.21710157E+00  -5.43270016E+00   6.92110367E+01  -1.77095127E+01   6.91027374E+01  -4.22862482E+00   6.27898636E+01  -5.43270016E+00   8.19898415E+00
             1448                2   6.87770462E+01   6.35601883E+01   6.35601883E+01  -4.99895191E+00  -5.43270016E+00   6.35601883E+01   6.35601883E+01  -4.99895191E+00  -5.43270016E+00   6.89928894E+01  -1.77095127E+01   6.87739716E+01  -3.96653271E+00   6.25277710E+01  -5.43270016E+00   8.34960747E+00
             1448                3   6.87947617E+01   6.35720406E+01   6.35720406E+01  -5.01080227E+00  -5.43270016E+00   6.35720406E+01   6.35720406E+01  -5.01080227E+00  -5.43270016E+00   6.90047379E+01  -1.77095127E+01   6.87918472E+01  -4.07987595E+00   6.26411133E+01  -5.43270016E+00   7.93592072E+00
             1448                4   6.84666443E+01   6.33524437E+01   6.33524437E+01  -4.79120111E+00  -5.43270016E+00   6.33524437E+01   6.33524437E+01  -4.79120111E+00  -5.43270016E+00   6.87851410E+01  -1.77095127E+01   6.84598846E+01  -3.81769729E+00   6.23789368E+01  -5.43270016E+00   8.08644009E+00
             1449                1   7.76093750E+01   7.16002808E+01   7.16002808E+01  -5.72848129E+00  -6.28669119E+00   7.16002808E+01   7.16002808E+01  -5.72848129E+00  -6.28669119E+00   7.78869781E+01  -1.98617039E+01   7.76048584E+01  -4.72897291E+00   7.06007767E+01  -6.28669119E+00   8.73451138E+00
             1449                2   7.79864273E+01   7.18523560E+01   7.18523560E+01  -5.98055172E+00  -6.28669119E+00   7.18523560E+01   7.18523560E+01  -5.98055172E+00  -6.28669119E+00   7.81390457E+01  -1.98617039E+01   7.79850769E+01  -5.01822424E+00   7.08900299E+01  -6.28669119E+00   8.60084152E+00
             1449                3   7.78991776E+01   7.17940598E+01   7.17940598E+01  -5.92225885E+00  -6.28669119E+00   7.17940598E+01   7.17940598E+01  -5.92225885E+00  -6.28669119E+00   7.80807571E+01  -1.98617039E+01   7.78972549E+01  -4.85956812E+00   7.07313690E+01  -6.28669119E+00   9.02548027E+00
             1449                4   7.82749405E+01   7.20449600E+01   7.20449600E+01  -6.17315292E+00  -6.28669119E+00   7.20449600E+01   7.20449600E+01  -6.17315292E+00  -6.28669119E+00   7.83316498E+01  -1.98617039E+01   7.82747498E+01  -5.14889812E+00   7.10206985E+01  -6.28669119E+00   8.89192867E+00
             1450                1   1.80459351E+02   1.84377960E+02   1.84377960E+02   3.35178018E-01   7.72932863E+00   1.84377960E+02   1.84377960E+02   7.72932863E+00   3.35178018E-01   1.84042786E+02  -6.41474838E+01   1.80118042E+02   3.79585654E-01   1.84333542E+02   7.72932863E+00   2.85871720E+00
             1450                2   1.81760712E+02   1.85189926E+02   1.85189926E+02  -1.25881994E+00   8.51135254E+00   1.85189926E+02   1.85189926E+02   8.51135254E+00  -1.25881994E+00   1.86448746E+02  -6.41474838E+01   1.81168488E+02  -1.25881827E+00   1.85189926E+02   8.51135254E+00   8.42113048E-03
             1450                3   1.82102692E+02   1.85406998E+02   1.85406998E+02  -1.57094073E+00   8.60639763E+00   1.85406998E+02   1.85406998E+02   8.60639763E+00  -1.57094073E+00   1.86977936E+02  -6.41474838E+01   1.81461166E+02  -1.42266941E+00   1.85258728E+02   8.60639763E+00   5.26323700E+00
             1450                4   1.83385117E+02   1.86192154E+02   1.86192154E+02  -3.10855985E+00   9.35887909E+00   1.86192154E+02   1.86192154E+02   9.35887909E+00  -3.10855985E+00   1.89300705E+02  -6.41474915E+01   1.82427948E+02  -3.07865024E+00   1.86162231E+02   9.35887909E+00   2.37954831E+00
             1451                1   1.10516151E+02   1.20271439E+02   1.20271439E+02   9.69972420E+00   9.81092548E+00   1.20271439E+02   1.20271439E+02   9.81092548E+00   9.69972420E+00   1.10571716E+02  -4.65940285E+01   1.10516022E+02   9.75308228E+00   1.20218079E+02   9.81092548E+00   2.42838597E+00
             1451                2   1.10347832E+02   1.20159248E+02   1.20159248E+02   9.81191158E+00   9.81092548E+00   1.20159248E+02   1.20159248E+02   9.81191158E+00   9.81092548E+00   1.10348328E+02  -4.65940285E+01   1.10347832E+02   9.86605263E+00   1.20105110E+02   9.81092548E+00   2.44359994E+00
             1451                3   1.10486954E+02   1.20251976E+02   1.20251976E+02   9.71918201E+00   9.81092548E+00   1.20251976E+02   1.20251976E+02   9.81092548E+00   9.71918201E+00   1.10532799E+02  -4.65940285E+01   1.10486870E+02   9.76771832E+00   1.20203445E+02   9.81092548E+00   2.31563020E+00
             1451                4   1.10318626E+02   1.20139778E+02   1.20139778E+02   9.83138084E+00   9.81092548E+00   1.20139778E+02   1.20139778E+02   9.83138084E+00   9.81092548E+00   1.10328857E+02  -4.65940285E+01   1.10318619E+02   9.88065338E+00   1.20090508E+02   9.81092548E+00   2.33083296E+00
             1452                1   4.00498161E+01   4.67534599E+01   4.67534599E+01   6.76455784E+00   6.64300394E+00   4.67534599E+01   4.67534599E+01   6.76455784E+00   6.64300394E+00   4.01104546E+01  -2.00536747E+01   4.00494003E+01   6.76890421E+00   4.67491112E+01   6.64300394E+00   4.16944861E-01
             1452                2   4.00563736E+01   4.67578354E+01   4.67578354E+01   6.76018000E+00   6.64300394E+00   4.67578354E+01   4.67578354E+01   6.76018000E+00   6.64300394E+00   4.01148338E+01  -2.00536747E+01   4.00559883E+01   6.76088476E+00   4.67571335E+01   6.64300394E+00   1.67720750E-01
             1452                3   4.04244232E+01   4.70031891E+01   4.70031891E+01   6.51482916E+00   6.64300394E+00   4.70031891E+01   4.70031891E+01   6.64300394E+00   6.51482916E+00   4.04883575E+01  -2.00536747E+01   4.04239655E+01   6.51929331E+00   4.69987221E+01   6.64300394E+00   4.25191581E-01
             1452                4   4.04310951E+01   4.70076294E+01   4.70076294E+01   6.51038885E+00   6.64300394E+00   4.70076294E+01   4.70076294E+01   6.64300394E+00   6.51038885E+00   4.04972382E+01  -2.00536747E+01   4.04306030E+01   6.51115274E+00   4.70068626E+01   6.64300394E+00   1.76069915E-01
             1453                1   1.02145149E+02   1.01820412E+02   1.01820412E+02  -3.61529529E-01  -2.87903577E-01   1.01820412E+02   1.01820412E+02  -2.87903577E-01  -3.61529529E-01   1.02181946E+02  -3.37236595E+01   1.02145088E+02  -2.29827881E-01   1.01688713E+02  -2.87903577E-01   3.66608596E+00
             1453                2   1.02160446E+02   1.01830612E+02   1.01830612E+02  -3.71725619E-01  -2.87903577E-01   1.01830612E+02   1.01830612E+02  -2.87903577E-01  -3.71725619E-01   1.02202339E+02  -3.37236595E+01   1.02160378E+02  -2.33700708E-01   1.01692589E+02  -2.87903577E-01   3.75328159E+00
             1453                3   1.02015549E+02   1.01734024E+02   1.01734024E+02  -2.75140971E-01  -2.87903577E-01   1.01734024E+02   1.01734024E+02  -2.75140971E-01  -2.87903577E-01   1.02021927E+02  -3.37236595E+01   1.02015549E+02  -1.42950580E-01   1.01601837E+02  -2.87903577E-01   3.66974330E+00
             1453                4   1.02030853E+02   1.01744232E+02   1.01744232E+02  -2.85343170E-01  -2.87903577E-01   1.01744232E+02   1.01744232E+02  -2.85343170E-01  -2.87903577E-01   1.02032135E+02  -3.37236595E+01   1.02030853E+02  -1.46821320E-01   1.01605705E+02  -2.87903577E-01   3.75689554E+00
             1454                1   4.85253792E+01   5.08670197E+01   5.08670197E+01   2.30407691E+00   2.37929034E+00   5.08670197E+01   5.08670197E+01   2.37929034E+00   2.30407691E+00   4.85629425E+01  -1.85167961E+01   4.85252457E+01   2.54922438E+00   5.06218719E+01   2.37929034E+00   3.44165826E+00
             1454                2   4.81787262E+01   5.06358185E+01   5.06358185E+01   2.53528070E+00   2.37929034E+00   5.06358185E+01   5.06358185E+01   2.53528070E+00   2.37929034E+00   4.82565308E+01  -1.85167980E+01   4.81781540E+01   2.77157426E+00   5.03995247E+01   2.37929034E+00   3.36304736E+00
             1454                3   4.85979614E+01   5.09153595E+01   5.09153595E+01   2.25574231E+00   2.37929034E+00   5.09153595E+01   5.09153595E+01   2.37929034E+00   2.25574231E+00   4.86596146E+01  -1.85167980E+01   4.85976028E+01   2.46990085E+00   5.07011986E+01   2.37929034E+00   3.22103524E+00
             1454                4   4.82523918E+01   5.06849976E+01   5.06849976E+01   2.48609996E+00   2.37929034E+00   5.06849976E+01   5.06849976E+01   2.48609996E+00   2.37929034E+00   4.83057060E+01  -1.85167961E+01   4.82521248E+01   2.69185662E+00   5.04792404E+01   2.37929034E+00   3.14243531E+00
             1455                1   1.81582703E+02   1.90062592E+02   1.90062592E+02   3.60143447E+00   1.37871399E+01   1.90062592E+02   1.90062592E+02   1.37871399E+01   3.60143447E+00   1.86461166E+02  -6.91503906E+01   1.80938263E+02   3.76130629E+00   1.89902725E+02   1.37871399E+01   5.45750999E+00
             1455                2   1.82857010E+02   1.90835327E+02   1.90835327E+02   1.97196007E+00   1.46438828E+01   1.90835327E+02   1.90835327E+02   1.46438828E+01   1.97196007E+00   1.88863358E+02  -6.91503906E+01   1.81865189E+02   1.99486232E+00   1.90812424E+02   1.46438828E+01   2.07942605E+00
             1455                3   1.83353867E+02   1.91140808E+02   1.91140808E+02   1.44956315E+00   1.48608017E+01   1.91140808E+02   1.91140808E+02   1.48608017E+01   1.44956315E+00   1.89691254E+02  -6.91503906E+01   1.82245453E+02   1.79221547E+00   1.90798157E+02   1.48608017E+01   8.05492306E+00
             1455                4   1.84588577E+02   1.91871307E+02   1.91871307E+02  -1.04850471E-01   1.56846981E+01   1.91871307E+02   1.91871307E+02   1.56846981E+01  -1.04850471E-01   1.91976166E+02  -6.91503830E+01   1.83059982E+02   9.46051721E-03   1.91757004E+02   1.56846981E+01   4.68315125E+00
             1456                1   7.14106216E+01   6.59796753E+01   6.59796753E+01  -5.15562677E+00  -5.70311546E+00   6.59796753E+01   6.59796753E+01  -5.15562677E+00  -5.70311546E+00   7.16827927E+01  -1.83736439E+01   7.14058990E+01  -4.31332731E+00   6.51373749E+01  -5.70311546E+00   7.69466305E+00
             1456                2   7.17269058E+01   6.61911850E+01   6.61911850E+01  -5.36714315E+00  -5.70311546E+00   6.61911850E+01   6.61911850E+01  -5.36714315E+00  -5.70311546E+00   7.18943024E+01  -1.83736420E+01   7.17251358E+01  -4.56294870E+00   6.53869934E+01  -5.70311546E+00   7.54320812E+00
             1456                3   7.17113495E+01   6.61807938E+01   6.61807938E+01  -5.35674381E+00  -5.70311546E+00   6.61807938E+01   6.61807938E+01  -5.35674381E+00  -5.70311546E+00   7.18839035E+01  -1.83736439E+01   7.17094574E+01  -4.46307898E+00   6.52871246E+01  -5.70311546E+00   7.94555998E+00
             1456                4   7.20262680E+01   6.63910904E+01   6.63910904E+01  -5.56704235E+00  -5.70311546E+00   6.63910904E+01   6.63910904E+01  -5.56704235E+00  -5.70311546E+00   7.20942078E+01  -1.83736439E+01   7.20259781E+01  -4.71270323E+00   6.55367508E+01  -5.70311546E+00   7.79402637E+00
             1457                1   2.92577019E+01   2.18465424E+01   2.18465424E+01  -1.37268806E+00  -1.10154533E+01   2.18465424E+01   2.18465424E+01  -1.37268806E+00  -1.10154533E+01   3.28619957E+01  -3.15280032E+00   2.52932091E+01   1.05732286E+00   1.94165306E+01  -1.10154533E+01   7.10760450E+00
             1457                2   2.87162437E+01   2.13868008E+01   2.13868008E+01  -9.12945867E-01  -1.10154533E+01   2.13868008E+01   2.13868008E+01  -9.12945867E-01  -1.10154533E+01   3.24022522E+01  -3.15280032E+00   2.42042007E+01   1.54790878E+00   1.89259453E+01  -1.10154533E+01   6.98717594E+00
             1457                3   2.90433407E+01   2.16657200E+01   2.16657200E+01  -1.19186676E+00  -1.10154533E+01   2.16657200E+01   2.16657200E+01  -1.19186676E+00  -1.10154533E+01   3.26811752E+01  -3.15280032E+00   2.48710346E+01   9.21540260E-01   1.95523148E+01  -1.10154533E+01   6.62124443E+00
             1457                4   2.84968777E+01   2.11975899E+01   2.11975899E+01  -7.23735988E-01  -1.10154533E+01   2.11975899E+01   2.11975899E+01  -7.23735988E-01  -1.10154533E+01   3.22130432E+01  -3.15280032E+00   2.37400665E+01   1.41207480E+00   1.90617790E+01  -1.10154533E+01   6.50062466E+00
             1458                1   3.33483810E+01   3.16981411E+01   3.16981411E+01   1.56070843E-01  -3.20239544E+00   3.16981411E+01   3.16981411E+01   1.56070843E-01  -3.20239544E+00   3.49005356E+01  -9.55060577E+00   3.29646835E+01   5.66568375E-01   3.12876434E+01  -3.20239544E+00   3.57483339E+00
             1458                2   3.36868820E+01   3.19361458E+01   3.19361458E+01  -8.19348842E-02  -3.20239544E+00   3.19361458E+01   3.19361458E+01  -8.19348842E-02  -3.20239544E+00   3.51385422E+01  -9.55060577E+00   3.33593979E+01   3.41300726E-01   3.15129108E+01  -3.20239544E+00   3.65678430E+00
             1458                3   3.33067436E+01   3.16687851E+01   3.16687851E+01   1.85427472E-01  -3.20239544E+00   3.16687851E+01   3.16687851E+01   1.85427472E-01  -3.20239544E+00   3.48711815E+01  -9.55060577E+00   3.29157562E+01   6.50905967E-01   3.12033062E+01  -3.20239544E+00   3.79975581E+00
             1458                4   3.36453972E+01   3.19070415E+01   3.19070415E+01  -5.28289229E-02  -3.20239544E+00   3.19070415E+01   3.19070415E+01  -5.28289229E-02  -3.20239544E+00   3.51094360E+01  -9.55060577E+00   3.33113136E+01   4.25856501E-01   3.14283562E+01  -3.20239544E+00   3.88195276E+00
             1459                1   2.08504608E+02   1.68721024E+02   1.68721024E+02  -4.17560425E+01  -3.77534790E+01   1.68721024E+02   1.68721024E+02  -3.77534790E+01  -4.17560425E+01   2.10477066E+02  -2.97371674E+01   2.08418137E+02  -4.16635590E+01   1.68628540E+02  -3.77534790E+01  -4.41105461E+00
             1459                2   2.09396423E+02   1.69238342E+02   1.69238342E+02  -4.45062752E+01  -3.55205765E+01   1.69238342E+02   1.69238342E+02  -3.55205765E+01  -4.45062752E+01   2.13744614E+02  -2.97371655E+01   2.08961975E+02  -4.42299080E+01   1.68961975E+02  -3.55205765E+01  -7.68090582E+00
             1459                3   2.09072968E+02   1.69057938E+02   1.69057938E+02  -4.35000916E+01  -3.63463554E+01   1.69057938E+02   1.69057938E+02  -3.63463554E+01  -4.35000916E+01   2.12558029E+02  -2.97371616E+01   2.08797348E+02  -4.34992180E+01   1.69057068E+02  -3.63463554E+01   4.29608107E-01
             1459                4   2.09919312E+02   1.69514954E+02   1.69514954E+02  -4.60960655E+01  -3.42073822E+01   1.69514954E+02   1.69514954E+02  -3.42073822E+01  -4.60960655E+01   2.15611023E+02  -2.97371674E+01   2.09159866E+02  -4.60573120E+01   1.69476196E+02  -3.42073822E+01  -2.89038515E+00
             1460                1   2.14868164E+02   2.17076859E+02   2.17076859E+02  -6.29214907E+00   1.18613853E+01   2.17076859E+02   2.17076859E+02   1.18613853E+01  -6.29214907E+00   2.23369019E+02  -7.42153702E+01   2.13132584E+02  -6.26274920E+00   2.17047470E+02   1.18613853E+01   2.56214833E+00
             1460                2   2.15079773E+02   2.17142883E+02   2.17142883E+02  -7.17641497E+00   1.26796350E+01   2.17142883E+02   2.17142883E+02   1.26796350E+01  -7.17641497E+00   2.24319290E+02  -7.42153702E+01   2.13003052E+02  -7.05159807E+00   2.17018066E+02   1.26796350E+01   5.28976536E+00
             1460                3   2.14496078E+02   2.16930176E+02   2.16930176E+02  -4.92354918E+00   1.06394711E+01   2.16930176E+02   2.16930176E+02   1.06394711E+01  -4.92354918E+00   2.21853714E+02  -7.42153625E+01   2.13220261E+02  -4.83283615E+00   2.16839462E+02   1.06394711E+01   4.48507977E+00
             1460                4   2.14725311E+02   2.17012543E+02   2.17012543E+02  -5.88448906E+00   1.15180473E+01   2.17012543E+02   2.17012543E+02   1.15180473E+01  -5.88448906E+00   2.22897034E+02  -7.42153702E+01   2.13130051E+02  -5.64816332E+00   2.16776215E+02   1.15180473E+01   7.25400114E+00
             1461                1   3.06021309E+01   2.94306698E+01   2.94306698E+01   2.65786529E-01  -2.43029904E+00   2.94306698E+01   2.94306698E+01   2.65786529E-01  -2.43029904E+00   3.18609695E+01  -9.08871937E+00   3.03332043E+01   3.20363671E-01   2.93760929E+01  -2.43029904E+00   1.26046312E+00
             1461                2   3.07248917E+01   2.95164642E+01   2.95164642E+01   1.79992110E-01  -2.43029904E+00   2.95164642E+01   2.95164642E+01   1.79992110E-01  -2.43029904E+00   3.19467640E+01  -9.08871937E+00   3.04739285E+01   2.15402365E-01   2.94810543E+01  -2.43029904E+00   1.01860940E+00
             1461                3   3.09606609E+01   2.96807938E+01   2.96807938E+01   1.56617910E-02  -2.43029904E+00   2.96807938E+01   2.96807938E+01   1.56617910E-02  -2.43029904E+00   3.21110916E+01  -9.08871841E+00   3.07421570E+01   7.85623342E-02   2.96178932E+01  -2.43029904E+00   1.36454391E+00
             1461                4   3.10821743E+01   2.97652645E+01   2.97652645E+01  -6.88085333E-02  -2.43029904E+00   2.97652645E+01   2.97652645E+01  -6.88085333E-02  -2.43029904E+00   3.21955643E+01  -9.08871937E+00   3.08793755E+01  -2.65050717E-02   2.97229614E+01  -2.43029904E+00   1.12263596E+00
             1462                1   5.08818436E+01   5.23243675E+01   5.23243675E+01   1.40687537E+00   1.47824907E+00   5.23243675E+01   5.23243675E+01   1.47824907E+00   1.40687537E+00   5.09174919E+01  -1.84031639E+01   5.08817329E+01   1.57819164E+00   5.21530533E+01   1.47824907E+00   2.94848347E+00
             1462                2   5.05411110E+01   5.20971184E+01   5.20971184E+01   1.63412750E+00   1.47824907E+00   5.20971184E+01   5.20971184E+01   1.63412750E+00   1.47824907E+00   5.06188698E+01  -1.84031658E+01   5.05405693E+01   1.79884303E+00   5.19324036E+01   1.47824907E+00   2.87835407E+00
             1462                3   5.09503632E+01   5.23700066E+01   5.23700066E+01   1.36123979E+00   1.47824907E+00   5.23700066E+01   5.23700066E+01   1.47824907E+00   1.36123979E+00   5.10087662E+01  -1.84031658E+01   5.09500618E+01   1.50768149E+00   5.22235641E+01   1.47824907E+00   2.72918200E+00
             1462                4   5.06103172E+01   5.21433182E+01   5.21433182E+01   1.58792973E+00   1.47824907E+00   5.21433182E+01   5.21433182E+01   1.58792973E+00   1.47824907E+00   5.06650696E+01  -1.84031658E+01   5.06100502E+01   1.72816849E+00   5.20030785E+01   1.47824907E+00   2.65897703E+00
             1463                1   2.18908463E+02   2.35758743E+02   2.35758743E+02  -1.34409595E+00   4.13284836E+01   2.35758743E+02   2.35758743E+02   4.13284836E+01  -1.34409595E+00   2.37102829E+02  -9.19143753E+01   2.09241623E+02  -1.21513748E+00   2.35629776E+02   4.13284836E+01  -5.52817202E+00
             1463                2   2.19116653E+02   2.35451569E+02   2.35451569E+02  -3.34557486E+00   4.36371269E+01   2.35451569E+02   2.35451569E+02   4.36371269E+01  -3.34557486E+00   2.38797134E+02  -9.19143677E+01   2.07324387E+02  -3.33811307E+00   2.35444107E+02   4.36371269E+01  -1.33425403E+00
             1463                3   2.18810516E+02   2.36017517E+02   2.36017517E+02   2.39810109E-01   3.94857941E+01   2.36017517E+02   2.36017517E+02   3.94857941E+01   2.39810109E-01   2.35777710E+02  -9.19143677E+01   2.10672607E+02   2.40082785E-01   2.36017242E+02   3.94857941E+01   2.53088772E-01
             1463                4   2.19029816E+02   2.35717957E+02   2.35717957E+02  -1.93625927E+00   4.19614182E+01   2.35717957E+02   2.35717957E+02   4.19614182E+01  -1.93625927E+00   2.37654205E+02  -9.19143677E+01   2.08785645E+02  -1.85575688E+00   2.35637451E+02   4.19614182E+01   4.37319469E+00
             1464                1   4.06687927E+01   4.98546944E+01   4.98546944E+01   5.30858469E+00   1.47098246E+01   4.98546944E+01   4.98546944E+01   1.47098246E+01   5.30858469E+00   4.45461121E+01  -2.32910366E+01   3.81071396E+01   1.11553154E+01   4.40079651E+01   1.47098246E+01   1.50421028E+01
             1464                2   3.85142555E+01   4.85392494E+01   4.85392494E+01   6.62402916E+00   1.47098246E+01   4.85392494E+01   4.85392494E+01   1.47098246E+01   6.62402916E+00   4.19152222E+01  -2.32910366E+01   3.65306015E+01   1.19557037E+01   4.32075768E+01   1.47098246E+01   1.39660864E+01
             1464                3   4.11803970E+01   5.01658669E+01   5.01658669E+01   4.99741840E+00   1.47098246E+01   5.01658669E+01   5.01658669E+01   1.47098246E+01   4.99741840E+00   4.51684456E+01  -2.32910366E+01   3.84747581E+01   1.00552502E+01   4.51080322E+01   1.47098246E+01   1.42433424E+01
             1464                4   3.90522270E+01   4.88685150E+01   4.88685150E+01   6.29476976E+00   1.47098246E+01   4.88685150E+01   4.88685150E+01   1.47098246E+01   6.29476976E+00   4.25737457E+01  -2.32910366E+01   3.69287453E+01   1.08555937E+01   4.43076897E+01   1.47098246E+01   1.31670141E+01
             1465                1   2.13264435E+02   1.83032196E+02   1.83032196E+02  -3.60577202E+01  -2.38853722E+01   1.83032196E+02   1.83032196E+02  -2.38853722E+01  -3.60577202E+01   2.19089920E+02  -4.10296974E+01   2.12480759E+02  -3.59853554E+01   1.82959824E+02  -2.38853722E+01  -3.98121667E+00
             1465                2   2.13893799E+02   1.83277237E+02   1.83277237E+02  -3.87204590E+01  -2.14676781E+01   1.83277237E+02   1.83277237E+02  -2.14676781E+01  -3.87204590E+01   2.21997696E+02  -4.10296974E+01   2.12319870E+02  -3.83945198E+01   1.82951294E+02  -2.14676781E+01  -8.50013924E+00
             1465                3   2.13752899E+02   1.83214264E+02   1.83214264E+02  -3.82944565E+01  -2.18307133E+01   1.83214264E+02   1.83214264E+02  -2.18307133E+01  -3.82944565E+01   2.21508713E+02  -4.10296974E+01   2.12319366E+02  -3.82907982E+01   1.83210602E+02  -2.18307133E+01   8.99883628E-01
             1465                4   2.14341629E+02   1.83400040E+02   1.83400040E+02  -4.07444687E+01  -1.95664787E+01   1.83400040E+02   1.83400040E+02  -1.95664787E+01  -4.07444687E+01   2.24144501E+02  -4.10296936E+01   2.11968613E+02  -4.06854820E+01   1.83341049E+02  -1.95664787E+01  -3.63555360E+00
             1466                1   2.00648315E+02   1.65247238E+02   1.65247238E+02  -3.75561523E+01  -3.31742134E+01   1.65247238E+02   1.65247238E+02  -3.31742134E+01  -3.75561523E+01   2.02803391E+02  -3.15056248E+01   2.00540604E+02  -3.75361900E+01   1.65227280E+02  -3.31742134E+01  -2.01179552E+00
             1466                2   1.99823502E+02   1.64720856E+02   1.64720856E+02  -3.53974915E+01  -3.48064919E+01   1.64720856E+02   1.64720856E+02  -3.48064919E+01  -3.53974915E+01   2.00118347E+02  -3.15056248E+01   1.99821533E+02  -3.53963127E+01   1.64719681E+02  -3.48064919E+01  -4.85149622E-01
             1466                3   2.00247955E+02   1.64992645E+02   1.64992645E+02  -3.67628670E+01  -3.37128983E+01   1.64992645E+02   1.64992645E+02  -3.37128983E+01  -3.67628670E+01   2.01755524E+02  -3.15056286E+01   2.00195679E+02  -3.65968513E+01   1.64826630E+02  -3.37128983E+01  -5.78515720E+00
             1466                4   1.99398682E+02   1.64437225E+02   1.64437225E+02  -3.45491676E+01  -3.53711853E+01   1.64437225E+02   1.64437225E+02  -3.45491676E+01  -3.53711853E+01   1.99808411E+02  -3.15056248E+01   1.99394867E+02  -3.44562607E+01   1.64344330E+02  -3.53711853E+01  -4.29853821E+00
             1467                1   7.33325577E+01   6.73556595E+01   6.73556595E+01  -5.56151199E+00  -6.38535452E+00   6.73556595E+01   6.73556595E+01  -5.56151199E+00  -6.38535452E+00   7.37410126E+01  -1.84695969E+01   7.33221436E+01  -4.17223167E+00   6.59663773E+01  -6.38535452E+00   9.96855831E+00
             1467                2   7.37679749E+01   6.76472855E+01   6.76472855E+01  -5.85314035E+00  -6.38535452E+00   6.76472855E+01   6.76472855E+01  -5.85314035E+00  -6.38535452E+00   7.40326385E+01  -1.84695969E+01   7.37636490E+01  -4.51076508E+00   6.63049088E+01  -6.38535452E+00   9.84190941E+00
             1467                3   7.36499939E+01   6.75683289E+01   6.75683289E+01  -5.77417850E+00  -6.38535452E+00   6.75683289E+01   6.75683289E+01  -5.77417850E+00  -6.38535452E+00   7.39536819E+01  -1.84695988E+01   7.36442871E+01  -4.29547405E+00   6.60896225E+01  -6.38535452E+00   1.03085108E+01
             1467                4   7.40834732E+01   6.78582306E+01   6.78582306E+01  -6.06408596E+00  -6.38535452E+00   6.78582306E+01   6.78582306E+01  -6.06408596E+00  -6.38535452E+00   7.42435837E+01  -1.84695969E+01   7.40819016E+01  -4.63402367E+00   6.64281693E+01  -6.38535452E+00   1.01817636E+01
             1468                1   5.73971024E+01   5.64564171E+01   5.64564171E+01  -8.72294486E-01  -1.00883150E+00   5.64564171E+01   5.64564171E+01  -8.72294486E-01  -1.00883150E+00   5.74652481E+01  -1.81917629E+01   5.73967361E+01  -8.13088179E-01   5.63972092E+01  -1.00883150E+00   1.84140062E+00
             1468                2   5.74509125E+01   5.64923286E+01   5.64923286E+01  -9.08207178E-01  -1.00883150E+00   5.64923286E+01   5.64923286E+01  -9.08207178E-01  -1.00883150E+00   5.75011597E+01  -1.81917629E+01   5.74507141E+01  -8.61899436E-01   5.64460220E+01  -1.00883150E+00   1.62969100E+00
             1468                3   5.77190094E+01   5.66710777E+01   5.66710777E+01  -1.08695507E+00  -1.00883150E+00   5.66710777E+01   5.66710777E+01  -1.00883150E+00  -1.08695507E+00   5.77580338E+01  -1.81917629E+01   5.77188911E+01  -1.02500820E+00   5.66091309E+01  -1.00883150E+00   1.89051294E+00
             1468                4   5.77723465E+01   5.67066040E+01   5.67066040E+01  -1.12248623E+00  -1.00883150E+00   5.67066040E+01   5.67066040E+01  -1.00883150E+00  -1.12248623E+00   5.78290901E+01  -1.81917629E+01   5.77720947E+01  -1.07370627E+00   5.66578255E+01  -1.00883150E+00   1.67882347E+00
             1469                1   1.02873199E+02   1.03536438E+02   1.03536438E+02   5.34850538E-01   7.92100966E-01   1.03536438E+02   1.03536438E+02   7.92100966E-01   5.34850538E-01   1.03001587E+02  -3.49544640E+01   1.02872482E+02   1.20023632E+00   1.02871056E+02   7.92100966E-01   8.25183392E+00
             1469                2   1.02909981E+02   1.03560921E+02   1.03560921E+02   5.10372281E-01   7.92100966E-01   1.03560921E+02   1.03560921E+02   7.92100966E-01   5.10372281E-01   1.03050552E+02  -3.49544640E+01   1.02909111E+02   1.20751858E+00   1.02863777E+02   7.92100966E-01   8.44721222E+00
             1469                3   1.02584991E+02   1.03344444E+02   1.03344444E+02   7.26841033E-01   7.92100966E-01   1.03344444E+02   1.03344444E+02   7.92100966E-01   7.26841033E-01   1.02617607E+02  -3.49544640E+01   1.02584946E+02   1.39303827E+00   1.02678253E+02   7.92100966E-01   8.24132919E+00
             1469                4   1.02621696E+02   1.03368904E+02   1.03368904E+02   7.02381611E-01   7.92100966E-01   1.03368904E+02   1.03368904E+02   7.92100966E-01   7.02381611E-01   1.02666527E+02  -3.49544640E+01   1.02621613E+02   1.40038610E+00   1.02670906E+02   7.92100966E-01   8.43647861E+00
             1470                1   2.97900085E+01   2.72915840E+01   2.72915840E+01   3.76652032E-02  -4.51125622E+00   2.72915840E+01   2.72915840E+01   3.76652032E-02  -4.51125622E+00   3.18028393E+01  -7.60599756E+00   2.89931545E+01   1.05709106E-01   2.72235394E+01  -4.51125622E+00   1.36008537E+00
             1470                2   2.94613190E+01   2.70512676E+01   2.70512676E+01   2.77980685E-01  -4.51125622E+00   2.70512676E+01   2.70512676E+01   2.77980685E-01  -4.51125622E+00   3.15625248E+01  -7.60599756E+00   2.85657825E+01   3.37642968E-01   2.69916058E+01  -4.51125622E+00   1.26245308E+00
             1470                3   2.98955765E+01   2.73684311E+01   2.73684311E+01  -3.91799659E-02  -4.51125622E+00   2.73684311E+01   2.73684311E+01  -3.91799659E-02  -4.51125622E+00   3.18796864E+01  -7.60599756E+00   2.91287613E+01   7.33319251E-03   2.73219166E+01  -4.51125622E+00   1.12812519E+00
             1470                4   2.95679970E+01   2.71294403E+01   2.71294403E+01   1.99809372E-01  -4.51125622E+00   2.71294403E+01   2.71294403E+01   1.99809372E-01  -4.51125622E+00   3.16406975E+01  -7.60599756E+00   2.87053642E+01   2.39299178E-01   2.70899506E+01  -4.51125622E+00   1.03048658E+00
             1471                1   4.65408859E+01   5.00406036E+01   5.00406036E+01   3.56326914E+00   3.43642616E+00   5.00406036E+01   5.00406036E+01   3.56326914E+00   3.43642616E+00   4.66041794E+01  -1.90134335E+01   4.65405006E+01   3.61734295E+00   4.99865303E+01   3.43642616E+00   1.58439982E+00
             1471                2   4.65725403E+01   5.00617332E+01   5.00617332E+01   3.54214096E+00   3.43642616E+00   5.00617332E+01   5.00617332E+01   3.54214096E+00   3.43642616E+00   4.66253052E+01  -1.90134335E+01   4.65722694E+01   3.58147621E+00   5.00223961E+01   3.43642616E+00   1.35218310E+00
             1471                3   4.68932495E+01   5.02755356E+01   5.02755356E+01   3.32833695E+00   3.43642616E+00   5.02755356E+01   5.02755356E+01   3.43642616E+00   3.32833695E+00   4.69472008E+01  -1.90134335E+01   4.68929710E+01   3.38431001E+00   5.02195625E+01   3.43642616E+00   1.62010074E+00
             1471                4   4.69243317E+01   5.02962303E+01   5.02962303E+01   3.30763865E+00   3.43642616E+00   5.02962303E+01   5.02962303E+01   3.43642616E+00   3.30763865E+00   4.69885941E+01  -1.90134335E+01   4.69239311E+01   3.34867549E+00   5.02551956E+01   3.43642616E+00   1.38800073E+00
             1472                1   8.99029922E+01   8.47612534E+01   8.47612534E+01  -5.07238770E+00  -5.21092558E+00   8.47612534E+01   8.47612534E+01  -5.07238770E+00  -5.21092558E+00   8.99721756E+01  -2.48259811E+01   8.99027481E+01  -4.85604763E+00   8.45449142E+01  -5.21092558E+00   4.40314913E+00
             1472                2   9.00852203E+01   8.48827972E+01   8.48827972E+01  -5.19392872E+00  -5.21092558E+00   8.48827972E+01   8.48827972E+01  -5.19392872E+00  -5.21092558E+00   9.00937195E+01  -2.48259811E+01   9.00852127E+01  -4.98832893E+00   8.46771927E+01  -5.21092558E+00   4.29856348E+00
             1472                3   9.00785217E+01   8.48783264E+01   8.48783264E+01  -5.18946362E+00  -5.21092558E+00   8.48783264E+01   8.48783264E+01  -5.18946362E+00  -5.21092558E+00   9.00892563E+01  -2.48259811E+01   9.00785141E+01  -4.96043348E+00   8.46492996E+01  -5.21092558E+00   4.53604746E+00
             1472                4   9.02604446E+01   8.49995804E+01   8.49995804E+01  -5.31071663E+00  -5.21092558E+00   8.49995804E+01   8.49995804E+01  -5.21092558E+00  -5.31071663E+00   9.03103027E+01  -2.48259811E+01   9.02603149E+01  -5.09274244E+00   8.47816086E+01  -5.21092558E+00   4.43145275E+00
             1473                1   9.53655014E+01   9.24168167E+01   9.24168167E+01  -2.86519313E+00  -3.03196645E+00   9.24168167E+01   9.24168167E+01  -2.86519313E+00  -3.03196645E+00   9.54487839E+01  -2.88398838E+01   9.53651733E+01  -1.70275700E+00   9.12543793E+01  -3.03196645E+00   1.04598198E+01
             1473                2   9.58090057E+01   9.27125092E+01   9.27125092E+01  -3.16089010E+00  -3.03196645E+00   9.27125092E+01   9.27125092E+01  -3.03196645E+00  -3.16089010E+00   9.58733978E+01  -2.88398838E+01   9.58088074E+01  -2.01712680E+00   9.15687485E+01  -3.03196645E+00   1.04090424E+01
             1473                3   9.55448227E+01   9.25364227E+01   9.25364227E+01  -2.98480535E+00  -3.03196645E+00   9.25364227E+01   9.25364227E+01  -2.98480535E+00  -3.03196645E+00   9.55683899E+01  -2.88398838E+01   9.55447922E+01  -1.75279903E+00   9.13044205E+01  -3.03196645E+00   1.07779789E+01
             1473                4   9.59876328E+01   9.28314819E+01   9.28314819E+01  -3.27985978E+00  -3.03196645E+00   9.28314819E+01   9.28314819E+01  -3.03196645E+00  -3.27985978E+00   9.61113434E+01  -2.88398838E+01   9.59869156E+01  -2.06708193E+00   9.16187057E+01  -3.03196645E+00   1.07280273E+01
             1474                1   4.43784637E+01   4.27129898E+01   4.27129898E+01  -7.98875570E-01  -2.48406172E+00   4.27129898E+01   4.27129898E+01  -7.98875570E-01  -2.48406172E+00   4.51970520E+01  -1.31433516E+01   4.43063889E+01   1.00935221E+00   4.09047623E+01  -2.48406172E+00   8.68387794E+00
             1474                2   4.46904335E+01   4.29248238E+01   4.29248238E+01  -1.01071322E+00  -2.48406172E+00   4.29248238E+01   4.29248238E+01  -1.01071322E+00  -2.48406172E+00   4.54088860E+01  -1.31433496E+01   4.46357384E+01   7.58452475E-01   4.11556587E+01  -2.48406172E+00   8.63709068E+00
             1474                3   4.46159630E+01   4.28743134E+01   4.28743134E+01  -9.60196555E-01  -2.48406172E+00   4.28743134E+01   4.28743134E+01  -9.60196555E-01  -2.48406172E+00   4.53583755E+01  -1.31433516E+01   4.45573540E+01   9.52295601E-01   4.09618187E+01  -2.48406172E+00   8.95408249E+00
             1474                4   4.49181328E+01   4.30790863E+01   4.30790863E+01  -1.16497076E+00  -2.48406172E+00   4.30790863E+01   4.30790863E+01  -1.16497076E+00  -2.48406172E+00   4.55631485E+01  -1.31433516E+01   4.48745232E+01   7.05267489E-01   4.12088470E+01  -2.48406172E+00   8.90220165E+00
             1475                1   4.71581078E+01   4.46969604E+01   4.46969604E+01  -1.73832071E+00  -3.15217638E+00   4.46969604E+01   4.46969604E+01  -1.73832071E+00  -3.15217638E+00   4.78491364E+01  -1.32688217E+01   4.71103859E+01   2.11564228E-01   4.27470779E+01  -3.15217638E+00   9.31350422E+00
             1475                2   4.67985001E+01   4.44531403E+01   4.44531403E+01  -1.49449587E+00  -3.15217638E+00   4.44531403E+01   4.44531403E+01  -1.49449587E+00  -3.15217638E+00   4.76053162E+01  -1.32688227E+01   4.67323761E+01   4.96097535E-01   4.24625473E+01  -3.15217638E+00   9.35417557E+00
             1475                3   4.69694061E+01   4.45691071E+01   4.45691071E+01  -1.61046219E+00  -3.15217638E+00   4.45691071E+01   4.45691071E+01  -1.61046219E+00  -3.15217638E+00   4.77212830E+01  -1.32688227E+01   4.69124260E+01   2.21014574E-01   4.27376289E+01  -3.15217638E+00   9.01235580E+00
             1475                4   4.65659218E+01   4.42950630E+01   4.42950630E+01  -1.33641994E+00  -3.15217638E+00   4.42950630E+01   4.42950630E+01  -1.33641994E+00  -3.15217638E+00   4.74472427E+01  -1.32688227E+01   4.64861679E+01   5.37954450E-01   4.24206886E+01  -3.15217638E+00   9.05633926E+00
             1476                1   3.58669128E+01   4.47960434E+01   4.47960434E+01   8.85735989E+00   9.00133419E+00   4.47960434E+01   4.47960434E+01   9.00133419E+00   8.85735989E+00   3.59386826E+01  -2.08849125E+01   3.58662605E+01   8.87032509E+00   4.47830772E+01   9.00133419E+00   6.82528079E-01
             1476                2   3.58582115E+01   4.47902565E+01   4.47902565E+01   8.86314964E+00   9.00133419E+00   4.47902565E+01   4.47902565E+01   9.00133419E+00   8.86314964E+00   3.59271049E+01  -2.08849125E+01   3.58576126E+01   8.88787460E+00   4.47655296E+01   9.00133419E+00   9.42171574E-01
             1476                3   3.54713326E+01   4.45323677E+01   4.45323677E+01   9.12103748E+00   9.00133419E+00   4.45323677E+01   4.45323677E+01   9.12103748E+00   9.00133419E+00   3.55310326E+01  -2.08849125E+01   3.54708748E+01   9.13348675E+00   4.45199165E+01   9.00133419E+00   6.63865030E-01
             1476                4   3.54640694E+01   4.45275154E+01   4.45275154E+01   9.12588787E+00   9.00133419E+00   4.45275154E+01   4.45275154E+01   9.12588787E+00   9.00133419E+00   3.55261841E+01  -2.08849125E+01   3.54635773E+01   9.15000820E+00   4.45033951E+01   9.00133419E+00   9.23777580E-01
             1477                1   5.50440521E+01   5.48910484E+01   5.48910484E+01  -7.65559748E-02  -2.29135334E-01   5.48910484E+01   5.48910484E+01  -7.65559748E-02  -2.29135334E-01   5.51201820E+01  -1.81951199E+01   5.50435753E+01   3.11014038E-02   5.47833900E+01  -2.29135334E-01   2.43024039E+00
             1477                2   5.51114769E+01   5.49360504E+01   5.49360504E+01  -1.21559471E-01  -2.29135334E-01   5.49360504E+01   5.49360504E+01  -1.21559471E-01  -2.29135334E-01   5.51651878E+01  -1.81951199E+01   5.51112404E+01  -3.21991965E-02   5.48466911E+01  -2.29135334E-01   2.21629000E+00
             1477                3   5.53724709E+01   5.51100807E+01   5.51100807E+01  -2.95589149E-01  -2.29135334E-01   5.51100807E+01   5.51100807E+01  -2.29135334E-01  -2.95589149E-01   5.54056702E+01  -1.81951199E+01   5.53723831E+01  -1.83131754E-01   5.49976234E+01  -2.29135334E-01   2.49361324E+00
             1477                4   5.54393234E+01   5.51546097E+01   5.51546097E+01  -3.40119869E-01  -2.29135334E-01   5.51546097E+01   5.51546097E+01  -2.29135334E-01  -3.40119869E-01   5.54947319E+01  -1.81951199E+01   5.54390717E+01  -2.46306792E-01   5.50607986E+01  -2.29135334E-01   2.27975845E+00
             1478                1   1.00153687E+02   9.85639191E+01   9.85639191E+01  -1.65197420E+00  -1.52744472E+00   9.85639191E+01   9.85639191E+01  -1.52744472E+00  -1.65197420E+00   1.00215889E+02  -3.17948322E+01   1.00153503E+02  -1.38906336E+00   9.83010025E+01  -1.52744472E+00   5.12630033E+00
             1478                2   9.99663239E+01   9.84390488E+01   9.84390488E+01  -1.52710545E+00  -1.52744472E+00   9.84390488E+01   9.84390488E+01  -1.52710545E+00  -1.52744472E+00   9.99664917E+01  -3.17948322E+01   9.99663162E+01  -1.26101768E+00   9.81729584E+01  -1.52744472E+00   5.15063572E+00
             1478                3   1.00096794E+02   9.85260086E+01   9.85260086E+01  -1.61406779E+00  -1.52744472E+00   9.85260086E+01   9.85260086E+01  -1.52744472E+00  -1.61406779E+00   1.00140076E+02  -3.17948322E+01   1.00096710E+02  -1.36407435E+00   9.82760162E+01  -1.52744472E+00   4.99718189E+00
             1478                4   9.99094772E+01   9.84011459E+01   9.84011459E+01  -1.48920488E+00  -1.52744472E+00   9.84011459E+01   9.84011459E+01  -1.48920488E+00  -1.52744472E+00   9.99285889E+01  -3.17948322E+01   9.99094543E+01  -1.23610139E+00   9.81480408E+01  -1.52744472E+00   5.02182674E+00
             1479                1   2.20000000E+02   2.01899643E+02   2.01899643E+02  -3.47369423E+01   3.56669712E+00   2.01899643E+02   2.01899643E+02   3.56669712E+00  -3.47369423E+01   2.36636581E+02  -5.69098015E+01   2.12302719E+02  -3.46739655E+01   2.01836670E+02   3.56669712E+00   3.85986090E+00
             1479                2   2.20000000E+02   2.01536285E+02   2.01536285E+02  -3.65154305E+01   5.70853376E+00   2.01536285E+02   2.01536285E+02   5.70853376E+00  -3.65154305E+01   2.38051727E+02  -5.69097939E+01   2.10592148E+02  -3.65067863E+01   2.01527649E+02   5.70853376E+00  -1.43425643E+00
             1479                3   2.20000000E+02   2.01416519E+02   2.01416519E+02  -3.70619888E+01   6.37488222E+00   2.01416519E+02   2.01416519E+02   6.37488222E+00  -3.70619888E+01   2.38478500E+02  -5.69098015E+01   2.10024658E+02  -3.67572060E+01   2.01111725E+02   6.37488222E+00   8.52012539E+00
             1479                4   2.20000000E+02   2.01032150E+02   2.01032150E+02  -3.87075539E+01   8.40479946E+00   2.01032150E+02   2.01032150E+02   8.40479946E+00  -3.87075539E+01   2.39739716E+02  -5.69098015E+01   2.08191406E+02  -3.86703491E+01   2.00994949E+02   8.40479946E+00   2.98637676E+00
             1480                1   6.32895279E+01   5.96064262E+01   5.96064262E+01  -3.45074248E+00  -3.91292930E+00   5.96064262E+01   5.96064262E+01  -3.45074248E+00  -3.91292930E+00   6.35193558E+01  -1.74142513E+01   6.32857323E+01  -2.76962280E+00   5.89253082E+01  -3.91292930E+00   6.51809406E+00
             1480                2   6.35271225E+01   5.97653046E+01   5.97653046E+01  -3.60961938E+00  -3.91292930E+00   5.97653046E+01   5.97653046E+01  -3.60961938E+00  -3.91292930E+00   6.36782341E+01  -1.74142513E+01   6.35254936E+01  -2.96766043E+00   5.91233444E+01  -3.91292930E+00   6.34602833E+00
             1480                3   6.36025772E+01   5.98157158E+01   5.98157158E+01  -3.66003561E+00  -3.91292930E+00   5.98157158E+01   5.98157158E+01  -3.66003561E+00  -3.91292930E+00   6.37286453E+01  -1.74142513E+01   6.36014481E+01  -2.94112635E+00   5.90968094E+01  -3.91292930E+00   6.71687365E+00
             1480                4   6.38388252E+01   5.99734344E+01   5.99734344E+01  -3.81774855E+00  -3.91292930E+00   5.99734344E+01   5.99734344E+01  -3.81774855E+00  -3.91292930E+00   6.38863640E+01  -1.74142513E+01   6.38386650E+01  -3.13905716E+00   5.92947426E+01  -3.91292930E+00   6.54476118E+00
             1481                1   3.18441105E+01   2.96475677E+01   2.96475677E+01   1.77781016E-01  -4.13191128E+00   2.96475677E+01   2.96475677E+01   1.77781016E-01  -4.13191128E+00   3.37794800E+01  -8.56447887E+00   3.11778698E+01   4.34025288E-01   2.93913231E+01  -4.13191128E+00   2.73601699E+00
             1481                2   3.21992683E+01   2.99026337E+01   2.99026337E+01  -7.72849396E-02  -4.13191128E+00   2.99026337E+01   2.99026337E+01  -7.72849396E-02  -4.13191128E+00   3.40345459E+01  -8.56447887E+00   3.16172752E+01   1.92072600E-01   2.96332760E+01  -4.13191128E+00   2.82891202E+00
             1481                3   3.17806931E+01   2.96018562E+01   2.96018562E+01   2.23493248E-01  -4.13191128E+00   2.96018562E+01   2.96018562E+01   2.23493248E-01  -4.13191128E+00   3.37337685E+01  -8.56447983E+00   3.10986118E+01   5.28592706E-01   2.92967567E+01  -4.13191128E+00   2.97829604E+00
             1481                4   3.21364670E+01   2.98576431E+01   2.98576431E+01  -3.22942808E-02  -4.13191128E+00   2.98576431E+01   2.98576431E+01  -3.22942808E-02  -4.13191128E+00   3.39895554E+01  -8.56447887E+00   3.15401134E+01   2.86644757E-01   2.95387039E+01  -4.13191128E+00   3.07104588E+00
             1482                1   3.19236431E+01   3.97023201E+01   3.97023201E+01   5.95599556E+00   9.98361015E+00   3.97023201E+01   3.97023201E+01   9.98361015E+00   5.95599556E+00   3.37463264E+01  -1.85473099E+01   3.13443871E+01   9.92419720E+00   3.57341194E+01   9.98361015E+00   1.08704014E+01
             1482                2   3.15202961E+01   3.94476318E+01   3.94476318E+01   6.21068573E+00   9.98361015E+00   3.94476318E+01   3.94476318E+01   9.98361015E+00   6.21068573E+00   3.32369461E+01  -1.85473099E+01   3.10061684E+01   1.00276089E+01   3.56307068E+01   9.98361015E+00   1.05968857E+01
             1482                3   3.21577187E+01   3.98498383E+01   3.98498383E+01   5.80847740E+00   9.98361015E+00   3.98498383E+01   3.98498383E+01   9.98361015E+00   5.80847740E+00   3.40413628E+01  -1.85473099E+01   3.15392933E+01   9.64669418E+00   3.60116234E+01   9.98361015E+00   1.07669039E+01
             1482                4   3.17581558E+01   3.95979042E+01   3.95979042E+01   6.06041527E+00   9.98361015E+00   3.95979042E+01   3.95979042E+01   9.98361015E+00   6.06041527E+00   3.35374870E+01  -1.85473099E+01   3.12059879E+01   9.74976635E+00   3.59085503E+01   9.98361015E+00   1.04938211E+01
             1483                1   1.76435364E+02   1.72588211E+02   1.72588211E+02  -5.98969555E+00  -1.62358844E+00   1.72588211E+02   1.72588211E+02  -1.62358844E+00  -5.98969555E+00   1.78577896E+02  -5.49916420E+01   1.76313751E+02  -5.98071527E+00   1.72579224E+02  -1.62358844E+00   1.26650476E+00
             1483                2   1.74962570E+02   1.71629562E+02   1.71629562E+02  -4.14208508E+00  -2.51256061E+00   1.71629562E+02   1.71629562E+02  -2.51256061E+00  -4.14208508E+00   1.75771637E+02  -5.49916382E+01   1.74945496E+02  -4.09646273E+00   1.71583939E+02  -2.51256061E+00   2.83133960E+00
             1483                3   1.75629456E+02   1.72065765E+02   1.72065765E+02  -5.00821733E+00  -2.08262634E+00   1.72065765E+02   1.72065765E+02  -2.08262634E+00  -5.00821733E+00   1.77073975E+02  -5.49916382E+01   1.75574615E+02  -4.99554729E+00   1.72053085E+02  -2.08262634E+00  -1.49796069E+00
             1483                4   1.74123093E+02   1.71073685E+02   1.71073685E+02  -3.10717535E+00  -2.99160099E+00   1.71073685E+02   1.71073685E+02  -2.99160099E+00  -3.10717535E+00   1.74180862E+02  -5.49916344E+01   1.74123016E+02  -3.10716319E+00   1.71073669E+02  -2.99160099E+00   4.75167818E-02
             1484                1   1.79665848E+02   1.76280930E+02   1.76280930E+02  -6.57378435E+00  -1.65298376E-02   1.76280930E+02   1.76280930E+02  -1.65298376E-02  -6.57378435E+00   1.82854706E+02  -5.65635376E+01   1.79396317E+02  -6.56685305E+00   1.76273987E+02  -1.65298376E-02   1.12613773E+00
             1484                2   1.78141617E+02   1.75303238E+02   1.75303238E+02  -4.75761700E+00  -8.55017960E-01   1.75303238E+02   1.75303238E+02  -8.55017960E-01  -4.75761700E+00   1.80060852E+02  -5.65635376E+01   1.78045395E+02  -4.70397854E+00   1.75249603E+02  -8.55017960E-01   3.10726929E+00
             1484                3   1.78602249E+02   1.75600235E+02   1.75600235E+02  -5.32545233E+00  -5.84184766E-01   1.75600235E+02   1.75600235E+02  -5.84184766E-01  -5.32545233E+00   1.80925690E+02  -5.65635338E+01   1.78460587E+02  -5.31180573E+00   1.75586594E+02  -5.84184766E-01  -1.57082391E+00
             1484                4   1.76998886E+02   1.74557159E+02   1.74557159E+02  -3.43232250E+00  -1.43423426E+00   1.74557159E+02   1.74557159E+02  -1.43423426E+00  -3.43232250E+00   1.77989471E+02  -5.65635338E+01   1.76973511E+02  -3.43143868E+00   1.74556274E+02  -1.43423426E+00   3.95835072E-01
             1485                1   3.24720383E+01   3.31782646E+01   3.31782646E+01  -1.07426934E-01   1.58616459E+00   3.31782646E+01   3.31782646E+01   1.58616459E+00  -1.07426934E-01   3.32856941E+01  -1.15523348E+01   3.23724442E+01  -8.19784105E-02   3.31528168E+01   1.58616459E+00   9.20023382E-01
             1485                2   3.18775940E+01   3.27906837E+01   3.27906837E+01   2.80155897E-01   1.58616459E+00   3.27906837E+01   3.27906837E+01   1.58616459E+00   2.80155897E-01   3.25105286E+01  -1.15523348E+01   3.18173161E+01   2.97906339E-01   3.27729340E+01   1.58616459E+00   7.59418428E-01
             1485                3   3.26943474E+01   3.33227196E+01   3.33227196E+01  -2.51879841E-01   1.58616459E+00   3.33227196E+01   3.33227196E+01   1.58616459E+00  -2.51879841E-01   3.35746002E+01  -1.15523348E+01   3.25777969E+01  -2.43208840E-01   3.33140488E+01   1.58616459E+00   5.39459586E-01
             1485                4   3.21037140E+01   3.29383507E+01   3.29383507E+01   1.32493392E-01   1.58616459E+00   3.29383507E+01   3.29383507E+01   1.58616459E+00   1.32493392E-01   3.28058548E+01  -1.15523367E+01   3.20295372E+01   1.36869580E-01   3.29339714E+01   1.58616459E+00   3.78950119E-01
             1486                1   6.90245743E+01   6.27431030E+01   6.27431030E+01  -5.43723631E+00  -7.09581089E+00   6.27431030E+01   6.27431030E+01  -5.43723631E+00  -7.09581089E+00   6.98389130E+01  -1.67366848E+01   6.89797134E+01  -2.88270140E+00   6.01885681E+01  -7.09581089E+00   1.29477177E+01
             1486                2   6.96551361E+01   6.31679764E+01   6.31679764E+01  -5.86211061E+00  -7.09581089E+00   6.31679764E+01   6.31679764E+01  -5.86211061E+00  -7.09581089E+00   7.02637863E+01  -1.67366848E+01   6.96305466E+01  -3.38688993E+00   6.06927567E+01  -7.09581089E+00   1.28350334E+01
             1486                3   6.94150620E+01   6.30063820E+01   6.30063820E+01  -5.70051622E+00  -7.09581089E+00   6.30063820E+01   6.30063820E+01  -5.70051622E+00  -7.09581089E+00   7.01021957E+01  -1.67366848E+01   6.93834991E+01  -2.96188259E+00   6.02677498E+01  -7.09581089E+00   1.34410877E+01
             1486                4   7.00416641E+01   6.34277420E+01   6.34277420E+01  -6.12187672E+00  -7.09581089E+00   6.34277420E+01   6.34277420E+01  -6.12187672E+00  -7.09581089E+00   7.05235519E+01  -1.67366848E+01   7.00264282E+01  -3.46625376E+00   6.07721214E+01  -7.09581089E+00   1.33283634E+01
             1487                1   5.59290733E+01   5.48685608E+01   5.48685608E+01  -9.66482222E-01  -1.15407014E+00   5.48685608E+01   5.48685608E+01  -9.66482222E-01  -1.15407014E+00   5.60226288E+01  -1.75826683E+01   5.59283638E+01  -5.43008208E-01   5.44450836E+01  -1.15407014E+00   4.84411287E+00
             1487                2   5.62547455E+01   5.50858269E+01   5.50858269E+01  -1.18375373E+00  -1.15407014E+00   5.50858269E+01   5.50858269E+01  -1.15407014E+00  -1.18375373E+00   5.62695808E+01  -1.75826664E+01   5.62547302E+01  -7.39290595E-01   5.46413651E+01  -1.15407014E+00   4.98117638E+00
             1487                3   5.57790527E+01   5.47683334E+01   5.47683334E+01  -8.66256595E-01  -1.15407014E+00   5.47683334E+01   5.47683334E+01  -8.66256595E-01  -1.15407014E+00   5.59224052E+01  -1.75826683E+01   5.57773857E+01  -4.05816257E-01   5.43078918E+01  -1.15407014E+00   5.04028416E+00
             1487                4   5.61057243E+01   5.49864655E+01   5.49864655E+01  -1.08438754E+00  -1.15407014E+00   5.49864655E+01   5.49864655E+01  -1.08438754E+00  -1.15407014E+00   5.61405334E+01  -1.75826683E+01   5.61056290E+01  -6.02195442E-01   5.45042725E+01  -1.15407014E+00   5.17729616E+00
             1488                1   2.20000000E+02   2.00106812E+02   2.00106812E+02  -3.69267082E+01   2.46146488E+00   2.00106812E+02   2.00106812E+02   2.46146488E+00  -3.69267082E+01   2.37033508E+02  -5.52138557E+01   2.11848145E+02  -3.68074455E+01   1.99987549E+02   2.46146488E+00   5.31545639E+00
             1488                2   2.20000000E+02   2.00570969E+02   2.00570969E+02  -3.44003296E+01  -5.29067278E-01   2.00570969E+02   2.00570969E+02  -5.29067278E-01  -3.44003296E+01   2.34971298E+02  -5.52138557E+01   2.14015640E+02  -3.43968048E+01   2.00567444E+02  -5.29067278E-01   9.09838974E-01
             1488                3   2.20000000E+02   1.99714523E+02   1.99714523E+02  -3.87850838E+01   4.71213865E+00   1.99714523E+02   1.99714523E+02   4.71213865E+00  -3.87850838E+01   2.38499619E+02  -5.52138634E+01   2.09995956E+02  -3.87847137E+01   1.99714157E+02   4.71213865E+00  -2.97330976E-01
             1488                4   2.20000000E+02   2.00201202E+02   2.00201202E+02  -3.64458275E+01   1.88620794E+00   2.00201202E+02   2.00201202E+02   1.88620794E+00  -3.64458275E+01   2.36647034E+02  -5.52138634E+01   2.12290985E+02  -3.63559608E+01   2.00111328E+02   1.88620794E+00  -4.61083126E+00
             1489                1   1.94800003E+02   1.79985352E+02   1.79985352E+02  -1.57449455E+01  -1.38708382E+01   1.79985352E+02   1.79985352E+02  -1.38708382E+01  -1.57449455E+01   1.95730286E+02  -5.01231880E+01   1.94779709E+02  -1.57107849E+01   1.79951187E+02  -1.38708382E+01   2.58555150E+00
             1489                2   1.94400024E+02   1.79721695E+02   1.79721695E+02  -1.52186203E+01  -1.41335144E+01   1.79721695E+02   1.79721695E+02  -1.41335144E+01  -1.52186203E+01   1.94940308E+02  -5.01231842E+01   1.94393219E+02  -1.51529341E+01   1.79656006E+02  -1.41335144E+01   3.57766199E+00
             1489                3   1.94395691E+02   1.79719345E+02   1.79719345E+02  -1.51071844E+01  -1.42425966E+01   1.79719345E+02   1.79719345E+02  -1.42425966E+01  -1.51071844E+01   1.94826538E+02  -5.01231880E+01   1.94391357E+02  -1.50913591E+01   1.79703522E+02  -1.42425966E+01   1.75610709E+00
             1489                4   1.93990234E+02   1.79449997E+02   1.79449997E+02  -1.45721045E+01  -1.45083427E+01   1.79449997E+02   1.79449997E+02  -1.45083427E+01  -1.45721045E+01   1.94022110E+02  -5.01231842E+01   1.93990219E+02  -1.45331106E+01   1.79411011E+02  -1.45083427E+01   2.75026965E+00
             1490                1   1.64924332E+02   1.65083694E+02   1.65083694E+02   6.09047651E-01  -2.86661297E-01   1.65083694E+02   1.65083694E+02   6.09047651E-01  -2.86661297E-01   1.65370361E+02  -5.51353607E+01   1.64918869E+02   6.16163194E-01   1.65076584E+02  -2.86661297E-01   1.08194232E+00
             1490                2   1.64750198E+02   1.64966583E+02   1.64966583E+02   8.29185307E-01  -3.89677584E-01   1.64966583E+02   1.64966583E+02   8.29185307E-01  -3.89677584E-01   1.65356247E+02  -5.51353607E+01   1.64740067E+02   8.33591580E-01   1.64962173E+02  -3.89677584E-01  -8.50042224E-01
             1490                3   1.65664658E+02   1.65576889E+02   1.65576889E+02  -5.98078549E-01   4.27282572E-01   1.65576889E+02   1.65576889E+02   4.27282572E-01  -5.98078549E-01   1.66174957E+02  -5.51353607E+01   1.65657532E+02  -5.94792724E-01   1.65573593E+02   4.27282572E-01   7.39499629E-01
             1490                4   1.65495407E+02   1.65464859E+02   1.65464859E+02  -3.86398762E-01   3.27619344E-01   1.65464859E+02   1.65464859E+02   3.27619344E-01  -3.86398762E-01   1.65851257E+02  -5.51353607E+01   1.65491943E+02  -3.78048837E-01   1.65456512E+02   3.27619344E-01  -1.17655838E+00
             1491                1   3.38867722E+01   3.26227875E+01   3.26227875E+01   2.70671584E-02  -2.42214370E+00   3.26227875E+01   3.26227875E+01   2.70671584E-02  -2.42214370E+00   3.50449295E+01  -1.00759029E+01   3.36867714E+01   5.01799941E-01   3.21480522E+01  -2.42214370E+00   3.90498447E+00
             1491                2   3.35701752E+01   3.24029007E+01   3.24029007E+01   2.46950403E-01  -2.42214370E+00   3.24029007E+01   3.24029007E+01   2.46950403E-01  -2.42214370E+00   3.48250465E+01  -1.00759029E+01   3.33301926E+01   7.08531380E-01   3.19413223E+01  -2.42214370E+00   3.82485151E+00
             1491                3   3.39334145E+01   3.26551018E+01   3.26551018E+01  -5.24864905E-03  -2.42214370E+00   3.26551018E+01   3.26551018E+01  -5.24864905E-03  -2.42214370E+00   3.50772438E+01  -1.00759029E+01   3.37389488E+01   4.19202775E-01   3.22306519E+01  -2.42214370E+00   3.69899225E+00
             1491                4   3.36171989E+01   3.24356194E+01   3.24356194E+01   2.14232519E-01  -2.42214370E+00   3.24356194E+01   3.24356194E+01   2.14232519E-01  -2.42214370E+00   3.48577652E+01  -1.00759029E+01   3.33834267E+01   6.25931263E-01   3.20239220E+01  -2.42214370E+00   3.61883879E+00
             1492                1   1.63838959E+02   1.63749924E+02   1.63749924E+02   2.41673976E-01  -4.17751968E-01   1.63749924E+02   1.63749924E+02   2.41673976E-01  -4.17751968E-01   1.64167664E+02  -5.45246124E+01   1.63835968E+02   2.45972410E-01   1.63745621E+02  -4.17751968E-01   8.38266850E-01
             1492                2   1.63683899E+02   1.63645981E+02   1.63645981E+02   4.13837194E-01  -4.85976458E-01   1.63645981E+02   1.63645981E+02   4.13837194E-01  -4.85976458E-01   1.64131958E+02  -5.45246124E+01   1.63678329E+02   4.15906787E-01   1.63643906E+02  -4.85976458E-01  -5.81509054E-01
             1492                3   1.64300201E+02   1.64057220E+02   1.64057220E+02  -6.18782699E-01   1.35408491E-01   1.64057220E+02   1.64057220E+02   1.35408491E-01  -6.18782699E-01   1.64675995E+02  -5.45246124E+01   1.64296310E+02  -6.16712511E-01   1.64055145E+02   1.35408491E-01   5.83595514E-01
             1492                4   1.64147949E+02   1.63956161E+02   1.63956161E+02  -4.51207608E-01   6.88839927E-02   1.63956161E+02   1.63956161E+02   6.88839927E-02  -4.51207608E-01   1.64407379E+02  -5.45246124E+01   1.64146103E+02  -4.47058141E-01   1.63952011E+02   6.88839927E-02  -8.26556623E-01
             1493                1   3.14124222E+01   2.99521923E+01   2.99521923E+01   2.18983844E-01  -2.90586638E+00   2.99521923E+01   2.99521923E+01   2.18983844E-01  -2.90586638E+00   3.28580589E+01  -9.08843708E+00   3.10598507E+01   3.35051805E-01   2.98361244E+01  -2.90586638E+00   1.85408235E+00
             1493                2   3.17537327E+01   3.01919575E+01   3.01919575E+01  -2.07797512E-02  -2.90586638E+00   3.01919575E+01   3.01919575E+01  -2.07797512E-02  -2.90586638E+00   3.30978241E+01  -9.08843708E+00   3.14568272E+01   1.06062546E-01   3.00651150E+01  -2.90586638E+00   1.95349574E+00
             1493                3   3.13136177E+01   2.98825493E+01   2.98825493E+01   2.88627177E-01  -2.90586638E+00   2.98825493E+01   2.98825493E+01   2.88627177E-01  -2.90586638E+00   3.27884178E+01  -9.08843708E+00   3.09438362E+01   4.35924530E-01   2.97352524E+01  -2.90586638E+00   2.08264494E+00
             1493                4   3.16557751E+01   3.01232700E+01   3.01232700E+01   4.79069166E-02  -2.90586638E+00   3.01232700E+01   3.01232700E+01   4.79069166E-02  -2.90586638E+00   3.30291367E+01  -9.08843708E+00   3.13434830E+01   2.07090572E-01   2.99640865E+01  -2.90586638E+00   2.18223763E+00
             1494                1   7.02065353E+01   6.56000748E+01   6.56000748E+01  -4.51617098E+00  -4.69640970E+00   6.56000748E+01   6.56000748E+01  -4.51617098E+00  -4.69640970E+00   7.02964783E+01  -1.87958298E+01   7.02060165E+01  -4.37419033E+00   6.54580917E+01  -4.69640970E+00   3.15196943E+00
             1494                2   7.03258896E+01   6.56797256E+01   6.56797256E+01  -4.59581614E+00  -4.69640970E+00   6.56797256E+01   6.56797256E+01  -4.59581614E+00  -4.69640970E+00   7.03761368E+01  -1.87958317E+01   7.03257294E+01  -4.47009420E+00   6.55540009E+01  -4.69640970E+00   2.96975899E+00
             1494                3   7.04916611E+01   6.57902756E+01   6.57902756E+01  -4.70636749E+00  -4.69640970E+00   6.57902756E+01   6.57902756E+01  -4.69640970E+00  -4.70636749E+00   7.04966431E+01  -1.87958317E+01   7.04916611E+01  -4.55632305E+00   6.56402283E+01  -4.69640970E+00   3.24887514E+00
             1494                4   7.06104126E+01   6.58694153E+01   6.58694153E+01  -4.78551102E+00  -4.69640970E+00   6.58694153E+01   6.58694153E+01  -4.69640970E+00  -4.78551102E+00   7.06549225E+01  -1.87958317E+01   7.06102905E+01  -4.65215778E+00   6.57360611E+01  -4.69640970E+00   3.06662703E+00
             1495                1   8.29243393E+01   7.70835342E+01   7.70835342E+01  -5.73130560E+00  -5.94987774E+00   7.70835342E+01   7.70835342E+01  -5.73130560E+00  -5.94987774E+00   8.30334091E+01  -2.18007832E+01   8.29236908E+01  -5.42164087E+00   7.67738647E+01  -5.94987774E+00   5.05461597E+00
             1495                2   8.31348190E+01   7.72239761E+01   7.72239761E+01  -5.87175703E+00  -5.94987774E+00   7.72239761E+01   7.72239761E+01  -5.87175703E+00  -5.94987774E+00   8.31738510E+01  -2.18007812E+01   8.31347351E+01  -5.57969379E+00   7.69319153E+01  -5.94987774E+00   4.91769028E+00
             1495                3   8.31567459E+01   7.72386017E+01   7.72386017E+01  -5.88637257E+00  -5.94987774E+00   7.72386017E+01   7.72386017E+01  -5.88637257E+00  -5.94987774E+00   8.31884766E+01  -2.18007832E+01   8.31566849E+01  -5.55810738E+00   7.69103317E+01  -5.94987774E+00   5.21339130E+00
             1495                4   8.33665848E+01   7.73784866E+01   7.73784866E+01  -6.02626991E+00  -5.94987774E+00   7.73784866E+01   7.73784866E+01  -5.94987774E+00  -6.02626991E+00   8.34047546E+01  -2.18007812E+01   8.33665085E+01  -5.71613789E+00   7.70683594E+01  -5.94987774E+00   5.07642221E+00
             1496                1   7.43690033E+01   6.80910950E+01   6.80910950E+01  -5.68186188E+00  -6.85996437E+00   6.80910950E+01   6.80910950E+01  -5.68186188E+00  -6.85996437E+00   7.49510574E+01  -1.85164204E+01   7.43479996E+01  -3.53880095E+00   6.59480286E+01  -6.85996437E+00   1.23898029E+01
             1496                2   7.49420013E+01   6.84756546E+01   6.84756546E+01  -6.06642437E+00  -6.85996437E+00   6.84756546E+01   6.84756546E+01  -6.06642437E+00  -6.85996437E+00   7.53356247E+01  -1.85164242E+01   7.49325485E+01  -3.98203444E+00   6.63912659E+01  -6.85996437E+00   1.22894344E+01
             1496                3   7.47214279E+01   6.83277435E+01   6.83277435E+01  -5.91851568E+00  -6.85996437E+00   6.83277435E+01   6.83277435E+01  -5.91851568E+00  -6.85996437E+00   7.51877060E+01  -1.85164204E+01   7.47080841E+01  -3.62931681E+00   6.60385437E+01  -6.85996437E+00   1.28344812E+01
             1496                4   7.52933884E+01   6.87109833E+01   6.87109833E+01  -6.30175114E+00  -6.85996437E+00   6.87109833E+01   6.87109833E+01  -6.30175114E+00  -6.85996437E+00   7.55709457E+01  -1.85164204E+01   7.52887421E+01  -4.07374048E+00   6.64829712E+01  -6.85996437E+00   1.27344084E+01
             1497                1   5.27499237E+01   5.33970490E+01   5.33970490E+01   7.04008579E-01   5.90429604E-01   5.33970490E+01   5.33970490E+01   7.04008579E-01   5.90429604E-01   5.28066216E+01  -1.82304974E+01   5.27496452E+01   8.48321199E-01   5.32527390E+01   5.90429604E-01   2.75379395E+00
             1497                2   5.30837746E+01   5.36196251E+01   5.36196251E+01   4.81434733E-01   5.90429604E-01   5.36196251E+01   5.36196251E+01   5.90429604E-01   4.81434733E-01   5.31381912E+01  -1.82304974E+01   5.30835228E+01   6.32439137E-01   5.34686203E+01   5.90429604E-01   2.82865214E+00
             1497                3   5.26729584E+01   5.33456726E+01   5.33456726E+01   7.55390465E-01   5.90429604E-01   5.33456726E+01   5.33456726E+01   7.55390465E-01   5.90429604E-01   5.27552414E+01  -1.82304974E+01   5.26723709E+01   9.23551798E-01   5.31775093E+01   5.90429604E-01   2.96908426E+00
             1497                4   5.30075417E+01   5.35688438E+01   5.35688438E+01   5.32220781E-01   5.90429604E-01   5.35688438E+01   5.35688438E+01   5.90429604E-01   5.32220781E-01   5.30366211E+01  -1.82304974E+01   5.30074654E+01   7.07499385E-01   5.33935623E+01   5.90429604E-01   3.04393125E+00
             1498                1   4.10959206E+01   4.63386421E+01   4.63386421E+01   5.11636066E+00   5.37025499E+00   4.63386421E+01   4.63386421E+01   5.37025499E+00   5.11636066E+00   4.12222824E+01  -1.89417515E+01   4.10941582E+01   5.71016598E+00   4.57448349E+01   5.37025499E+00   4.91176605E+00
             1498                2   4.10230293E+01   4.62901802E+01   4.62901802E+01   5.16481924E+00   5.37025499E+00   4.62901802E+01   4.62901802E+01   5.37025499E+00   5.16481924E+00   4.11253586E+01  -1.89417515E+01   4.10218697E+01   5.81407976E+00   4.56409187E+01   5.37025499E+00   5.12635565E+00
             1498                3   4.07060509E+01   4.60791168E+01   4.60791168E+01   5.37587929E+00   5.37025499E+00   4.60791168E+01   4.60791168E+01   5.37587929E+00   5.37025499E+00   4.07088623E+01  -1.89417515E+01   4.07060509E+01   5.95009279E+00   4.55049057E+01   5.37025499E+00   4.80027151E+00
             1498                4   4.06285591E+01   4.60274391E+01   4.60274391E+01   5.42756462E+00   5.37025499E+00   4.60274391E+01   4.60274391E+01   5.42756462E+00   5.37025499E+00   4.06571808E+01  -1.89417515E+01   4.06284676E+01   6.05620813E+00   4.53987923E+01   5.37025499E+00   5.01275492E+00
             1499                1   7.78635025E+01   7.16719513E+01   7.16719513E+01  -5.70507526E+00  -6.66908455E+00   7.16719513E+01   7.16719513E+01  -5.70507526E+00  -6.66908455E+00   7.83410339E+01  -1.97659302E+01   7.78500748E+01  -3.73320055E+00   6.97000732E+01  -6.66908455E+00   1.21938314E+01
             1499                2   7.84240646E+01   7.20475311E+01   7.20475311E+01  -6.08066034E+00  -6.66908455E+00   7.20475311E+01   7.20475311E+01  -6.08066034E+00  -6.66908455E+00   7.87166214E+01  -1.97659302E+01   7.84190903E+01  -4.16154861E+00   7.01284180E+01  -6.66908455E+00   1.20935535E+01
             1499                3   7.82011642E+01   7.18983002E+01   7.18983002E+01  -5.93142366E+00  -6.66908455E+00   7.18983002E+01   7.18983002E+01  -5.93142366E+00  -6.66908455E+00   7.85673828E+01  -1.97659302E+01   7.81933289E+01  -3.82705879E+00   6.97939301E+01  -6.66908455E+00   1.26235466E+01
             1499                4   7.87595444E+01   7.22718658E+01   7.22718658E+01  -6.30500221E+00  -6.66908455E+00   7.22718658E+01   7.22718658E+01  -6.30500221E+00  -6.66908455E+00   7.89409561E+01  -1.97659283E+01   7.87576447E+01  -4.25556040E+00   7.02224274E+01  -6.66908455E+00   1.25235147E+01
             1500                1   4.53031693E+01   4.85815964E+01   4.85815964E+01   3.32314181E+00   3.23384738E+00   4.85815964E+01   4.85815964E+01   3.32314181E+00   3.23384738E+00   4.53477516E+01  -1.83795300E+01   4.53029709E+01   3.79859853E+00   4.81061401E+01   3.23384738E+00   4.61436987E+00
             1500                2   4.56666451E+01   4.88238335E+01   4.88238335E+01   3.08090758E+00   3.23384738E+00   4.88238335E+01   4.88238335E+01   3.23384738E+00   3.08090758E+00   4.57429237E+01  -1.83795300E+01   4.56660690E+01   3.57503104E+00   4.83297081E+01   3.23384738E+00   4.72847748E+00
             1500                3   4.52099304E+01   4.85193558E+01   4.85193558E+01   3.38538289E+00   3.23384738E+00   4.85193558E+01   4.85193558E+01   3.38538289E+00   3.23384738E+00   4.52855110E+01  -1.83795300E+01   4.52093582E+01   3.90851307E+00   4.79962273E+01   3.23384738E+00   4.83086300E+00
             1500                4   4.55706139E+01   4.87598953E+01   4.87598953E+01   3.14484525E+00   3.23384738E+00   4.87598953E+01   4.87598953E+01   3.23384738E+00   3.14484525E+00   4.56150475E+01  -1.83795300E+01   4.55704155E+01   3.68644524E+00   4.82182922E+01   3.23384738E+00   4.94083643E+00
             1501                1   3.26264915E+01   4.28084373E+01   4.28084373E+01   1.01611280E+01   1.02028008E+01   4.28084373E+01   4.28084373E+01   1.02028008E+01   1.01611280E+01   3.26473083E+01  -2.10574551E+01   3.26264343E+01   1.05158310E+01   4.24537354E+01   1.02028008E+01   3.38441610E+00
             1501                2   3.26375999E+01   4.28158379E+01   4.28158379E+01   1.01537294E+01   1.02028008E+01   4.28158379E+01   4.28158379E+01   1.02028008E+01   1.01537294E+01   3.26621094E+01  -2.10574551E+01   3.26375160E+01   1.04587059E+01   4.25108604E+01   1.02028008E+01   3.14136362E+00
             1501                3   3.30199852E+01   4.30700836E+01   4.30700836E+01   9.89948368E+00   1.02028008E+01   4.30700836E+01   4.30700836E+01   1.02028008E+01   9.89948368E+00   3.31705971E+01  -2.10574551E+01   3.30168495E+01   1.02605000E+01   4.27090683E+01   1.02028008E+01   3.44161534E+00
             1501                4   3.30308990E+01   4.30773239E+01   4.30773239E+01   9.89224148E+00   1.02028008E+01   4.30773239E+01   4.30773239E+01   1.02028008E+01   9.89224148E+00   3.31850853E+01  -2.10574551E+01   3.30276146E+01   1.02031689E+01   4.27663994E+01   1.02028008E+01   3.19709659E+00
             1502                1   4.26468239E+01   3.87164078E+01   3.87164078E+01  -1.74079227E+00  -5.82603264E+00   3.87164078E+01   3.87164078E+01  -1.74079227E+00  -5.82603264E+00   4.45424423E+01  -1.03831949E+01   4.22032394E+01   1.98992416E-01   3.67766228E+01  -5.82603264E+00   8.64381504E+00
             1502                2   4.31130447E+01   3.90431938E+01   3.90431938E+01  -2.06758070E+00  -5.82603264E+00   3.90431938E+01   3.90431938E+01  -2.06758070E+00  -5.82603264E+00   4.48692245E+01  -1.03831930E+01   4.27421341E+01  -1.62683845E-01   3.71382980E+01  -5.82603264E+00   8.64193821E+00
             1502                3   4.28540192E+01   3.88618469E+01   3.88618469E+01  -1.88622916E+00  -5.82603264E+00   3.88618469E+01   3.88618469E+01  -1.88622916E+00  -5.82603264E+00   4.46878777E+01  -1.03831949E+01   4.24436989E+01   2.18864709E-01   3.67567520E+01  -5.82603264E+00   9.01926231E+00
             1502                4   4.33169708E+01   3.91856117E+01   3.91856117E+01  -2.20999479E+00  -5.82603264E+00   3.91856117E+01   3.91856117E+01  -2.20999479E+00  -5.82603264E+00   4.50116425E+01  -1.03831949E+01   4.29754295E+01  -1.41873598E-01   3.71174889E+01  -5.82603264E+00   9.01853943E+00
             1503                1   4.44945679E+01   4.90227242E+01   4.90227242E+01   4.58657122E+00   4.46996546E+00   4.90227242E+01   4.90227242E+01   4.58657122E+00   4.46996546E+00   4.45527573E+01  -1.93597546E+01   4.44942245E+01   4.59077072E+00   4.90185242E+01   4.46996546E+00   4.31951404E-01
             1503                2   4.45033531E+01   4.90285873E+01   4.90285873E+01   4.58070660E+00   4.46996546E+00   4.90285873E+01   4.90285873E+01   4.58070660E+00   4.46996546E+00   4.45586243E+01  -1.93597546E+01   4.45030441E+01   4.58154440E+00   4.90277519E+01   4.46996546E+00   1.92780808E-01
             1503                3   4.48540001E+01   4.92623367E+01   4.92623367E+01   4.34696102E+00   4.46996546E+00   4.92623367E+01   4.92623367E+01   4.46996546E+00   4.34696102E+00   4.49153748E+01  -1.93597546E+01   4.48536186E+01   4.35130167E+00   4.92579956E+01   4.46996546E+00   4.41589743E-01
             1503                4   4.48628006E+01   4.92681961E+01   4.92681961E+01   4.34110212E+00   4.46996546E+00   4.92681961E+01   4.92681961E+01   4.46996546E+00   4.34110212E+00   4.49270935E+01  -1.93597546E+01   4.48623848E+01   4.34201288E+00   4.92672844E+01   4.46996546E+00   2.02434778E-01
             1504                1   1.16836586E+02   1.41182236E+02   1.41182236E+02   2.41817093E+01   2.45102978E+01   1.41182236E+02   1.41182236E+02   2.45102978E+01   2.41817093E+01   1.17000534E+02  -6.32914162E+01   1.16835556E+02   2.42693100E+01   1.41094650E+02   2.45102978E+01   3.20017815E+00
             1504                2   1.16970779E+02   1.41271561E+02   1.41271561E+02   2.40923996E+01   2.45102978E+01   1.41271561E+02   1.41271561E+02   2.45102978E+01   2.40923996E+01   1.17179169E+02  -6.32914238E+01   1.16969093E+02   2.41893597E+01   1.41174606E+02   2.45102978E+01   3.36934686E+00
             1504                3   1.16587845E+02   1.41016602E+02   1.41016602E+02   2.43473701E+01   2.45102978E+01   1.41016602E+02   1.41016602E+02   2.45102978E+01   2.43473701E+01   1.16669228E+02  -6.32914238E+01   1.16587585E+02   2.44395084E+01   1.40924454E+02   2.45102978E+01   3.27741671E+00
             1504                4   1.16722092E+02   1.41106018E+02   1.41106018E+02   2.42579575E+01   2.45102978E+01   1.41106018E+02   1.41106018E+02   2.45102978E+01   2.42579575E+01   1.16848053E+02  -6.32914238E+01   1.16721474E+02   2.43596935E+01   1.41004272E+02   2.45102978E+01   3.44638038E+00
             1505                1   3.92359200E+01   3.93652458E+01   3.93652458E+01   5.59509218E-01  -2.87153482E-01   3.93652458E+01   3.93652458E+01   5.59509218E-01  -2.87153482E-01   3.96524010E+01  -1.32125330E+01   3.92153587E+01   2.14303565E+00   3.77817192E+01  -2.87153482E-01   7.67739296E+00
             1505                2   3.94342041E+01   3.94987793E+01   3.94987793E+01   4.25977051E-01  -2.87153482E-01   3.94987793E+01   3.94987793E+01   4.25977051E-01  -2.87153482E-01   3.97859306E+01  -1.32125330E+01   3.94196930E+01   1.98649585E+00   3.79382591E+01  -2.87153482E-01   7.65105391E+00
             1505                3   3.93784485E+01   3.94612541E+01   3.94612541E+01   4.63500768E-01  -2.87153482E-01   3.94612541E+01   3.94612541E+01   4.63500768E-01  -2.87153482E-01   3.97484093E+01  -1.32125330E+01   3.93623466E+01   2.11085916E+00   3.78138962E+01  -2.87153482E-01   7.84407282E+00
             1505                4   3.95735474E+01   3.95924759E+01   3.95924759E+01   3.32276314E-01  -2.87153482E-01   3.95924759E+01   3.95924759E+01   3.32276314E-01  -2.87153482E-01   3.98796272E+01  -1.32125320E+01   3.95626411E+01   1.95551002E+00   3.79692421E+01  -2.87153482E-01   7.81623697E+00
             1506                1   6.44789124E+01   6.06417923E+01   6.06417923E+01  -3.81809306E+00  -3.85613608E+00   6.06417923E+01   6.06417923E+01  -3.81809306E+00  -3.85613608E+00   6.44979324E+01  -1.76558552E+01   6.44788895E+01  -3.28155136E+00   6.01052513E+01  -3.85613608E+00   5.85641003E+00
             1506                2   6.42679749E+01   6.05010452E+01   6.05010452E+01  -3.67734885E+00  -3.85613608E+00   6.05010452E+01   6.05010452E+01  -3.67734885E+00  -3.85613608E+00   6.43571777E+01  -1.76558533E+01   6.42674179E+01  -3.10491109E+00   5.99286079E+01  -3.85613608E+00   6.03410339E+00
             1506                3   6.41700134E+01   6.04356308E+01   6.04356308E+01  -3.61193204E+00  -3.85613608E+00   6.04356308E+01   6.04356308E+01  -3.61193204E+00  -3.85613608E+00   6.42917709E+01  -1.76558552E+01   6.41689682E+01  -3.10438609E+00   5.99280853E+01  -3.85613608E+00   5.67886639E+00
             1506                4   6.39579239E+01   6.02938881E+01   6.02938881E+01  -3.47019076E+00  -3.85613608E+00   6.02938881E+01   6.02938881E+01  -3.47019076E+00  -3.85613608E+00   6.41500244E+01  -1.76558533E+01   6.39553032E+01  -2.92767167E+00   5.97513695E+01  -3.85613608E+00   5.85651779E+00
             1507                1   6.16034164E+01   5.73083000E+01   5.73083000E+01  -3.81254125E+00  -4.76661062E+00   5.73083000E+01   5.73083000E+01  -3.81254125E+00  -4.76661062E+00   6.20749092E+01  -1.62430496E+01   6.15867882E+01  -2.43229556E+00   5.59280548E+01  -4.76661062E+00   9.08056355E+00
             1507                2   6.19606094E+01   5.75480652E+01   5.75480652E+01  -4.05230141E+00  -4.76661062E+00   5.75480652E+01   5.75480652E+01  -4.05230141E+00  -4.76661062E+00   6.23146744E+01  -1.62430515E+01   6.19513397E+01  -2.72498870E+00   5.62207489E+01  -4.76661062E+00   8.94434452E+00
             1507                3   6.19257507E+01   5.75246849E+01   5.75246849E+01  -4.02892399E+00  -4.76661062E+00   5.75246849E+01   5.75246849E+01  -4.02892399E+00  -4.76661062E+00   6.22912979E+01  -1.62430515E+01   6.19158592E+01  -2.56660128E+00   5.60623627E+01  -4.76661062E+00   9.37405396E+00
             1507                4   6.22809792E+01   5.77626991E+01   5.77626991E+01  -4.26693869E+00  -4.76661062E+00   5.77626991E+01   5.77626991E+01  -4.26693869E+00  -4.76661062E+00   6.25293121E+01  -1.62430515E+01   6.22764664E+01  -2.85926461E+00   5.63550262E+01  -4.76661062E+00   9.23774719E+00
             1508                1   2.17704987E+02   2.32649475E+02   2.32649475E+02  -2.28942871E-01   3.42273827E+01   2.32649475E+02   2.32649475E+02   3.42273827E+01  -2.28942871E-01   2.32878418E+02  -8.88826370E+01   2.11439529E+02  -2.28939876E-01   2.32649475E+02   3.42273827E+01  -8.18887667E-04
             1508                2   2.17822830E+02   2.32524719E+02   2.32524719E+02  -1.39943361E+00   3.55226288E+01   2.32524719E+02   2.32524719E+02   3.55226288E+01  -1.39943361E+00   2.33924164E+02  -8.88826370E+01   2.10609344E+02  -1.30628932E+00   2.32431580E+02   3.55226288E+01  -4.66689825E+00
             1508                3   2.17882996E+02   2.32459396E+02   2.32459396E+02  -1.97447789E+00   3.61629944E+01   2.32459396E+02   2.32459396E+02   3.61629944E+01  -1.97447789E+00   2.34433884E+02  -8.88826370E+01   2.10175995E+02  -1.93495834E+00   2.32419876E+02   3.61629944E+01   3.04379439E+00
             1508                4   2.17992157E+02   2.32325439E+02   2.32325439E+02  -3.04558158E+00   3.73680420E+01   2.32325439E+02   2.32325439E+02   3.73680420E+01  -3.04558158E+00   2.35371017E+02  -8.88826294E+01   2.09313507E+02  -3.03478551E+00   2.32314651E+02   3.73680420E+01  -1.59371150E+00
             1509                1   5.04678879E+01   5.09124069E+01   5.09124069E+01   5.53172290E-01   3.36565465E-01   5.09124069E+01   5.09124069E+01   5.53172290E-01   3.36565465E-01   5.05758438E+01  -1.72673817E+01   5.04668427E+01   1.29372954E+00   5.01718521E+01   3.36565465E-01   6.06179762E+00
             1509                2   5.08018761E+01   5.11352997E+01   5.11352997E+01   3.30280960E-01   3.36565465E-01   5.11352997E+01   5.11352997E+01   3.36565465E-01   3.30280960E-01   5.08050194E+01  -1.72673817E+01   5.08018723E+01   1.10290813E+00   5.03626709E+01   3.36565465E-01   6.21742964E+00
             1509                3   5.03109589E+01   5.08075066E+01   5.08075066E+01   6.58073068E-01   3.36565465E-01   5.08075066E+01   5.08075066E+01   6.58073068E-01   3.36565465E-01   5.04709396E+01  -1.72673817E+01   5.03086433E+01   1.45007253E+00   5.00155067E+01   3.36565465E-01   6.25228739E+00
             1509                4   5.06463585E+01   5.10315742E+01   5.10315742E+01   4.34005320E-01   3.36565465E-01   5.10315742E+01   5.10315742E+01   4.34005320E-01   3.36565465E-01   5.06950073E+01  -1.72673817E+01   5.06461487E+01   1.25897336E+00   5.02066078E+01   3.36565465E-01   6.40786600E+00
             1510                1   2.35863419E+01   1.70326061E+01   1.70326061E+01  -1.06479295E-01  -9.86735916E+00   1.70326061E+01   1.70326061E+01  -1.06479295E-01  -9.86735916E+00   2.68999653E+01  -2.35292244E+00   1.81267681E+01  -8.40262100E-02   1.70101528E+01  -9.86735916E+00   6.19934738E-01
             1510                2   2.34730949E+01   1.69283218E+01   1.69283218E+01  -2.19429890E-03  -9.86735916E+00   1.69283218E+01   1.69283218E+01  -2.19429890E-03  -9.86735916E+00   2.67956810E+01  -2.35292315E+00   1.78244438E+01   4.59151119E-02   1.68802128E+01  -9.86735916E+00   9.01227474E-01
             1510                3   2.32744236E+01   1.67434502E+01   1.67434502E+01   1.82678029E-01  -9.86735916E+00   1.67434502E+01   1.67434502E+01   1.82678029E-01  -9.86735916E+00   2.66108093E+01  -2.35292315E+00   1.72716370E+01   1.97185114E-01   1.67289429E+01  -9.86735916E+00   4.89943683E-01
             1510                4   2.31596165E+01   1.66354446E+01   1.66354446E+01   2.90681541E-01  -9.86735916E+00   1.66354446E+01   1.66354446E+01   2.90681541E-01  -9.86735916E+00   2.65028038E+01  -2.35292244E+00   1.69376469E+01   3.27148825E-01   1.65989780E+01  -9.86735916E+00   7.71176219E-01
             1511                1   2.56864395E+01   1.98065929E+01   1.98065929E+01  -1.49503825E-02  -9.21237087E+00   1.98065929E+01   1.98065929E+01  -1.49503825E-02  -9.21237087E+00   2.90189648E+01  -3.52642417E+00   2.14831333E+01   2.18392074E-01   1.95732517E+01  -9.21237087E+00   2.13793039E+00
             1511                2   2.53199902E+01   1.94871178E+01   1.94871178E+01   3.04526210E-01  -9.21237087E+00   1.94871178E+01   1.94871178E+01   3.04526210E-01  -9.21237087E+00   2.86994877E+01  -3.52642417E+00   2.06795883E+01   5.19289553E-01   1.92723541E+01  -9.21237087E+00   2.01831222E+00
             1511                3   2.57533684E+01   1.98643208E+01   1.98643208E+01  -7.26776719E-02  -9.21237087E+00   1.98643208E+01   1.98643208E+01  -7.26776719E-02  -9.21237087E+00   2.90766926E+01  -3.52642417E+00   2.16247349E+01   9.81423184E-02   1.96935005E+01  -9.21237087E+00   1.83751583E+00
             1511                4   2.53878822E+01   1.95467548E+01   1.95467548E+01   2.44887441E-01  -9.21237087E+00   1.95467548E+01   1.95467548E+01   2.44887441E-01  -9.21237087E+00   2.87591267E+01  -3.52642417E+00   2.08322868E+01   3.99023294E-01   1.93926201E+01  -9.21237087E+00   1.71794868E+00
             1512                1   6.05825615E+01   5.74631538E+01   5.74631538E+01  -2.86226821E+00  -3.37331128E+00   5.74631538E+01   5.74631538E+01  -2.86226821E+00  -3.37331128E+00   6.08364677E+01  -1.70758591E+01   6.05777092E+01  -2.07104969E+00   5.66719360E+01  -3.37331128E+00   6.86328030E+00
             1512                2   6.08242264E+01   5.76248436E+01   5.76248436E+01  -3.02395487E+00  -3.37331128E+00   5.76248436E+01   5.76248436E+01  -3.02395487E+00  -3.37331128E+00   6.09981537E+01  -1.70758591E+01   6.08219681E+01  -2.27618146E+00   5.68770676E+01  -3.37331128E+00   6.69271708E+00
             1512                3   6.09010849E+01   5.76762199E+01   5.76762199E+01  -3.07533097E+00  -3.37331128E+00   5.76762199E+01   5.76762199E+01  -3.07533097E+00  -3.37331128E+00   6.10495300E+01  -1.70758591E+01   6.08994446E+01  -2.24138618E+00   5.68422737E+01  -3.37331128E+00   7.06880140E+00
             1512                4   6.11413460E+01   5.78366776E+01   5.78366776E+01  -3.23579073E+00  -3.37331128E+00   5.78366776E+01   5.78366776E+01  -3.23579073E+00  -3.37331128E+00   6.12099876E+01  -1.70758591E+01   6.11409950E+01  -2.44641805E+00   5.70473061E+01  -3.37331128E+00   6.89824533E+00
             1513                1   8.92401886E+01   8.38195496E+01   8.38195496E+01  -5.46860886E+00  -5.37258339E+00   8.38195496E+01   8.38195496E+01  -5.37258339E+00  -5.46860886E+00   8.92881622E+01  -2.43261204E+01   8.92400665E+01  -4.92878866E+00   8.32797318E+01  -5.37258339E+00   6.92157888E+00
             1513                2   8.89518738E+01   8.36273422E+01   8.36273422E+01  -5.27640724E+00  -5.37258339E+00   8.36273422E+01   8.36273422E+01  -5.27640724E+00  -5.37258339E+00   8.89999237E+01  -2.43261185E+01   8.89517593E+01  -4.71760273E+00   8.30685425E+01  -5.37258339E+00   7.02618694E+00
             1513                3   8.90381851E+01   8.36849060E+01   8.36849060E+01  -5.33396578E+00  -5.37258339E+00   8.36849060E+01   8.36849060E+01  -5.33396578E+00  -5.37258339E+00   8.90574875E+01  -2.43261185E+01   8.90381622E+01  -4.82535219E+00   8.31762924E+01  -5.37258339E+00   6.70948792E+00
             1513                4   8.87490921E+01   8.34920273E+01   8.34920273E+01  -5.14109230E+00  -5.37258339E+00   8.34920273E+01   8.34920273E+01  -5.14109230E+00  -5.37258339E+00   8.88646164E+01  -2.43261185E+01   8.87484131E+01  -4.61410952E+00   8.29650497E+01  -5.37258339E+00   6.81396580E+00
             1514                1   2.90172482E+01   3.84465752E+01   3.84465752E+01   7.91533995E+00   1.12275743E+01   3.84465752E+01   3.84465752E+01   1.12275743E+01   7.91533995E+00   3.05312366E+01  -1.91964970E+01   2.85873051E+01   1.17703571E+01   3.45915604E+01   1.12275743E+01   1.01408710E+01
             1514                2   2.87980900E+01   3.83076096E+01   3.83076096E+01   8.05431080E+00   1.12275743E+01   3.83076096E+01   3.83076096E+01   1.12275743E+01   8.05431080E+00   3.02532978E+01  -1.91964970E+01   2.84007587E+01   1.17683020E+01   3.45936165E+01   1.12275743E+01   9.92807961E+00
             1514                3   2.92738400E+01   3.86090088E+01   3.86090088E+01   7.75290537E+00   1.12275743E+01   3.86090088E+01   3.86090088E+01   1.12275743E+01   7.75290537E+00   3.08561058E+01  -1.91964970E+01   2.88044224E+01   1.15564089E+01   3.48055077E+01   1.12275743E+01   1.01436996E+01
             1514                4   2.90564842E+01   3.84714317E+01   3.84714317E+01   7.89048243E+00   1.12275743E+01   3.84714317E+01   3.84714317E+01   1.12275743E+01   7.89048243E+00   3.05809498E+01  -1.91964970E+01   2.86205959E+01   1.15543804E+01   3.48075371E+01   1.12275743E+01   9.93082619E+00
             1515                1   4.70079689E+01   5.03914185E+01   5.03914185E+01   3.32048702E+00   3.44666815E+00   5.03914185E+01   5.03914185E+01   3.44666815E+00   3.32048702E+00   4.70709305E+01  -1.90528584E+01   4.70075874E+01   3.33396888E+00   5.03779373E+01   3.44666815E+00   7.96511710E-01
             1515                2   4.69880104E+01   5.03781319E+01   5.03781319E+01   3.33377504E+00   3.44666815E+00   5.03781319E+01   5.03781319E+01   3.44666815E+00   3.33377504E+00   4.70443573E+01  -1.90528584E+01   4.69877090E+01   3.35634613E+00   5.03555603E+01   3.44666815E+00   1.03020751E+00
             1515                3   4.66557350E+01   5.01566200E+01   5.01566200E+01   3.55528712E+00   3.44666815E+00   5.01566200E+01   5.01566200E+01   3.55528712E+00   3.44666815E+00   4.67099495E+01  -1.90528584E+01   4.66554527E+01   3.56812763E+00   5.01437798E+01   3.44666815E+00   7.73420751E-01
             1515                4   4.66356392E+01   5.01432037E+01   5.01432037E+01   3.56869960E+00   3.44666815E+00   5.01432037E+01   5.01432037E+01   3.56869960E+00   3.44666815E+00   4.66965332E+01  -1.90528564E+01   4.66352806E+01   3.59049010E+00   5.01214142E+01   3.44666815E+00   1.00713706E+00
             1516                1   2.96349258E+01   3.92438126E+01   3.92438126E+01   8.84031391E+00   1.04424582E+01   3.92438126E+01   3.92438126E+01   1.04424582E+01   8.84031391E+00   3.04034977E+01  -1.95088615E+01   2.95372467E+01   1.12695227E+01   3.68146019E+01   1.04424582E+01   8.24350739E+00
             1516                2   2.95687199E+01   3.92007751E+01   3.92007751E+01   8.88334560E+00   1.04424582E+01   3.92007751E+01   3.92007751E+01   1.04424582E+01   8.88334560E+00   3.03174305E+01  -1.95088596E+01   2.94760246E+01   1.11914616E+01   3.68926620E+01   1.04424582E+01   8.04044342E+00
             1516                3   2.99647331E+01   3.94578094E+01   3.94578094E+01   8.62631035E+00   1.04424582E+01   3.94578094E+01   3.94578094E+01   1.04424582E+01   8.62631035E+00   3.08315010E+01  -1.95088596E+01   2.98405266E+01   1.10659266E+01   3.70181961E+01   1.04424582E+01   8.32257557E+00
             1516                4   2.98993797E+01   3.94154549E+01   3.94154549E+01   8.66866684E+00   1.04424582E+01   3.94154549E+01   3.94154549E+01   1.04424582E+01   8.66866684E+00   3.07467880E+01  -1.95088596E+01   2.97806568E+01   1.09877338E+01   3.70963898E+01   1.04424582E+01   8.11946774E+00
             1517                1   5.34338608E+01   5.31296806E+01   5.31296806E+01  -2.05829859E-01  -4.01991040E-01   5.31296806E+01   5.31296806E+01  -2.05829859E-01  -4.01991040E-01   5.35316734E+01  -1.75072861E+01   5.34330521E+01   3.12177867E-01   5.26116714E+01  -4.01991040E-01   5.23067522E+00
             1517                2   5.37646675E+01   5.33503952E+01   5.33503952E+01  -4.26543057E-01  -4.01991040E-01   5.33503952E+01   5.33503952E+01  -4.01991040E-01  -4.26543057E-01   5.37769356E+01  -1.75072861E+01   5.37646523E+01   1.15839325E-01   5.28080101E+01  -4.01991040E-01   5.37341309E+00
             1517                3   5.32827682E+01   5.30287170E+01   5.30287170E+01  -1.04867153E-01  -4.01991040E-01   5.30287170E+01   5.30287170E+01  -1.04867153E-01  -4.01991040E-01   5.34307098E+01  -1.75072861E+01   5.32809067E+01   4.55289871E-01   5.24685593E+01  -4.01991040E-01   5.42673683E+00
             1517                4   5.36146698E+01   5.32503738E+01   5.32503738E+01  -3.26523066E-01  -4.01991040E-01   5.32503738E+01   5.32503738E+01  -3.26523066E-01  -4.01991040E-01   5.36523666E+01  -1.75072861E+01   5.36145554E+01   2.58824527E-01   5.26650276E+01  -4.01991040E-01   5.56941795E+00
             1518                1   2.97234287E+01   2.44750385E+01   2.44750385E+01  -4.09861326E-01  -8.43784046E+00   2.44750385E+01   2.44750385E+01  -4.09861326E-01  -8.43784046E+00   3.29128799E+01  -5.20911264E+00   2.71189041E+01   3.54995579E-01   2.37101822E+01  -8.43784046E+00   4.29515839E+00
             1518                2   2.92756767E+01   2.41160049E+01   2.41160049E+01  -5.08285649E-02  -8.43784046E+00   2.41160049E+01   2.41160049E+01  -5.08285649E-02  -8.43784046E+00   3.25538445E+01  -5.20911169E+00   2.63627148E+01   6.98670268E-01   2.33665066E+01  -8.43784046E+00   4.18942070E+00
             1518                3   2.97083817E+01   2.44630547E+01   2.44630547E+01  -3.97876263E-01  -8.43784046E+00   2.44630547E+01   2.44630547E+01  -3.97876263E-01  -8.43784046E+00   3.29008942E+01  -5.20911264E+00   2.70939884E+01   2.47050524E-01   2.38181267E+01  -8.43784046E+00   3.95190668E+00
             1518                4   2.92604942E+01   2.41037388E+01   2.41037388E+01  -3.85611467E-02  -8.43784046E+00   2.41037388E+01   2.41037388E+01  -3.85611467E-02  -8.43784046E+00   3.25415802E+01  -5.20911264E+00   2.63365078E+01   5.90592444E-01   2.34745846E+01  -8.43784046E+00   3.84621906E+00
             1519                1   3.30729599E+01   4.33857193E+01   4.33857193E+01   1.03637638E+01   1.02619848E+01   4.33857193E+01   4.33857193E+01   1.03637638E+01   1.02619848E+01   3.31237335E+01  -2.13371563E+01   3.30726089E+01   1.04051466E+01   4.33443336E+01   1.02619848E+01   1.16827500E+00
             1519                2   3.34764786E+01   4.36545982E+01   4.36545982E+01   1.00948811E+01   1.02619848E+01   4.36545982E+01   4.36545982E+01   1.02619848E+01   1.00948811E+01   3.35597191E+01  -2.13371563E+01   3.34755402E+01   1.01379881E+01   4.36114922E+01   1.02619848E+01   1.20201135E+00
             1519                3   3.30616875E+01   4.33781891E+01   4.33781891E+01   1.03712921E+01   1.02619848E+01   4.33781891E+01   4.33781891E+01   1.03712921E+01   1.02619848E+01   3.31162033E+01  -2.13371563E+01   3.30612793E+01   1.04337215E+01   4.33157578E+01   1.02619848E+01   1.43414271E+00
             1519                4   3.34667625E+01   4.36481361E+01   4.36481361E+01   1.01013412E+01   1.02619848E+01   4.36481361E+01   4.36481361E+01   1.02619848E+01   1.01013412E+01   3.35467949E+01  -2.13371525E+01   3.34658966E+01   1.01656847E+01   4.35837936E+01   1.02619848E+01   1.46776593E+00
             1520                1   3.27688828E+01   3.13788338E+01   3.13788338E+01   4.64823134E-02  -2.65885735E+00   3.13788338E+01   3.13788338E+01   4.64823134E-02  -2.65885735E+00   3.40376892E+01  -9.58881950E+00   3.25162086E+01   3.46044958E-01   3.10792713E+01  -2.65885735E+00   3.04897547E+00
             1520                2   3.24368095E+01   3.11467552E+01   3.11467552E+01   2.78560817E-01  -2.65885735E+00   3.11467552E+01   3.11467552E+01   2.78560817E-01  -2.65885735E+00   3.38056107E+01  -9.58881950E+00   3.21355286E+01   5.64292789E-01   3.08610229E+01  -2.65885735E+00   2.95607686E+00
             1520                3   3.28437920E+01   3.14310360E+01   3.14310360E+01  -5.71980560E-03  -2.65885735E+00   3.14310360E+01   3.14310360E+01  -5.71980560E-03  -2.65885735E+00   3.40898933E+01  -9.58881950E+00   3.26013908E+01   2.51360714E-01   3.11739559E+01  -2.65885735E+00   2.83119464E+00
             1520                4   3.25122414E+01   3.11995697E+01   3.11995697E+01   2.25746125E-01  -2.65885735E+00   3.11995697E+01   3.11995697E+01   2.25746125E-01  -2.65885735E+00   3.38584290E+01  -9.58881950E+00   3.22224503E+01   4.69787389E-01   3.09555283E+01  -2.65885735E+00   2.73849249E+00
             1521                1   4.91916580E+01   5.15976944E+01   5.15976944E+01   2.34416127E+00   2.46814966E+00   5.15976944E+01   5.15976944E+01   2.46814966E+00   2.34416127E+00   4.92535324E+01  -1.88033352E+01   4.91913033E+01   2.35805511E+00   5.15838013E+01   2.46814966E+00   8.27118933E-01
             1521                2   4.91691132E+01   5.15826836E+01   5.15826836E+01   2.35917234E+00   2.46814966E+00   5.15826836E+01   5.15826836E+01   2.46814966E+00   2.35917234E+00   4.92235107E+01  -1.88033352E+01   4.91688385E+01   2.38185453E+00   5.15600014E+01   2.46814966E+00   1.05641127E+00
             1521                3   4.88450546E+01   5.13666458E+01   5.13666458E+01   2.57520652E+00   2.46814966E+00   5.13666458E+01   5.13666458E+01   2.57520652E+00   2.46814966E+00   4.88984947E+01  -1.88033352E+01   4.88447914E+01   2.58842993E+00   5.13534241E+01   2.46814966E+00   8.03087115E-01
             1521                4   4.88227386E+01   5.13517532E+01   5.13517532E+01   2.59010386E+00   2.46814966E+00   5.13517532E+01   5.13517532E+01   2.59010386E+00   2.46814966E+00   4.88836021E+01  -1.88033352E+01   4.88223953E+01   2.61197257E+00   5.13298836E+01   2.46814966E+00   1.03242075E+00
             1522                1   7.24717941E+01   6.67372665E+01   6.67372665E+01  -5.39413643E+00  -6.07018757E+00   6.67372665E+01   6.67372665E+01  -5.39413643E+00  -6.07018757E+00   7.28074570E+01  -1.84243145E+01   7.24646988E+01  -4.30129957E+00   6.56444321E+01  -6.07018757E+00   8.81098843E+00
             1522                2   7.28452072E+01   6.69871597E+01   6.69871597E+01  -5.64403248E+00  -6.07018757E+00   6.69871597E+01   6.69871597E+01  -5.64403248E+00  -6.07018757E+00   7.30573502E+01  -1.84243145E+01   7.28423996E+01  -4.59356928E+00   6.59366989E+01  -6.07018757E+00   8.67138672E+00
             1522                3   7.27790451E+01   6.69429169E+01   6.69429169E+01  -5.59978533E+00  -6.07018757E+00   6.69429169E+01   6.69429169E+01  -5.59978533E+00  -6.07018757E+00   7.30131073E+01  -1.84243145E+01   7.27756195E+01  -4.43849134E+00   6.57816238E+01  -6.07018757E+00   9.10465622E+00
             1522                4   7.31507797E+01   6.71913300E+01   6.71913300E+01  -5.84819937E+00  -6.07018757E+00   6.71913300E+01   6.71913300E+01  -5.84819937E+00  -6.07018757E+00   7.32615204E+01  -1.84243145E+01   7.31500168E+01  -4.73072243E+00   6.60738525E+01  -6.07018757E+00   8.96500778E+00
             1523                1   6.91067429E+01   6.30194206E+01   6.30194206E+01  -5.38493681E+00  -6.76891232E+00   6.30194206E+01   6.30194206E+01  -5.38493681E+00  -6.76891232E+00   6.97883301E+01  -1.69551907E+01   6.90755463E+01  -3.25452495E+00   6.08890076E+01  -6.76891232E+00   1.18823757E+01
             1523                2   6.96588211E+01   6.33907204E+01   6.33907204E+01  -5.75623894E+00  -6.76891232E+00   6.33907204E+01   6.33907204E+01  -5.75623894E+00  -6.76891232E+00   7.01596375E+01  -1.69551907E+01   6.96422577E+01  -3.68669152E+00   6.13211746E+01  -6.76891232E+00   1.17821856E+01
             1523                3   6.94647293E+01   6.32603035E+01   6.32603035E+01  -5.62582111E+00  -6.76891232E+00   6.32603035E+01   6.32603035E+01  -5.62582111E+00  -6.76891232E+00   7.00292130E+01  -1.69551907E+01   6.94435577E+01  -3.35232639E+00   6.09868088E+01  -6.76891232E+00   1.23062391E+01
             1523                4   7.00057297E+01   6.36235008E+01   6.36235008E+01  -5.98902035E+00  -6.76891232E+00   6.36235008E+01   6.36235008E+01  -5.98902035E+00  -6.76891232E+00   7.03924103E+01  -1.69551888E+01   6.99959564E+01  -3.78009272E+00   6.14145737E+01  -6.76891232E+00   1.22020369E+01
             1524                1   2.04175507E+02   1.67082062E+02   1.67082062E+02  -4.05189133E+01  -3.34862518E+01   1.67082062E+02   1.67082062E+02  -3.34862518E+01  -4.05189133E+01   2.07600983E+02  -3.10256348E+01   2.03902725E+02  -4.04758606E+01   1.67039017E+02  -3.34862518E+01  -2.98928833E+00
             1524                2   2.03487091E+02   1.66672943E+02   1.66672943E+02  -3.82768898E+01  -3.53191490E+01   1.66672943E+02   1.66672943E+02  -3.53191490E+01  -3.82768898E+01   2.04949844E+02  -3.10256348E+01   2.03438721E+02  -3.82743721E+01   1.66670425E+02  -3.53191490E+01  -7.19079792E-01
             1524                3   2.03700485E+02   1.66794739E+02   1.66794739E+02  -3.93805466E+01  -3.43372917E+01   1.66794739E+02   1.66794739E+02  -3.43372917E+01  -3.93805466E+01   2.06175278E+02  -3.10256348E+01   2.03559937E+02  -3.91389847E+01   1.66553177E+02  -3.43372917E+01  -7.05300474E+00
             1524                4   2.02980194E+02   1.66344910E+02   1.66344910E+02  -3.70497169E+01  -3.62182922E+01   1.66344910E+02   1.66344910E+02  -3.62182922E+01  -3.70497169E+01   2.03394623E+02  -3.10256348E+01   2.02976364E+02  -3.69350815E+01   1.66230286E+02  -3.62182922E+01  -4.82713270E+00
             1525                1   4.87195549E+01   5.12421417E+01   5.12421417E+01   2.58743882E+00   2.45799851E+00   5.12421417E+01   5.12421417E+01   2.58743882E+00   2.45799851E+00   4.87841454E+01  -1.87625275E+01   4.87191658E+01   2.64186716E+00   5.11877136E+01   2.45799851E+00   1.62643957E+00
             1525                2   4.87550354E+01   5.12658272E+01   5.12658272E+01   2.56375480E+00   2.45799851E+00   5.12658272E+01   5.12658272E+01   2.56375480E+00   2.45799851E+00   4.88078270E+01  -1.87625275E+01   4.87547760E+01   2.60393810E+00   5.12256432E+01   2.45799851E+00   1.39837110E+00
             1525                3   4.90669098E+01   5.14737473E+01   5.14737473E+01   2.35583282E+00   2.45799851E+00   5.14737473E+01   5.14737473E+01   2.45799851E+00   2.35583282E+00   4.91179123E+01  -1.87625256E+01   4.90666695E+01   2.41230512E+00   5.14172745E+01   2.45799851E+00   1.66449952E+00
             1525                4   4.91024475E+01   5.14974098E+01   5.14974098E+01   2.33217144E+00   2.45799851E+00   5.14974098E+01   5.14974098E+01   2.45799851E+00   2.33217144E+00   4.91652374E+01  -1.87625275E+01   4.91020813E+01   2.37417984E+00   5.14554024E+01   2.45799851E+00   1.43651891E+00
             1526                1   2.63212719E+01   3.83785858E+01   3.83785858E+01   1.11520109E+01   1.30672436E+01   3.83785858E+01   3.83785858E+01   1.30672436E+01   1.11520109E+01   2.72265759E+01  -2.08659458E+01   2.61638126E+01   1.35147085E+01   3.60158882E+01   1.30672436E+01   7.66458368E+00
             1526                2   2.62347145E+01   3.83227768E+01   3.83227768E+01   1.12078171E+01   1.30672436E+01   3.83227768E+01   3.83227768E+01   1.30672436E+01   1.12078171E+01   2.71149597E+01  -2.08659458E+01   2.60858383E+01   1.34432030E+01   3.60873909E+01   1.30672436E+01   7.45757675E+00
             1526                3   2.66511478E+01   3.85908699E+01   3.85908699E+01   1.09397287E+01   1.30672436E+01   3.85908699E+01   3.85908699E+01   1.30672436E+01   1.09397287E+01   2.76511402E+01  -2.08659458E+01   2.64590836E+01   1.33071127E+01   3.62234840E+01   1.30672436E+01   7.73669052E+00
             1526                4   2.65655823E+01   3.85358658E+01   3.85358658E+01   1.09947281E+01   1.30672436E+01   3.85358658E+01   3.85358658E+01   1.30672436E+01   1.09947281E+01   2.75411377E+01  -2.08659458E+01   2.63827744E+01   1.32355938E+01   3.62950020E+01   1.30672436E+01   7.52957392E+00
             1527                1   7.24980927E+01   6.62939301E+01   6.62939301E+01  -5.60625362E+00  -6.78763485E+00   6.62939301E+01   6.62939301E+01  -5.60625362E+00  -6.78763485E+00   7.30815659E+01  -1.79666805E+01   7.24764328E+01  -3.59960198E+00   6.42872772E+01  -6.78763485E+00   1.18428030E+01
             1527                2   7.30389404E+01   6.66570129E+01   6.66570129E+01  -5.96934223E+00  -6.78763485E+00   6.66570129E+01   6.66570129E+01  -5.96934223E+00  -6.78763485E+00   7.34446487E+01  -1.79666786E+01   7.30286255E+01  -4.02023077E+00   6.47079010E+01  -6.78763485E+00   1.17370272E+01
             1527                3   7.28456116E+01   6.65273361E+01   6.65273361E+01  -5.83966351E+00  -6.78763485E+00   6.65273361E+01   6.65273361E+01  -5.83966351E+00  -6.78763485E+00   7.33149719E+01  -1.79666786E+01   7.28317261E+01  -3.69838333E+00   6.43860550E+01  -6.78763485E+00   1.22626591E+01
             1527                4   7.33827820E+01   6.68873520E+01   6.68873520E+01  -6.19967985E+00  -6.78763485E+00   6.68873520E+01   6.68873520E+01  -6.19967985E+00  -6.78763485E+00   7.36749878E+01  -1.79666805E+01   7.33774796E+01  -4.11845493E+00   6.48061295E+01  -6.78763485E+00   1.21564436E+01
             1528                1   2.20000000E+02   2.09676880E+02   2.09676880E+02  -3.06651554E+01   1.82543049E+01   2.09676880E+02   2.09676880E+02   1.82543049E+01  -3.06651554E+01   2.40342026E+02  -6.57553406E+01   2.07225891E+02  -3.06598320E+01   2.09671555E+02   1.82543049E+01   1.13074970E+00
             1528                2   2.20000000E+02   2.09374924E+02   2.09374924E+02  -3.18109379E+01   1.97020454E+01   2.09374924E+02   2.09374924E+02   1.97020454E+01  -3.18109379E+01   2.41185852E+02  -6.57553406E+01   2.05763962E+02  -3.17826519E+01   2.09346634E+02   1.97020454E+01   2.61171126E+00
             1528                3   2.20000000E+02   2.09874161E+02   2.09874161E+02  -2.98764515E+01   1.72683125E+01   2.09874161E+02   2.09874161E+02   1.72683125E+01  -2.98764515E+01   2.39750610E+02  -6.57553406E+01   2.08174454E+02  -2.98253345E+01   2.09823044E+02   1.72683125E+01   3.50042343E+00
             1528                4   2.20000000E+02   2.09567886E+02   2.09567886E+02  -3.10867958E+01   1.87849274E+01   2.09567886E+02   2.09567886E+02   1.87849274E+01  -3.10867958E+01   2.40654678E+02  -6.57553406E+01   2.06699661E+02  -3.09863548E+01   2.09467453E+02   1.87849274E+01   4.91532421E+00
             1529                1   1.07873619E+02   1.13673897E+02   1.13673897E+02   5.75926590E+00   5.84133291E+00   1.13673897E+02   1.13673897E+02   5.84133291E+00   5.75926590E+00   1.07914627E+02  -4.17581635E+01   1.07873550E+02   6.03728819E+00   1.13395874E+02   5.84133291E+00   5.47037840E+00
             1529                2   1.07961838E+02   1.13732674E+02   1.13732674E+02   5.70048380E+00   5.84133291E+00   1.13732674E+02   1.13732674E+02   5.84133291E+00   5.70048380E+00   1.08032188E+02  -4.17581635E+01   1.07961632E+02   5.96979380E+00   1.13463364E+02   5.84133291E+00   5.38718796E+00
             1529                3   1.08006981E+02   1.13762749E+02   1.13762749E+02   5.67040873E+00   5.84133291E+00   1.13762749E+02   1.13762749E+02   5.84133291E+00   5.67040873E+00   1.08092339E+02  -4.17581635E+01   1.08006676E+02   5.95494938E+00   1.13478210E+02   5.84133291E+00   5.53855658E+00
             1529                4   1.08095245E+02   1.13821541E+02   1.13821541E+02   5.61162043E+00   5.84133291E+00   1.13821541E+02   1.13821541E+02   5.84133291E+00   5.61162043E+00   1.08209915E+02  -4.17581635E+01   1.08094696E+02   5.88732862E+00   1.13545830E+02   5.84133291E+00   5.45512438E+00
             1530                1   1.98675674E+02   1.85880661E+02   1.85880661E+02  -1.49744806E+01  -1.05413780E+01   1.85880661E+02   1.85880661E+02  -1.05413780E+01  -1.49744806E+01   2.00855133E+02  -5.34549294E+01   1.98564362E+02  -1.48728800E+01   1.85779053E+02  -1.05413780E+01   4.51628160E+00
             1530                2   1.97948349E+02   1.85407562E+02   1.85407562E+02  -1.41211557E+01  -1.09216185E+01   1.85407562E+02   1.85407562E+02  -1.09216185E+01  -1.41211557E+01   1.99528717E+02  -5.34549294E+01   1.97890152E+02  -1.39635992E+01   1.85250000E+02  -1.09216185E+01   5.60477686E+00
             1530                3   1.98247803E+02   1.85606323E+02   1.85606323E+02  -1.42748575E+01  -1.09666758E+01   1.85606323E+02   1.85606323E+02  -1.09666758E+01  -1.42748575E+01   1.99881180E+02  -5.34549294E+01   1.98185669E+02  -1.42233181E+01   1.85554779E+02  -1.09666758E+01   3.20939827E+00
             1530                4   1.97510681E+02   1.85123367E+02   1.85123367E+02  -1.34065418E+01  -1.13520412E+01   1.85123367E+02   1.85123367E+02  -1.13520412E+01  -1.34065418E+01   1.98529907E+02  -5.34549294E+01   1.97486618E+02  -1.33133879E+01   1.85030212E+02  -1.13520412E+01   4.29951286E+00
             1531                1   5.25461349E+01   5.21172600E+01   5.21172600E+01  -3.49363506E-01  -5.08031785E-01   5.21172600E+01   5.21172600E+01  -3.49363506E-01  -5.08031785E-01   5.26252899E+01  -1.70866222E+01   5.25455971E+01   4.97495353E-01   5.12704010E+01  -5.08031785E-01   6.61169958E+00
             1531                2   5.22150154E+01   5.18959427E+01   5.18959427E+01  -1.28043354E-01  -5.08031785E-01   5.18959427E+01   5.18959427E+01  -1.28043354E-01  -5.08031785E-01   5.24039726E+01  -1.70866222E+01   5.22119026E+01   6.82421207E-01   5.10854759E+01  -5.08031785E-01   6.44257832E+00
             1531                3   5.27226334E+01   5.22350349E+01   5.22350349E+01  -4.67136681E-01  -5.08031785E-01   5.22350349E+01   5.22350349E+01  -4.67136681E-01  -5.08031785E-01   5.27430687E+01  -1.70866222E+01   5.27225914E+01   3.28447759E-01   5.14394493E+01  -5.08031785E-01   6.42620802E+00
             1531                4   5.23934669E+01   5.20152740E+01   5.20152740E+01  -2.47376755E-01  -5.08031785E-01   5.20152740E+01   5.20152740E+01  -2.47376755E-01  -5.08031785E-01   5.25233078E+01  -1.70866222E+01   5.23920059E+01   5.12888193E-01   5.12550087E+01  -5.08031785E-01   6.25743914E+00
             1532                1   3.49979401E+01   3.38469696E+01   3.38469696E+01  -2.36671302E-03  -2.19633722E+00   3.38469696E+01   3.38469696E+01  -2.36671302E-03  -2.19633722E+00   3.60433083E+01  -1.05494223E+01   3.48427086E+01   6.71308815E-01   3.31732941E+01  -2.19633722E+00   4.72754526E+00
             1532                2   3.46970901E+01   3.36392136E+01   3.36392136E+01   2.05389291E-01  -2.19633722E+00   3.36392136E+01   3.36392136E+01   2.05389291E-01  -2.19633722E+00   3.58355522E+01  -1.05494223E+01   3.45093231E+01   8.68574739E-01   3.29760284E+01  -2.19633722E+00   4.66187239E+00
             1532                3   3.50147896E+01   3.38585854E+01   3.38585854E+01  -1.39808794E-02  -2.19633722E+00   3.38585854E+01   3.38585854E+01  -1.39808794E-02  -2.19633722E+00   3.60549240E+01  -1.05494223E+01   3.48612823E+01   6.03275359E-01   3.32413292E+01  -2.19633722E+00   4.53067827E+00
             1532                4   3.47138824E+01   3.36508331E+01   3.36508331E+01   1.93772331E-01  -2.19633722E+00   3.36508331E+01   3.36508331E+01   1.93772331E-01  -2.19633722E+00   3.58471680E+01  -1.05494223E+01   3.45280266E+01   8.00597966E-01   3.30440063E+01  -2.19633722E+00   4.46479225E+00
             1533                1   3.61041565E+01   3.56127243E+01   3.56127243E+01   1.64659217E-01  -1.11357832E+00   3.56127243E+01   3.56127243E+01   1.64659217E-01  -1.11357832E+00   3.67262993E+01  -1.15546007E+01   3.60531960E+01   1.07219470E+00   3.47051888E+01  -1.11357832E+00   5.59881258E+00
             1533                2   3.58632889E+01   3.54489594E+01   3.54489594E+01   3.28421474E-01  -1.11357832E+00   3.54489594E+01   3.54489594E+01   3.28421474E-01  -1.11357832E+00   3.65625381E+01  -1.15546007E+01   3.57979774E+01   1.23183990E+00   3.45455437E+01  -1.11357832E+00   5.55988503E+00
             1533                3   3.60885963E+01   3.56021576E+01   3.56021576E+01   1.75224215E-01  -1.11357832E+00   3.56021576E+01   3.56021576E+01   1.75224215E-01  -1.11357832E+00   3.67157364E+01  -1.15546007E+01   3.60367661E+01   1.03094959E+00   3.47464333E+01  -1.11357832E+00   5.43906498E+00
             1533                4   3.58474579E+01   3.54381828E+01   3.54381828E+01   3.39199692E-01  -1.11357832E+00   3.54381828E+01   3.54381828E+01   3.39199692E-01  -1.11357832E+00   3.65517616E+01  -1.15546007E+01   3.57811317E+01   1.19067574E+00   3.45867043E+01  -1.11357832E+00   5.40009212E+00
             1534                1   2.20000000E+02   1.92153931E+02   1.92153931E+02  -4.30084229E+01  -8.63781929E+00   1.92153931E+02   1.92153931E+02  -8.63781929E+00  -4.30084229E+01   2.35162354E+02  -4.68358955E+01   2.13834137E+02  -4.27570496E+01   1.91902557E+02  -8.63781929E+00   7.68440771E+00
             1534                2   2.20000000E+02   1.92604340E+02   1.92604340E+02  -4.00842209E+01  -1.20124235E+01   1.92604340E+02   1.92604340E+02  -1.20124235E+01  -4.00842209E+01   2.32688553E+02  -4.68358955E+01   2.15915527E+02  -4.00721664E+01   1.92592285E+02  -1.20124235E+01   1.67429268E+00
             1534                3   2.20000000E+02   1.91697098E+02   1.91697098E+02  -4.54632530E+01  -5.72615147E+00   1.91697098E+02   1.91697098E+02  -5.72615147E+00  -4.54632530E+01   2.37160355E+02  -4.68358955E+01   2.11698898E+02  -4.54618950E+01   1.91695740E+02  -5.72615147E+00   5.66891372E-01
             1534                4   2.20000000E+02   1.92151688E+02   1.92151688E+02  -4.30216141E+01  -8.62237263E+00   1.92151688E+02   1.92151688E+02  -8.62237263E+00  -4.30216141E+01   2.35173294E+02  -4.68358955E+01   2.13823669E+02  -4.28812218E+01   1.92011292E+02  -8.62237263E+00  -5.74424124E+00
             1535                1   2.15486938E+02   2.27293320E+02   2.27293320E+02  -2.50951409E+00   2.97625332E+01   2.27293320E+02   2.27293320E+02   2.97625332E+01  -2.50951409E+00   2.29802826E+02  -8.48487778E+01   2.09946655E+02  -2.50217247E+00   2.27285965E+02   2.97625332E+01  -1.29938638E+00
             1535                2   2.15951675E+02   2.27468781E+02   2.27468781E+02  -3.48159194E+00   3.05591373E+01   2.27468781E+02   2.27468781E+02   3.05591373E+01  -3.48159194E+00   2.30950363E+02  -8.48487778E+01   2.09787872E+02  -3.37585545E+00   2.27363037E+02   3.05591373E+01  -4.94053650E+00
             1535                3   2.16265869E+02   2.27583542E+02   2.27583542E+02  -4.13673306E+00   3.10995064E+01   2.27583542E+02   2.27583542E+02   3.10995064E+01  -4.13673306E+00   2.31720276E+02  -8.48487701E+01   2.09661392E+02  -4.13416433E+00   2.27580978E+02   3.10995064E+01   7.70552695E-01
             1535                4   2.16714157E+02   2.27744736E+02   2.27744736E+02  -5.05363655E+00   3.18552265E+01   2.27744736E+02   2.27744736E+02   3.18552265E+01  -5.05363655E+00   2.32798370E+02  -8.48487778E+01   2.09467194E+02  -5.01860762E+00   2.27709702E+02   3.18552265E+01  -2.85572362E+00
             1536                1   1.82380325E+02   1.72600098E+02   1.72600098E+02  -1.17870064E+01  -7.70489836E+00   1.72600098E+02   1.72600098E+02  -7.70489836E+00  -1.17870064E+01   1.84387115E+02  -5.10360680E+01   1.82277481E+02  -1.17869740E+01   1.72600067E+02  -7.70489836E+00   7.99944550E-02
             1536                2   1.80653015E+02   1.71469193E+02   1.71469193E+02  -9.81389713E+00  -8.54707909E+00   1.71469193E+02   1.71469193E+02  -8.54707909E+00  -9.81389713E+00   1.81283081E+02  -5.10360718E+01   1.80643005E+02  -9.80245018E+00   1.71457733E+02  -8.54707909E+00   1.44083202E+00
             1536                3   1.81594269E+02   1.72087723E+02   1.72087723E+02  -1.09152403E+01  -8.06429005E+00   1.72087723E+02   1.72087723E+02  -8.06429005E+00  -1.09152403E+01   1.83002960E+02  -5.10360680E+01   1.81543915E+02  -1.08740520E+01   1.72046539E+02  -8.06429005E+00  -2.74509740E+00
             1536                4   1.79813538E+02   1.70911758E+02   1.70911758E+02  -8.89082336E+00  -8.91273022E+00   1.70911758E+02   1.70911758E+02  -8.89082336E+00  -8.91273022E+00   1.79824493E+02  -5.10360680E+01   1.79813538E+02  -8.87987041E+00   1.70900803E+02  -8.91273022E+00  -1.40350366E+00
             1537                1   3.51393738E+01   3.45140266E+01   3.45140266E+01   1.41184345E-01  -1.34473300E+00   3.45140266E+01   3.45140266E+01   1.41184345E-01  -1.34473300E+00   3.58587608E+01  -1.11034927E+01   3.50685844E+01   8.34584653E-01   3.38206291E+01  -1.34473300E+00   4.83252430E+00
             1537                2   3.48749619E+01   3.43335533E+01   3.43335533E+01   3.21658313E-01  -1.34473300E+00   3.43335533E+01   3.43335533E+01   3.21658313E-01  -1.34473300E+00   3.56782875E+01  -1.11034927E+01   3.47852211E+01   1.00486779E+00   3.36503448E+01  -1.34473300E+00   4.77184105E+00
             1537                3   3.51586418E+01   3.45271568E+01   3.45271568E+01   1.28054157E-01  -1.34473300E+00   3.45271568E+01   3.45271568E+01   1.28054157E-01  -1.34473300E+00   3.58718910E+01  -1.11034927E+01   3.50891380E+01   7.71974027E-01   3.38832397E+01  -1.34473300E+00   4.66214418E+00
             1537                4   3.48941727E+01   3.43466835E+01   3.43466835E+01   3.08528543E-01  -1.34473300E+00   3.43466835E+01   3.43466835E+01   3.08528543E-01  -1.34473300E+00   3.56914177E+01  -1.11034927E+01   3.48058891E+01   9.42410290E-01   3.37128029E+01  -1.34473300E+00   4.60155773E+00
             1538                1   2.20000000E+02   2.00484467E+02   2.00484467E+02  -3.73063583E+01   4.18332148E+00   2.00484467E+02   2.00484467E+02   4.18332148E+00  -3.73063583E+01   2.37790817E+02  -5.57871399E+01   2.10926834E+02  -3.71610718E+01   2.00339172E+02   4.18332148E+00   5.87597036E+00
             1538                2   2.20000000E+02   2.00924683E+02   2.00924683E+02  -3.50751190E+01   1.51184797E+00   2.00924683E+02   2.00924683E+02   1.51184797E+00  -3.50751190E+01   2.35999802E+02  -5.57871361E+01   2.12993530E+02  -3.50533485E+01   2.00902908E+02   1.51184797E+00   2.26681828E+00
             1538                3   2.20000000E+02   2.00088470E+02   2.00088470E+02  -3.90830154E+01   6.35595655E+00   2.00088470E+02   2.00088470E+02   6.35595655E+00  -3.90830154E+01   2.39171494E+02  -5.57871399E+01   2.09047455E+02  -3.90826797E+01   2.00088135E+02   6.35595655E+00   2.85765886E-01
             1538                4   2.20000000E+02   2.00535690E+02   2.00535690E+02  -3.70621452E+01   3.88787246E+00   2.00535690E+02   2.00535690E+02   3.88787246E+00  -3.70621452E+01   2.37597839E+02  -5.57871399E+01   2.11168549E+02  -3.70138092E+01   2.00487350E+02   3.88787246E+00  -3.38854504E+00
             1539                1   3.11608067E+01   3.09292774E+01   3.09292774E+01  -8.40545669E-02  -3.76941770E-01   3.09292774E+01   3.09292774E+01  -8.40545669E-02  -3.76941770E-01   3.13062191E+01  -1.01560936E+01   3.11577110E+01  -6.84503093E-02   3.09136734E+01  -3.76941770E-01   6.95469141E-01
             1539                2   3.06787376E+01   3.06054859E+01   3.06054859E+01   2.39736289E-01  -3.76941770E-01   3.06054859E+01   3.06054859E+01   2.39736289E-01  -3.76941770E-01   3.09824276E+01  -1.01560936E+01   3.06647873E+01   2.50538081E-01   3.05946846E+01  -3.76941770E-01   5.72609544E-01
             1539                3   3.13282776E+01   3.10413513E+01   3.10413513E+01  -1.96127325E-01  -3.76941770E-01   3.10413513E+01   3.10413513E+01  -1.96127325E-01  -3.76941770E-01   3.14182930E+01  -1.01560946E+01   3.13271027E+01  -1.91597864E-01   3.10368214E+01  -3.76941770E-01   3.76159102E-01
             1539                4   3.08487206E+01   3.07198620E+01   3.07198620E+01   1.25360444E-01  -3.76941770E-01   3.07198620E+01   3.07198620E+01   1.25360444E-01  -3.76941770E-01   3.10968037E+01  -1.01560936E+01   3.08395176E+01   1.27458736E-01   3.07177639E+01  -3.76941770E-01   2.53351003E-01
             1540                1   2.18770721E+02   2.27440292E+02   2.27440292E+02  -7.38350248E+00   2.93812351E+01   2.27440292E+02   2.27440292E+02   2.93812351E+01  -7.38350248E+00   2.34823792E+02  -8.31460114E+01   2.11652603E+02  -7.36737061E+00   2.27424164E+02   2.93812351E+01  -1.94624352E+00
             1540                2   2.18944565E+02   2.27179306E+02   2.27179306E+02  -9.35753441E+00   3.16162453E+01   2.27179306E+02   2.27179306E+02   3.16162453E+01  -9.35753441E+00   2.36536850E+02  -8.31460037E+01   2.10057281E+02  -9.07899284E+00   2.26900772E+02   3.16162453E+01  -8.11216831E+00
             1540                3   2.19015030E+02   2.27149124E+02   2.27149124E+02  -9.74865818E+00   3.20375519E+01   2.27149124E+02   2.27149124E+02   3.20375519E+01  -9.74865818E+00   2.36897781E+02  -8.31460037E+01   2.09763412E+02  -9.71371460E+00   2.27114182E+02   3.20375519E+01   2.87695074E+00
             1540                4   2.19172607E+02   2.26874100E+02   2.26874100E+02  -1.14971428E+01   3.40610619E+01   2.26874100E+02   2.26874100E+02   3.40610619E+01  -1.14971428E+01   2.38371246E+02  -8.31460037E+01   2.08115433E+02  -1.14533653E+01   2.26830322E+02   3.40610619E+01  -3.22994757E+00
             1541                1   4.37585983E+01   4.81357689E+01   4.81357689E+01   4.41748381E+00   4.33696651E+00   4.81357689E+01   4.81357689E+01   4.41748381E+00   4.33696651E+00   4.37988014E+01  -1.89634075E+01   4.37584305E+01   4.69812298E+00   4.78551292E+01   4.33696651E+00   3.49146724E+00
             1541                2   4.41196442E+01   4.83763580E+01   4.83763580E+01   4.17689228E+00   4.33696651E+00   4.83763580E+01   4.83763580E+01   4.33696651E+00   4.17689228E+00   4.41994629E+01  -1.89634056E+01   4.41189919E+01   4.46693945E+00   4.80863113E+01   4.33696651E+00   3.56871676E+00
             1541                3   4.36953735E+01   4.80935707E+01   4.80935707E+01   4.45968342E+00   4.33696651E+00   4.80935707E+01   4.80935707E+01   4.45968342E+00   4.33696651E+00   4.37566032E+01  -1.89634075E+01   4.36949844E+01   4.77848721E+00   4.77747650E+01   4.33696651E+00   3.71605325E+00
             1541                4   4.40587311E+01   4.83358116E+01   4.83358116E+01   4.21744108E+00   4.33696651E+00   4.83358116E+01   4.83358116E+01   4.33696651E+00   4.21744108E+00   4.41183701E+01  -1.89634075E+01   4.40583649E+01   4.54592419E+00   4.80073280E+01   4.33696651E+00   3.79266000E+00
             1542                1   1.92873016E+02   1.89333755E+02   1.89333755E+02  -4.15694427E+00  -2.91555572E+00   1.89333755E+02   1.89333755E+02  -2.91555572E+00  -4.15694427E+00   1.93490707E+02  -6.07537537E+01   1.92864014E+02  -4.11600351E+00   1.89292816E+02  -2.91555572E+00   2.81445861E+00
             1542                2   1.92145905E+02   1.88850266E+02   1.88850266E+02  -3.67394090E+00  -2.91508007E+00   1.88850266E+02   1.88850266E+02  -2.91508007E+00  -3.67394090E+00   1.92524216E+02  -6.07537498E+01   1.92142532E+02  -3.62526584E+00   1.88801590E+02  -2.91508007E+00   3.06104422E+00
             1542                3   1.92461761E+02   1.89060364E+02   1.89060364E+02  -3.88393116E+00  -2.91519475E+00   1.89060364E+02   1.89060364E+02  -2.91519475E+00  -3.88393116E+00   1.92944305E+02  -6.07537498E+01   1.92456268E+02  -3.85682559E+00   1.89033264E+02  -2.91519475E+00   2.28668356E+00
             1542                4   1.91720673E+02   1.88567230E+02   1.88567230E+02  -3.39128423E+00  -2.91470957E+00   1.88567230E+02   1.88567230E+02  -2.91470957E+00  -3.39128423E+00   1.91958511E+02  -6.07537498E+01   1.91719330E+02  -3.35798311E+00   1.88533936E+02  -2.91470957E+00   2.52798390E+00
             1543                1   3.24488564E+01   3.06093578E+01   3.06093578E+01   6.10763486E-03  -3.41415381E+00   3.06093578E+01   3.06093578E+01   6.10763486E-03  -3.41415381E+00   3.40235100E+01  -9.06710339E+00   3.20395508E+01   3.10018420E-01   3.03054466E+01  -3.41415381E+00   3.03451800E+00
             1543                2   3.21046257E+01   3.03653755E+01   3.03653755E+01   2.50088781E-01  -3.41415381E+00   3.03653755E+01   3.03653755E+01   2.50088781E-01  -3.41415381E+00   3.37795296E+01  -9.06710339E+00   3.16290417E+01   5.40194273E-01   3.00752716E+01  -3.41415381E+00   2.94150090E+00
             1543                3   3.25181007E+01   3.06582794E+01   3.06582794E+01  -4.28133607E-02  -3.41415381E+00   3.06582794E+01   3.06582794E+01  -4.28133607E-02  -3.41415381E+00   3.40724335E+01  -9.06710339E+00   3.21213875E+01   2.15462446E-01   3.04000034E+01  -3.41415381E+00   2.80403662E+00
             1543                4   3.21745071E+01   3.04150143E+01   3.04150143E+01   2.00453565E-01  -3.41415381E+00   3.04150143E+01   3.04150143E+01   2.00453565E-01  -3.41415381E+00   3.38291664E+01  -9.06710434E+00   3.17128811E+01   4.45710361E-01   3.01697559E+01  -3.41415381E+00   2.71112490E+00
             1544                1   6.73770218E+01   6.12677917E+01   6.12677917E+01  -5.27873468E+00  -6.91009998E+00   6.12677917E+01   6.12677917E+01  -5.27873468E+00  -6.91009998E+00   6.81778870E+01  -1.63596516E+01   6.73325653E+01  -2.89855599E+00   5.88876114E+01  -6.91009998E+00   1.23582916E+01
             1544                2   6.79764481E+01   6.16717453E+01   6.16717453E+01  -5.68268919E+00  -6.91009998E+00   6.16717453E+01   6.16717453E+01  -5.68268919E+00  -6.91009998E+00   6.85818481E+01  -1.63596516E+01   6.79515076E+01  -3.37526107E+00   5.93643150E+01  -6.91009998E+00   1.22511797E+01
             1544                3   6.77514191E+01   6.15202484E+01   6.15202484E+01  -5.53119230E+00  -6.91009998E+00   6.15202484E+01   6.15202484E+01  -5.53119230E+00  -6.91009998E+00   6.84303513E+01  -1.63596516E+01   6.77198334E+01  -2.98699355E+00   5.89760475E+01  -6.91009998E+00   1.28109074E+01
             1544                4   6.83417130E+01   6.19172668E+01   6.19172668E+01  -5.92821074E+00  -6.91009998E+00   6.19172668E+01   6.19172668E+01  -5.92821074E+00  -6.91009998E+00   6.88273697E+01  -1.63596516E+01   6.83258362E+01  -3.46114874E+00   5.94502029E+01  -6.91009998E+00   1.27001057E+01
             1545                1   3.01268635E+01   3.87699699E+01   3.87699699E+01   7.39065790E+00   1.00752439E+01   3.87699699E+01   3.87699699E+01   1.00752439E+01   7.39065790E+00   3.13793144E+01  -1.87452908E+01   2.98559799E+01   1.07897663E+01   3.53708649E+01   1.00752439E+01   9.75231934E+00
             1545                2   2.99483204E+01   3.86556168E+01   3.86556168E+01   7.50501347E+00   1.00752439E+01   3.86556168E+01   3.86556168E+01   1.00752439E+01   7.50501347E+00   3.11506023E+01  -1.87452908E+01   2.96986618E+01   1.07692852E+01   3.53913460E+01   1.00752439E+01   9.54088783E+00
             1545                3   3.04079990E+01   3.89497261E+01   3.89497261E+01   7.21090460E+00   1.00752439E+01   3.89497261E+01   3.89497261E+01   1.00752439E+01   7.21090460E+00   3.17388210E+01  -1.87452908E+01   3.01022415E+01   1.05775204E+01   3.55831108E+01   1.00752439E+01   9.77334595E+00
             1545                4   3.02313671E+01   3.88368378E+01   3.88368378E+01   7.32379723E+00   1.00752439E+01   3.88368378E+01   3.88368378E+01   1.00752439E+01   7.32379723E+00   3.15130386E+01  -1.87452927E+01   2.99477253E+01   1.05570917E+01   3.56035423E+01   1.00752439E+01   9.56225491E+00
             1546                1   7.49350433E+01   6.96135101E+01   6.96135101E+01  -5.25059414E+00  -5.39227104E+00   6.96135101E+01   6.96135101E+01  -5.25059414E+00  -5.39227104E+00   7.50057831E+01  -1.96568813E+01   7.49347458E+01  -5.16794634E+00   6.95308609E+01  -5.39227104E+00   2.48607183E+00
             1546                2   7.50313721E+01   6.96777725E+01   6.96777725E+01  -5.31486654E+00  -5.39227104E+00   6.96777725E+01   6.96777725E+01  -5.31486654E+00  -5.39227104E+00   7.50700455E+01  -1.96568775E+01   7.50312881E+01  -5.24336672E+00   6.96062775E+01  -5.39227104E+00   2.31443620E+00
             1546                3   7.51992188E+01   6.97896881E+01   6.97896881E+01  -5.42677927E+00  -5.39227104E+00   6.97896881E+01   6.97896881E+01  -5.39227104E+00  -5.42677927E+00   7.52164688E+01  -1.96568775E+01   7.51992035E+01  -5.33942080E+00   6.97023315E+01  -5.39227104E+00   2.56181550E+00
             1546                4   7.52951431E+01   6.98536072E+01   6.98536072E+01  -5.49069500E+00  -5.39227104E+00   6.98536072E+01   6.98536072E+01  -5.39227104E+00  -5.49069500E+00   7.53443069E+01  -1.96568813E+01   7.52949982E+01  -5.41479826E+00   6.97777100E+01  -5.39227104E+00   2.39015985E+00
             1547                1   8.15833130E+01   7.57747040E+01   7.57747040E+01  -5.74191427E+00  -5.87513351E+00   7.57747040E+01   7.57747040E+01  -5.74191427E+00  -5.87513351E+00   8.16498413E+01  -2.13858852E+01   8.15830688E+01  -5.64673376E+00   7.56795273E+01  -5.87513351E+00   2.78380203E+00
             1547                2   8.16959229E+01   7.58498230E+01   7.58498230E+01  -5.81703234E+00  -5.87513351E+00   7.58498230E+01   7.58498230E+01  -5.81703234E+00  -5.87513351E+00   8.17249603E+01  -2.13858852E+01   8.16958771E+01  -5.73191214E+00   7.57647018E+01  -5.87513351E+00   2.63521600E+00
             1547                3   8.18142776E+01   7.59287338E+01   7.59287338E+01  -5.89594650E+00  -5.87513351E+00   7.59287338E+01   7.59287338E+01  -5.87513351E+00  -5.89594650E+00   8.18246841E+01  -2.13858852E+01   8.18142776E+01  -5.79520464E+00   7.58279953E+01  -5.87513351E+00   2.86933112E+00
             1547                4   8.19265442E+01   7.60035553E+01   7.60035553E+01  -5.97076273E+00  -5.87513351E+00   7.60035553E+01   7.60035553E+01  -5.87513351E+00  -5.97076273E+00   8.19743195E+01  -2.13858852E+01   8.19264221E+01  -5.88036633E+00   7.59131546E+01  -5.87513351E+00   2.72070384E+00
             1548                1   4.61684074E+01   4.94386253E+01   4.94386253E+01   3.22516203E+00   3.31540537E+00   4.94386253E+01   4.94386253E+01   3.31540537E+00   3.22516203E+00   4.62134628E+01  -1.86597309E+01   4.61682091E+01   3.55590725E+00   4.91078796E+01   3.31540537E+00   3.89557815E+00
             1548                2   4.58145218E+01   4.92026291E+01   4.92026291E+01   3.46115613E+00   3.31540537E+00   4.92026291E+01   4.92026291E+01   3.46115613E+00   3.31540537E+00   4.58872223E+01  -1.86597309E+01   4.58139992E+01   3.78065896E+00   4.88831253E+01   3.31540537E+00   3.80951881E+00
             1548                3   4.62433167E+01   4.94885025E+01   4.94885025E+01   3.17528343E+00   3.31540537E+00   4.94885025E+01   4.94885025E+01   3.31540537E+00   3.17528343E+00   4.63132172E+01  -1.86597309E+01   4.62428360E+01   3.46869063E+00   4.91950951E+01   3.31540537E+00   3.67457104E+00
             1548                4   4.58906708E+01   4.92534637E+01   4.92534637E+01   3.41032577E+00   3.31540537E+00   4.92534637E+01   4.92534637E+01   3.41032577E+00   3.31540537E+00   4.59380569E+01  -1.86597309E+01   4.58904457E+01   3.69291139E+00   4.89708748E+01   3.31540537E+00   3.58815217E+00
             1549                1   1.06944008E+02   1.11113052E+02   1.11113052E+02   4.15101242E+00   4.18709421E+00   1.11113052E+02   1.11113052E+02   4.18709421E+00   4.15101242E+00   1.06962044E+02  -3.98170547E+01   1.06943993E+02   4.16012192E+00   1.11103951E+02   4.18709421E+00   9.86846387E-01
             1549                2   1.06971008E+02   1.11131050E+02   1.11131050E+02   4.13301468E+00   4.18709421E+00   1.11131050E+02   1.11131050E+02   4.18709421E+00   4.13301468E+00   1.06998039E+02  -3.98170547E+01   1.06970978E+02   4.14327383E+00   1.11120796E+02   4.18709421E+00   1.04759037E+00
             1549                3   1.06853355E+02   1.11052620E+02   1.11052620E+02   4.21144724E+00   4.18709421E+00   1.11052620E+02   1.11052620E+02   4.21144724E+00   4.18709421E+00   1.06865524E+02  -3.98170547E+01   1.06853348E+02   4.22088051E+00   1.11043190E+02   4.18709421E+00   1.00377345E+00
             1549                4   1.06880394E+02   1.11070656E+02   1.11070656E+02   4.19342136E+00   4.18709421E+00   1.11070656E+02   1.11070656E+02   4.19342136E+00   4.18709421E+00   1.06883560E+02  -3.98170586E+01   1.06880394E+02   4.20402479E+00   1.11060051E+02   4.18709421E+00   1.06451631E+00
             1550                1   1.67408676E+02   1.66465363E+02   1.66465363E+02  -3.80185187E-01  -1.50081360E+00   1.66465363E+02   1.66465363E+02  -3.80185187E-01  -1.50081360E+00   1.67966171E+02  -5.48614540E+01   1.67400223E+02  -3.71976614E-01   1.66457153E+02  -1.50081360E+00   1.17010093E+00
             1550                2   1.67217621E+02   1.66336517E+02   1.66336517E+02  -1.28622651E-01  -1.62354040E+00   1.66336517E+02   1.66336517E+02  -1.28622651E-01  -1.62354040E+00   1.67960068E+02  -5.48614540E+01   1.67202576E+02  -1.19432159E-01   1.66327332E+02  -1.62354040E+00  -1.23696470E+00
             1550                3   1.68472153E+02   1.67173828E+02   1.67173828E+02  -1.93041301E+00  -6.59053683E-01   1.67173828E+02   1.67173828E+02  -6.59053683E-01  -1.93041301E+00   1.69104233E+02  -5.48614502E+01   1.68461365E+02  -1.92690301E+00   1.67170319E+02  -6.59053683E-01   7.69604921E-01
             1550                4   1.68288132E+02   1.67052307E+02   1.67052307E+02  -1.69089925E+00  -7.77045131E-01   1.67052307E+02   1.67052307E+02  -7.77045131E-01  -1.69089925E+00   1.68743210E+02  -5.48614540E+01   1.68282547E+02  -1.67543006E+00   1.67036835E+02  -7.77045131E-01  -1.61556017E+00
             1551                1   8.41235657E+01   7.82211227E+01   7.82211227E+01  -5.94996405E+00  -5.85483980E+00   7.82211227E+01   7.82211227E+01  -5.85483980E+00  -5.94996405E+00   8.41710815E+01  -2.21387711E+01   8.41234436E+01  -5.85438108E+00   7.81255341E+01  -5.85483980E+00   2.83486843E+00
             1551                2   8.40057373E+01   7.81425934E+01   7.81425934E+01  -5.87144566E+00  -5.85483980E+00   7.81425934E+01   7.81425934E+01  -5.85483980E+00  -5.87144566E+00   8.40140381E+01  -2.21387691E+01   8.40057373E+01  -5.76602793E+00   7.80371780E+01  -5.85483980E+00   2.97411394E+00
             1551                3   8.39064178E+01   7.80763702E+01   7.80763702E+01  -5.80522346E+00  -5.85483980E+00   7.80763702E+01   7.80763702E+01  -5.80522346E+00  -5.85483980E+00   8.39312134E+01  -2.21387691E+01   8.39063873E+01  -5.71522617E+00   7.79863739E+01  -5.85483980E+00   2.74610806E+00
             1551                4   8.37882462E+01   7.79975510E+01   7.79975510E+01  -5.72640610E+00  -5.85483980E+00   7.79975510E+01   7.79975510E+01  -5.72640610E+00  -5.85483980E+00   8.38523941E+01  -2.21387691E+01   8.37880325E+01  -5.62685013E+00   7.78980026E+01  -5.85483980E+00   2.88530469E+00
             1552                1   2.13699585E+02   2.12819901E+02   2.12819901E+02  -8.58326340E+00   7.76263666E+00   2.12819901E+02   2.12819901E+02   7.76263666E+00  -8.58326340E+00   2.21403152E+02  -7.06664200E+01   2.12286255E+02  -8.21537304E+00   2.12452011E+02   7.76263666E+00   9.01751995E+00
             1552                2   2.13112213E+02   2.12518738E+02   2.12518738E+02  -7.14303970E+00   6.62358236E+00   2.12518738E+02   2.12518738E+02   6.62358236E+00  -7.14303970E+00   2.19661774E+02  -7.06664276E+01   2.12108337E+02  -7.00207996E+00   2.12377777E+02   6.62358236E+00   5.56279039E+00
             1552                3   2.14090393E+02   2.12980621E+02   2.12980621E+02  -9.88400555E+00   8.90265083E+00   2.12980621E+02   2.12980621E+02   8.90265083E+00  -9.88400555E+00   2.22864624E+02  -7.06664200E+01   2.12224030E+02  -9.72571754E+00   2.12822342E+02   8.90265083E+00   5.93721914E+00
             1552                4   2.13721008E+02   2.12834900E+02   2.12834900E+02  -8.58177280E+00   7.74614382E+00   2.12834900E+02   2.12834900E+02   7.74614382E+00  -8.58177280E+00   2.21416672E+02  -7.06664200E+01   2.12310944E+02  -8.55602932E+00   2.12809158E+02   7.74614382E+00   2.38727641E+00
             1553                1   1.92487091E+02   1.79936386E+02   1.79936386E+02  -1.25860586E+01  -1.25153418E+01   1.79936386E+02   1.79936386E+02  -1.25153418E+01  -1.25860586E+01   1.92522446E+02  -5.16116638E+01   1.92487061E+02  -1.25777435E+01   1.79928070E+02  -1.25153418E+01   1.26519275E+00
             1553                2   1.92871292E+02   1.80191895E+02   1.80191895E+02  -1.30268650E+01  -1.23300457E+01   1.80191895E+02   1.80191895E+02  -1.23300457E+01  -1.30268650E+01   1.93218750E+02  -5.16116600E+01   1.92868454E+02  -1.30131178E+01   1.80178146E+02  -1.23300457E+01   1.62943125E+00
             1553                3   1.92191238E+02   1.79739059E+02   1.79739059E+02  -1.23112116E+01  -1.25928450E+01   1.79739059E+02   1.79739059E+02  -1.23112116E+01  -1.25928450E+01   1.92331894E+02  -5.16116638E+01   1.92190781E+02  -1.22926970E+01   1.79720535E+02  -1.25928450E+01   1.88569796E+00
             1553                4   1.92577682E+02   1.79996628E+02   1.79996628E+02  -1.27546425E+01  -1.24070024E+01   1.79996628E+02   1.79996628E+02  -1.24070024E+01  -1.27546425E+01   1.92751266E+02  -5.16116638E+01   1.92576981E+02  -1.27284069E+01   1.79970398E+02  -1.24070024E+01   2.24852085E+00
             1554                1   5.66040001E+01   5.56329536E+01   5.56329536E+01  -8.64165843E-01  -1.07732904E+00   5.56329536E+01   5.56329536E+01  -8.64165843E-01  -1.07732904E+00   5.67102814E+01  -1.78971539E+01   5.66030960E+01  -6.05025351E-01   5.53738136E+01  -1.07732904E+00   3.81752372E+00
             1554                2   5.67174606E+01   5.57087135E+01   5.57087135E+01  -9.39920664E-01  -1.07732904E+00   5.57087135E+01   5.57087135E+01  -9.39920664E-01  -1.07732904E+00   5.67860413E+01  -1.78971539E+01   5.67170868E+01  -7.08497703E-01   5.54772873E+01  -1.07732904E+00   3.61335421E+00
             1554                3   5.69285011E+01   5.58494873E+01   5.58494873E+01  -1.08070076E+00  -1.07732904E+00   5.58494873E+01   5.58494873E+01  -1.07732904E+00  -1.08070076E+00   5.69301872E+01  -1.78971539E+01   5.69285011E+01  -8.09339762E-01   5.55781288E+01  -1.07732904E+00   3.92108393E+00
             1554                4   5.70411606E+01   5.59245644E+01   5.59245644E+01  -1.15577769E+00  -1.07732904E+00   5.59245644E+01   5.59245644E+01  -1.07732904E+00  -1.15577769E+00   5.70803413E+01  -1.78971539E+01   5.70410347E+01  -9.12700236E-01   5.56814880E+01  -1.07732904E+00   3.71696568E+00
             1555                1   3.66564865E+01   3.69903641E+01   3.69903641E+01   6.35015249E-01   3.99825126E-02   3.69903641E+01   3.69903641E+01   6.35015249E-01   3.99825126E-02   3.69503784E+01  -1.25551195E+01   3.66456184E+01   1.77803850E+00   3.58473396E+01   3.99825126E-02   6.34416962E+00
             1555                2   3.68243713E+01   3.71031189E+01   3.71031189E+01   5.22257328E-01   3.99825126E-02   3.71031189E+01   3.71031189E+01   5.22257328E-01   3.99825126E-02   3.70631371E+01  -1.25551195E+01   3.68172607E+01   1.65984225E+00   3.59655342E+01   3.99825126E-02   6.34978580E+00
             1555                3   3.67107162E+01   3.70268059E+01   3.70268059E+01   5.98572671E-01   3.99825126E-02   3.70268059E+01   3.70268059E+01   5.98572671E-01   3.99825126E-02   3.69868240E+01  -1.25551195E+01   3.67011528E+01   1.78417301E+00   3.58412056E+01   3.99825126E-02   6.46402693E+00
             1555                4   3.68776550E+01   3.71388741E+01   3.71388741E+01   4.86505508E-01   3.99825126E-02   3.71388741E+01   3.71388741E+01   4.86505508E-01   3.99825126E-02   3.70988884E+01  -1.25551195E+01   3.68715744E+01   1.66629434E+00   3.59590836E+01   3.99825126E-02   6.46916866E+00
             1556                1   1.00557983E+02   9.91247406E+01   9.91247406E+01  -1.44777238E+00  -1.41869974E+00   9.91247406E+01   9.91247406E+01  -1.41869974E+00  -1.44777238E+00   1.00572517E+02  -3.20860901E+01   1.00557976E+02  -1.39991748E+00   9.90768890E+01  -1.41869974E+00   2.19330359E+00
             1556                2   1.00594330E+02   9.91489716E+01   9.91489716E+01  -1.47199941E+00  -1.41869974E+00   9.91489716E+01   9.91489716E+01  -1.41869974E+00  -1.47199941E+00   1.00620972E+02  -3.20860901E+01   1.00594299E+02  -1.42173624E+00   9.90987091E+01  -1.41869974E+00   2.24830246E+00
             1556                3   1.00477127E+02   9.90708389E+01   9.90708389E+01  -1.39386964E+00  -1.41869974E+00   9.90708389E+01   9.90708389E+01  -1.39386964E+00  -1.41869974E+00   1.00489540E+02  -3.20860901E+01   1.00477119E+02  -1.34500992E+00   9.90219803E+01  -1.41869974E+00   2.21503973E+00
             1556                4   1.00513466E+02   9.90950699E+01   9.90950699E+01  -1.41809833E+00  -1.41869974E+00   9.90950699E+01   9.90950699E+01  -1.41809833E+00  -1.41869974E+00   1.00513771E+02  -3.20860901E+01   1.00513474E+02  -1.36680496E+00   9.90437775E+01  -1.41869974E+00   2.27000570E+00
             1557                1   5.14141617E+01   5.28915291E+01   5.28915291E+01   1.41948140E+00   1.53545237E+00   5.28915291E+01   5.28915291E+01   1.53545237E+00   1.41948140E+00   5.14720497E+01  -1.86154881E+01   5.14138680E+01   1.42387724E+00   5.28871346E+01   1.53545237E+00   4.75674897E-01
             1557                2   5.10741959E+01   5.26648941E+01   5.26648941E+01   1.64611983E+00   1.53545237E+00   5.26648941E+01   5.26648941E+01   1.64611983E+00   1.53545237E+00   5.11294403E+01  -1.86154881E+01   5.10739250E+01   1.65034723E+00   5.26606636E+01   1.53545237E+00   4.64468747E-01
             1557                3   5.14260292E+01   5.28994331E+01   5.28994331E+01   1.41157842E+00   1.53545237E+00   5.28994331E+01   5.28994331E+01   1.53545237E+00   1.41157842E+00   5.14878540E+01  -1.86154881E+01   5.14256935E+01   1.41278946E+00   5.28982239E+01   1.53545237E+00   2.49597490E-01
             1557                4   5.10857887E+01   5.26726303E+01   5.26726303E+01   1.63838291E+00   1.53545237E+00   5.26726303E+01   5.26726303E+01   1.63838291E+00   1.53545237E+00   5.11371765E+01  -1.86154881E+01   5.10855560E+01   1.63949525E+00   5.26715164E+01   1.53545237E+00   2.38322020E-01
             1558                1   5.66772461E+01   5.55362053E+01   5.55362053E+01  -1.16938782E+00  -1.11265361E+00   5.55362053E+01   5.55362053E+01  -1.11265361E+00  -1.16938782E+00   5.67055931E+01  -1.77513885E+01   5.66771812E+01  -8.31975520E-01   5.51987915E+01  -1.11265361E+00   4.36112356E+00
             1558                2   5.65459900E+01   5.54487114E+01   5.54487114E+01  -1.08189285E+00  -1.11265361E+00   5.54487114E+01   5.54487114E+01  -1.08189285E+00  -1.11265361E+00   5.65613632E+01  -1.77513885E+01   5.65459671E+01  -7.11373329E-01   5.50781898E+01  -1.11265361E+00   4.56162882E+00
             1558                3   5.63524628E+01   5.53195839E+01   5.53195839E+01  -9.52766240E-01  -1.11265361E+00   5.53195839E+01   5.53195839E+01  -9.52766240E-01  -1.11265361E+00   5.64322357E+01  -1.77513885E+01   5.63519516E+01  -6.31401360E-01   5.49982185E+01  -1.11265361E+00   4.24036551E+00
             1558                4   5.62202644E+01   5.52312889E+01   5.52312889E+01  -8.64476919E-01  -1.11265361E+00   5.52312889E+01   5.52312889E+01  -8.64476919E-01  -1.11265361E+00   5.63439445E+01  -1.77513866E+01   5.62190323E+01  -5.10668755E-01   5.48774834E+01  -1.11265361E+00   4.44093561E+00
             1559                1   3.53125191E+01   3.68623810E+01   3.68623810E+01   7.48183489E-01   2.41023827E+00   3.68623810E+01   3.68623810E+01   2.41023827E+00   7.48183489E-01   3.61141968E+01  -1.33402681E+01   3.52243500E+01   1.53845477E+00   3.60721092E+01   2.41023827E+00   5.28351450E+00
             1559                2   3.53914299E+01   3.69138069E+01   3.69138069E+01   6.96757853E-01   2.41023827E+00   3.69138069E+01   3.69138069E+01   2.41023827E+00   6.96757853E-01   3.62170486E+01  -1.33402681E+01   3.52979240E+01   1.49893332E+00   3.61116333E+01   2.41023827E+00   5.32999945E+00
             1559                3   3.52611237E+01   3.68288727E+01   3.68288727E+01   7.81693161E-01   2.41023827E+00   3.68288727E+01   3.68288727E+01   2.41023827E+00   7.81693161E-01   3.60471802E+01  -1.33402681E+01   3.51763573E+01   1.58573687E+00   3.60248299E+01   2.41023827E+00   5.32324791E+00
             1559                4   3.53401527E+01   3.68803940E+01   3.68803940E+01   7.30173051E-01   2.41023827E+00   3.68803940E+01   3.68803940E+01   2.41023827E+00   7.30173051E-01   3.61502190E+01  -1.33402681E+01   3.52501297E+01   1.54618299E+00   3.60643806E+01   2.41023827E+00   5.36964798E+00
             1560                1   2.60906887E+01   3.90588188E+01   3.90588188E+01   1.24158964E+01   1.35578680E+01   3.90588188E+01   3.90588188E+01   1.35578680E+01   1.24158964E+01   2.66429234E+01  -2.16775284E+01   2.60343685E+01   1.39143906E+01   3.75603256E+01   1.35578680E+01   6.13830423E+00
             1560                2   2.60220718E+01   3.90140076E+01   3.90140076E+01   1.24607086E+01   1.35578680E+01   3.90140076E+01   3.90140076E+01   1.35578680E+01   1.24607086E+01   2.65532990E+01  -2.16775284E+01   2.59699535E+01   1.38448172E+01   3.76298981E+01   1.35578680E+01   5.90227938E+00
             1560                3   2.64638405E+01   3.93019562E+01   3.93019562E+01   1.21727619E+01   1.35578680E+01   3.93019562E+01   3.93019562E+01   1.35578680E+01   1.21727619E+01   2.71291924E+01  -2.16775284E+01   2.63821011E+01   1.36770611E+01   3.77976570E+01   1.35578680E+01   6.20866251E+00
             1560                4   2.63959885E+01   3.92578163E+01   3.92578163E+01   1.22169008E+01   1.35578680E+01   3.92578163E+01   3.92578163E+01   1.35578680E+01   1.22169008E+01   2.70409145E+01  -2.16775284E+01   2.63191872E+01   1.36074181E+01   3.78672981E+01   1.35578680E+01   5.97221136E+00
             1561                1   2.14223526E+02   2.06605347E+02   2.06605347E+02  -1.76174774E+01   4.02399349E+00   2.06605347E+02   2.06605347E+02   4.02399349E+00  -1.76174774E+01   2.24222824E+02  -6.43372879E+01   2.11743210E+02  -1.75032101E+01   2.06491074E+02   4.02399349E+00  -5.06059456E+00
             1561                2   2.13603394E+02   2.06258560E+02   2.06258560E+02  -1.67509289E+01   3.50421190E+00   2.06258560E+02   2.06258560E+02   3.50421190E+00  -1.67509289E+01   2.23009491E+02  -6.43372803E+01   2.11426575E+02  -1.66340408E+01   2.06141678E+02   3.50421190E+00  -5.10410595E+00
             1561                3   2.14128708E+02   2.06506882E+02   2.06506882E+02  -1.79079475E+01   4.41291285E+00   2.06506882E+02   2.06506882E+02   4.41291285E+00  -1.79079475E+01   2.24414825E+02  -6.43372879E+01   2.11487595E+02  -1.77358074E+01   2.06334747E+02   4.41291285E+00  -6.21294260E+00
             1561                4   2.13523300E+02   2.06167099E+02   2.06167099E+02  -1.70955086E+01   3.94025850E+00   2.06167099E+02   2.06167099E+02   3.94025850E+00  -1.70955086E+01   2.23262604E+02  -6.43372879E+01   2.11173157E+02  -1.69143066E+01   2.05985901E+02   3.94025850E+00  -6.35788584E+00
             1562                1   6.36245613E+01   5.93703003E+01   5.93703003E+01  -3.90503287E+00  -4.59783125E+00   5.93703003E+01   5.93703003E+01  -3.90503287E+00  -4.59783125E+00   6.39681320E+01  -1.69558125E+01   6.36160736E+01  -2.86690807E+00   5.83321762E+01  -4.59783125E+00   8.03803062E+00
             1562                2   6.39338303E+01   5.95774460E+01   5.95774460E+01  -4.11217737E+00  -4.59783125E+00   5.95774460E+01   5.95774460E+01  -4.11217737E+00  -4.59783125E+00   6.41752777E+01  -1.69558125E+01   6.39296837E+01  -3.12063813E+00   5.85859070E+01  -4.59783125E+00   7.88463688E+00
             1562                3   6.39417152E+01   5.95827217E+01   5.95827217E+01  -4.11745262E+00  -4.59783125E+00   5.95827217E+01   5.95827217E+01  -4.11745262E+00  -4.59783125E+00   6.41805496E+01  -1.69558125E+01   6.39376564E+01  -3.01897025E+00   5.84842377E+01  -4.59783125E+00   8.29257774E+00
             1562                4   6.42493973E+01   5.97884483E+01   5.97884483E+01  -4.32318211E+00  -4.59783125E+00   5.97884483E+01   5.97884483E+01  -4.32318211E+00  -4.59783125E+00   6.43862839E+01  -1.69558125E+01   6.42480774E+01  -3.27268863E+00   5.87379570E+01  -4.59783125E+00   8.13911724E+00
             1563                1   3.17432556E+01   3.19665794E+01   3.19665794E+01  -9.58035067E-02   5.52378237E-01   3.19665794E+01   3.19665794E+01   5.52378237E-01  -9.58035067E-02   3.20623817E+01  -1.08077173E+01   3.17283630E+01  -7.63865709E-02   3.19471626E+01   5.52378237E-01   7.88783848E-01
             1563                2   3.12085114E+01   3.16126976E+01   3.16126976E+01   2.58076727E-01   5.52378237E-01   3.16126976E+01   3.16126976E+01   5.52378237E-01   2.58076727E-01   3.13546219E+01  -1.08077173E+01   3.12053890E+01   2.71633208E-01   3.15991421E+01   5.52378237E-01   6.51822746E-01
             1563                3   3.19314232E+01   3.20906639E+01   3.20906639E+01  -2.19886407E-01   5.52378237E-01   3.20906639E+01   3.20906639E+01   5.52378237E-01  -2.19886407E-01   3.23105507E+01  -1.08077192E+01   3.19103985E+01  -2.13886708E-01   3.20846634E+01   5.52378237E-01   4.40263391E-01
             1563                4   3.13997726E+01   3.17394886E+01   3.17394886E+01   1.31287038E-01   5.52378237E-01   3.17394886E+01   3.17394886E+01   5.52378237E-01   1.31287038E-01   3.16082020E+01  -1.08077173E+01   3.13934193E+01   1.34195313E-01   3.17365799E+01   5.52378237E-01   3.03178787E-01
             1564                1   8.50976257E+01   7.93643951E+01   7.93643951E+01  -5.62847233E+00  -5.83760643E+00   7.93643951E+01   7.93643951E+01  -5.62847233E+00  -5.83760643E+00   8.52020035E+01  -2.26327724E+01   8.50970535E+01  -5.30381727E+00   7.90397415E+01  -5.83760643E+00   5.24289322E+00
             1564                2   8.53172836E+01   7.95109558E+01   7.95109558E+01  -5.77502871E+00  -5.83760643E+00   7.95109558E+01   7.95109558E+01  -5.77502871E+00  -5.83760643E+00   8.53485565E+01  -2.26327724E+01   8.53172379E+01  -5.46707726E+00   7.92030029E+01  -5.83760643E+00   5.11555958E+00
             1564                3   8.53171158E+01   7.95108414E+01   7.95108414E+01  -5.77490664E+00  -5.83760643E+00   7.95108414E+01   7.95108414E+01  -5.77490664E+00  -5.83760643E+00   8.53484421E+01  -2.26327744E+01   8.53170624E+01  -5.43071842E+00   7.91666489E+01  -5.83760643E+00   5.40703058E+00
             1564                4   8.55362473E+01   7.96569138E+01   7.96569138E+01  -5.92098618E+00  -5.83760643E+00   7.96569138E+01   7.96569138E+01  -5.83760643E+00  -5.92098618E+00   8.55779037E+01  -2.26327744E+01   8.55361557E+01  -5.59401178E+00   7.93299408E+01  -5.83760643E+00   5.27968407E+00
             1565                1   5.52808304E+01   5.51192627E+01   5.51192627E+01  -1.10476501E-01  -2.12520987E-01   5.51192627E+01   5.51192627E+01  -1.10476501E-01  -2.12520987E-01   5.53317833E+01  -1.82654209E+01   5.52806168E+01  -6.60557374E-02   5.50748405E+01  -2.12520987E-01   1.56569421E+00
             1565                2   5.56081886E+01   5.53374863E+01   5.53374863E+01  -3.28701437E-01  -2.12520987E-01   5.53374863E+01   5.53374863E+01  -2.12520987E-01  -3.28701437E-01   5.56661873E+01  -1.82654209E+01   5.56079140E+01  -2.82005817E-01   5.52907906E+01  -2.12520987E-01   1.61158752E+00
             1565                3   5.52320480E+01   5.50867043E+01   5.50867043E+01  -7.79162124E-02  -2.12520987E-01   5.50867043E+01   5.50867043E+01  -7.79162124E-02  -2.12520987E-01   5.52992249E+01  -1.82654228E+01   5.52316780E+01  -2.03293432E-02   5.50291176E+01  -2.12520987E-01   1.78142834E+00
             1565                4   5.55598984E+01   5.53053207E+01   5.53053207E+01  -2.96536684E-01  -2.12520987E-01   5.53053207E+01   5.53053207E+01  -2.12520987E-01  -2.96536684E-01   5.56018600E+01  -1.82654209E+01   5.55597534E+01  -2.36419737E-01   5.52452049E+01  -2.12520987E-01   1.82729399E+00
             1566                1   4.88864784E+01   5.14134178E+01   5.14134178E+01   2.58309174E+00   2.47097754E+00   5.14134178E+01   5.14134178E+01   2.58309174E+00   2.47097754E+00   4.89424400E+01  -1.88224964E+01   4.88861885E+01   2.58727574E+00   5.14092331E+01   2.47097754E+00   4.52017903E-01
             1566                2   4.88976479E+01   5.14208717E+01   5.14208717E+01   2.57563758E+00   2.47097754E+00   5.14208717E+01   5.14208717E+01   2.57563758E+00   2.47097754E+00   4.89498940E+01  -1.88224964E+01   4.88973961E+01   2.57664657E+00   5.14198647E+01   2.47097754E+00   2.21820667E-01
             1566                3   4.92325401E+01   5.16441193E+01   5.16441193E+01   2.35239029E+00   2.47097754E+00   5.16441193E+01   5.16441193E+01   2.47097754E+00   2.35239029E+00   4.92917290E+01  -1.88224964E+01   4.92322197E+01   2.35674453E+00   5.16397667E+01   2.47097754E+00   4.63165790E-01
             1566                4   4.92436562E+01   5.16515198E+01   5.16515198E+01   2.34499121E+00   2.47097754E+00   5.16515198E+01   5.16515198E+01   2.47097754E+00   2.34499121E+00   4.93065262E+01  -1.88224964E+01   4.92432938E+01   2.34609222E+00   5.16504173E+01   2.47097754E+00   2.33002350E-01
             1567                1   3.05690403E+01   3.94606476E+01   3.94606476E+01   6.96127081E+00   1.12816181E+01   3.94606476E+01   3.94606476E+01   1.12816181E+01   6.96127081E+00   3.24993744E+01  -1.92345123E+01   2.98705788E+01   1.13667364E+01   3.50551796E+01   1.12816181E+01   1.11250515E+01
             1567                2   3.01644154E+01   3.92066116E+01   3.92066116E+01   7.21530199E+00   1.12816181E+01   3.92066116E+01   3.92066116E+01   1.12816181E+01   7.21530199E+00   3.19913101E+01  -1.92345104E+01   2.95383472E+01   1.14588861E+01   3.49630280E+01   1.12816181E+01   1.08512573E+01
             1567                3   3.07959309E+01   3.96028290E+01   3.96028290E+01   6.81908846E+00   1.12816181E+01   3.96028290E+01   3.96028290E+01   1.12816181E+01   6.81908846E+00   3.27837410E+01  -1.92345123E+01   3.00555840E+01   1.10889120E+01   3.53330040E+01   1.12816181E+01   1.10340118E+01
             1567                4   3.03934460E+01   3.93504791E+01   3.93504791E+01   7.07143497E+00   1.12816181E+01   3.93504791E+01   3.93504791E+01   1.12816181E+01   7.07143497E+00   3.22790413E+01  -1.92345104E+01   2.97267761E+01   1.11811428E+01   3.52407722E+01   1.12816181E+01   1.07595406E+01
             1568                1   3.06790066E+01   3.00158958E+01   3.00158958E+01  -7.13281706E-02  -1.22248852E+00   3.00158958E+01   3.00158958E+01  -7.13281706E-02  -1.22248852E+00   3.12383842E+01  -9.57402611E+00   3.06303558E+01  -5.81765696E-02   3.00027428E+01  -1.22248852E+00   6.28918111E-01
             1568                2   3.02412872E+01   2.97175064E+01   2.97175064E+01   2.27060959E-01  -1.22248852E+00   2.97175064E+01   2.97175064E+01   2.27060959E-01  -1.22248852E+00   3.09399948E+01  -9.57402611E+00   3.01629734E+01   2.36151844E-01   2.97084141E+01  -1.22248852E+00   5.17721415E-01
             1568                3   3.08293686E+01   3.01180134E+01   3.01180134E+01  -1.73446089E-01  -1.22248852E+00   3.01180134E+01   3.01180134E+01  -1.73446089E-01  -1.22248852E+00   3.13405018E+01  -9.57402611E+00   3.07891731E+01  -1.69756636E-01   3.01143227E+01  -1.22248852E+00   3.34314704E-01
             1568                4   3.03938789E+01   2.98217201E+01   2.98217201E+01   1.22847028E-01  -1.22248852E+00   2.98217201E+01   2.98217201E+01   1.22847028E-01  -1.22248852E+00   3.10442085E+01  -9.57402611E+00   3.03267803E+01   1.24520816E-01   2.98200455E+01  -1.22248852E+00   2.22979695E-01
             1569                1   2.14045822E+02   2.12723206E+02   2.12723206E+02  -9.90571499E+00   8.44162083E+00   2.12723206E+02   2.12723206E+02   8.44162083E+00  -9.90571499E+00   2.22628922E+02  -7.04197006E+01   2.12265869E+02  -9.88416672E+00   2.12701660E+02   8.44162083E+00   2.18998933E+00
             1569                2   2.14405548E+02   2.12844040E+02   2.12844040E+02  -1.12676935E+01   9.68278503E+00   2.12844040E+02   2.12844040E+02   9.68278503E+00  -1.12676935E+01   2.24111725E+02  -7.04197083E+01   2.12084335E+02  -1.11118355E+01   2.12688171E+02   9.68278503E+00   5.90814638E+00
             1569                3   2.13594620E+02   2.12537720E+02   2.12537720E+02  -8.34677029E+00   7.06816387E+00   2.12537720E+02   2.12537720E+02   7.06816387E+00  -8.34677029E+00   2.20884491E+02  -7.04197006E+01   2.12337723E+02  -8.19841480E+00   2.12389359E+02   7.06816387E+00   5.72263479E+00
             1569                4   2.13974274E+02   2.12684860E+02   2.12684860E+02  -9.77551746E+00   8.34976482E+00   2.12684860E+02   2.12684860E+02   8.34976482E+00  -9.77551746E+00   2.22460388E+02  -7.04197006E+01   2.12236816E+02  -9.38212681E+00   2.12291473E+02   8.34976482E+00   9.34661865E+00
             1570                1   2.61921215E+01   3.87145500E+01   3.87145500E+01   1.17968731E+01   1.33139257E+01   3.87145500E+01   3.87145500E+01   1.33139257E+01   1.17968731E+01   2.69176750E+01  -2.12751160E+01   2.60929966E+01   1.37183609E+01   3.67930603E+01   1.33139257E+01   6.93035936E+00
             1570                2   2.61149731E+01   3.86644859E+01   3.86644859E+01   1.18469372E+01   1.33139257E+01   3.86644859E+01   3.86644859E+01   1.33139257E+01   1.18469372E+01   2.68175468E+01  -2.12751160E+01   2.60220261E+01   1.36459961E+01   3.68654251E+01   1.33139257E+01   6.70892954E+00
             1570                3   2.65439358E+01   3.89423752E+01   3.89423752E+01   1.15690489E+01   1.33139257E+01   3.89423752E+01   3.89423752E+01   1.33139257E+01   1.15690489E+01   2.73733273E+01  -2.12751179E+01   2.64144402E+01   1.34965010E+01   3.70149231E+01   1.33139257E+01   7.00326538E+00
             1570                4   2.64678917E+01   3.88931961E+01   3.88931961E+01   1.16182241E+01   1.33139257E+01   3.88931961E+01   3.88931961E+01   1.33139257E+01   1.16182241E+01   2.72749729E+01  -2.12751160E+01   2.63452644E+01   1.34240427E+01   3.70873795E+01   1.33139257E+01   6.78178835E+00
             1571                1   4.56545601E+01   4.50438080E+01   4.50438080E+01  -1.44988567E-01  -1.06268251E+00   4.50438080E+01   4.50438080E+01  -1.44988567E-01  -1.06268251E+00   4.61064911E+01  -1.46120453E+01   4.56338005E+01   1.60295784E+00   4.32958603E+01  -1.06268251E+00   8.71391487E+00
             1571                2   4.58894958E+01   4.52019005E+01   4.52019005E+01  -3.03083450E-01  -1.06268251E+00   4.52019005E+01   4.52019005E+01  -3.03083450E-01  -1.06268251E+00   4.62645798E+01  -1.46120443E+01   4.58753510E+01   1.38903213E+00   4.35097847E+01  -1.06268251E+00   8.61024761E+00
             1571                3   4.59334373E+01   4.52314339E+01   4.52314339E+01  -3.32619667E-01  -1.06268251E+00   4.52314339E+01   4.52314339E+01  -3.32619667E-01  -1.06268251E+00   4.62941170E+01  -1.46120443E+01   4.59203835E+01   1.49151349E+00   4.34073029E+01  -1.06268251E+00   8.93237877E+00
             1571                4   4.61740685E+01   4.53930092E+01   4.53930092E+01  -4.94189143E-01  -1.06268251E+00   4.53930092E+01   4.53930092E+01  -4.94189143E-01  -1.06268251E+00   4.64556923E+01  -1.46120453E+01   4.61661949E+01   1.27586579E+00   4.36229515E+01  -1.06268251E+00   8.83684540E+00
             1572                1   3.56168098E+01   3.31591225E+01   3.31591225E+01  -2.47305229E-01  -4.31824112E+00   3.31591225E+01   3.31591225E+01  -2.47305229E-01  -4.31824112E+00   3.74773636E+01  -9.53119183E+00   3.50876694E+01   6.16199076E-01   3.22956161E+01  -4.31824112E+00   5.30103445E+00
             1572                2   3.60007744E+01   3.34312859E+01   3.34312859E+01  -5.19471467E-01  -4.31824112E+00   3.34312859E+01   3.34312859E+01  -5.19471467E-01  -4.31824112E+00   3.77495270E+01  -9.53119183E+00   3.55456696E+01   3.49566966E-01   3.25622482E+01  -4.31824112E+00   5.36183739E+00
             1572                3   3.56519165E+01   3.31840668E+01   3.31840668E+01  -2.72251099E-01  -4.31824112E+00   3.31840668E+01   3.31840668E+01  -2.72251099E-01  -4.31824112E+00   3.75023079E+01  -9.53119183E+00   3.51298332E+01   6.81300044E-01   3.22305145E+01  -4.31824112E+00   5.56714058E+00
             1572                4   3.60352745E+01   3.34556694E+01   3.34556694E+01  -5.43853521E-01  -4.31824112E+00   3.34556694E+01   3.34556694E+01  -5.43853521E-01  -4.31824112E+00   3.77739105E+01  -9.53119183E+00   3.55864830E+01   4.14897114E-01   3.24969177E+01  -4.31824112E+00   5.62831116E+00
             1573                1   3.48587418E+01   3.32057533E+01   3.32057533E+01  -1.30186930E-01  -2.99855042E+00   3.32057533E+01   3.32057533E+01  -1.30186930E-01  -2.99855042E+00   3.62043037E+01  -1.00256720E+01   3.45917397E+01   5.46039939E-01   3.25295258E+01  -2.99855042E+00   4.69950676E+00
             1573                2   3.45281258E+01   3.29747658E+01   3.29747658E+01   1.00800879E-01  -2.99855042E+00   3.29747658E+01   3.29747658E+01   1.00800879E-01  -2.99855042E+00   3.59733162E+01  -1.00256720E+01   3.42130661E+01   7.66544223E-01   3.23090210E+01  -2.99855042E+00   4.63059521E+00
             1573                3   3.48704185E+01   3.32138901E+01   3.32138901E+01  -1.38325140E-01  -2.99855042E+00   3.32138901E+01   3.32138901E+01  -1.38325140E-01  -2.99855042E+00   3.62124405E+01  -1.00256720E+01   3.46050224E+01   4.74529296E-01   3.26010361E+01  -2.99855042E+00   4.47933722E+00
             1573                4   3.45398140E+01   3.29829483E+01   3.29829483E+01   9.26177576E-02  -2.99855042E+00   3.29829483E+01   3.29829483E+01   9.26177576E-02  -2.99855042E+00   3.59814987E+01  -1.00256720E+01   3.42265358E+01   6.95035398E-01   3.23805313E+01  -2.99855042E+00   4.41030550E+00
             1574                1   1.78529015E+01   9.21584606E+00   9.21584606E+00   3.33186895E-01  -1.13360357E+01   9.21584606E+00  -1.13360357E+01   3.33186895E-01  -1.13360357E+01   2.05518818E+01   5.95667541E-01  -1.09735088E+01   5.08906269E+00   4.45997047E+00  -1.13360357E+01   4.43017721E+00
             1574                2   1.78007889E+01   9.14556408E+00   9.14556408E+00   4.03469384E-01  -1.13360357E+01   9.14556408E+00  -1.13360357E+01   4.03469384E-01  -1.13360357E+01   2.04815998E+01   5.95667541E-01  -1.12166700E+01   4.73586750E+00   4.81316566E+00  -1.13360357E+01   4.37087631E+00
             1574                3   1.80711651E+01   9.50093460E+00   9.50093460E+00   4.80983779E-02  -1.13360357E+01   9.50093460E+00  -1.13360357E+01   4.80983779E-02  -1.13360357E+01   2.08369713E+01   5.95667541E-01  -9.80434799E+00   5.09266615E+00   4.45636702E+00  -1.13360357E+01   4.71569824E+00
             1574                4   1.80013046E+01   9.41122055E+00   9.41122055E+00   1.37812197E-01  -1.13360357E+01   9.41122055E+00  -1.13360357E+01   1.37812197E-01  -1.13360357E+01   2.07472572E+01   5.95667541E-01  -1.02097092E+01   4.69663286E+00   4.85240030E+00  -1.13360357E+01   4.63605022E+00
             1575                1   3.05521259E+01   2.77597141E+01   2.77597141E+01   1.62331872E-02  -4.98414469E+00   2.77597141E+01   2.77597141E+01   1.62331872E-02  -4.98414469E+00   3.27438583E+01  -7.59726763E+00   2.96104450E+01   2.04532132E-01   2.75714149E+01  -4.98414469E+00   2.27785540E+00
             1575                2   3.02026768E+01   2.75022411E+01   2.75022411E+01   2.73708284E-01  -4.98414469E+00   2.75022411E+01   2.75022411E+01   2.73708284E-01  -4.98414469E+00   3.24863853E+01  -7.59726858E+00   2.91462269E+01   4.49481100E-01   2.73264675E+01  -4.98414469E+00   2.18063354E+00
             1575                3   3.06331654E+01   2.78191624E+01   2.78191624E+01  -4.32141721E-02  -4.98414469E+00   2.78191624E+01   2.78191624E+01  -4.32141721E-02  -4.98414469E+00   3.28033066E+01  -7.59726763E+00   2.97167912E+01   1.05891086E-01   2.76700573E+01  -4.98414469E+00   2.03277445E+00
             1575                4   3.02846546E+01   2.75628109E+01   2.75628109E+01   2.13137150E-01  -4.98414469E+00   2.75628109E+01   2.75628109E+01   2.13137150E-01  -4.98414469E+00   3.25469551E+01  -7.59726763E+00   2.92559719E+01   3.50782335E-01   2.74251652E+01  -4.98414469E+00   1.93535686E+00
             1576                1   7.70597229E+01   7.10035858E+01   7.10035858E+01  -6.02784586E+00  -6.08439255E+00   7.10035858E+01   7.10035858E+01  -6.02784586E+00  -6.08439255E+00   7.70879745E+01  -1.96304493E+01   7.70596695E+01  -5.26902866E+00   7.02447662E+01  -6.08439255E+00   7.60769606E+00
             1576                2   7.67438431E+01   7.07927780E+01   7.07927780E+01  -5.81703377E+00  -6.08439255E+00   7.07927780E+01   7.07927780E+01  -5.81703377E+00  -6.08439255E+00   7.68771744E+01  -1.96304512E+01   7.67427902E+01  -5.02412701E+00   6.99998703E+01  -6.08439255E+00   7.75344706E+00
             1576                3   7.67770004E+01   7.08149185E+01   7.08149185E+01  -5.83918285E+00  -6.08439255E+00   7.08149185E+01   7.08149185E+01  -5.83918285E+00  -6.08439255E+00   7.68993149E+01  -1.96304493E+01   7.67761230E+01  -5.12585974E+00   7.01016006E+01  -6.08439255E+00   7.36003542E+00
             1576                4   7.64590073E+01   7.06024399E+01   7.06024399E+01  -5.62669897E+00  -6.08439255E+00   7.06024399E+01   7.06024399E+01  -5.62669897E+00  -6.08439255E+00   7.66868286E+01  -1.96304493E+01   7.64559326E+01  -4.88050652E+00   6.98562469E+01  -6.08439255E+00   7.50497484E+00
             1577                1   3.91844521E+01   3.61289635E+01   3.61289635E+01  -1.15402532E+00  -4.71400595E+00   3.61289635E+01   3.61289635E+01  -1.15402532E+00  -4.71400595E+00   4.08429680E+01  -1.00869770E+01   3.88181190E+01   3.01354200E-01   3.46735840E+01  -4.71400595E+00   7.22099304E+00
             1577                2   3.87716637E+01   3.58390045E+01   3.58390045E+01  -8.64066839E-01  -4.71400595E+00   3.58390045E+01   3.58390045E+01  -8.64066839E-01  -4.71400595E+00   4.05530090E+01  -1.00869770E+01   3.83380852E+01   5.99709213E-01   3.43752289E+01  -4.71400595E+00   7.18208981E+00
             1577                3   3.90797272E+01   3.60555382E+01   3.60555382E+01  -1.08060122E+00  -4.71400595E+00   3.60555382E+01   3.60555382E+01  -1.08060122E+00  -4.71400595E+00   4.07695427E+01  -1.00869770E+01   3.86969795E+01   2.58269340E-01   3.47166672E+01  -4.71400595E+00   6.92300081E+00
             1577                4   3.86656113E+01   3.57642670E+01   3.57642670E+01  -7.89328694E-01  -4.71400595E+00   3.57642670E+01   3.57642670E+01  -7.89328694E-01  -4.71400595E+00   4.04782715E+01  -1.00869770E+01   3.82136307E+01   5.56674063E-01   3.44182625E+01  -4.71400595E+00   6.88400650E+00
             1578                1   7.73076096E+01   7.11514511E+01   7.11514511E+01  -5.74479961E+00  -6.56104517E+00   7.11514511E+01   7.11514511E+01  -5.74479961E+00  -6.56104517E+00   7.77125015E+01  -1.96152020E+01   7.72979126E+01  -4.17460489E+00   6.95812607E+01  -6.56104517E+00   1.08754988E+01
             1578                2   7.77956543E+01   7.14782028E+01   7.14782028E+01  -6.07154799E+00  -6.56104517E+00   7.14782028E+01   7.14782028E+01  -6.07154799E+00  -6.56104517E+00   7.80392456E+01  -1.96152020E+01   7.77921906E+01  -4.54863071E+00   6.99552841E+01  -6.56104517E+00   1.07602339E+01
             1578                3   7.76263199E+01   7.13649139E+01   7.13649139E+01  -5.95825005E+00  -6.56104517E+00   7.13649139E+01   7.13649139E+01  -5.95825005E+00  -6.56104517E+00   7.79259567E+01  -1.96152058E+01   7.76210480E+01  -4.28478527E+00   6.96914444E+01  -6.56104517E+00   1.12515469E+01
             1578                4   7.81119995E+01   7.16896210E+01   7.16896210E+01  -6.28296566E+00  -6.56104517E+00   7.16896210E+01   7.16896210E+01  -6.28296566E+00  -6.56104517E+00   7.82506638E+01  -1.96152020E+01   7.81108856E+01  -4.65877342E+00   7.00654297E+01  -6.56104517E+00   1.11357231E+01
             1579                1   8.15714722E+01   7.56464615E+01   7.56464615E+01  -5.74702978E+00  -6.10183859E+00   7.56464615E+01   7.56464615E+01  -5.74702978E+00  -6.10183859E+00   8.17482986E+01  -2.12658634E+01   8.15697327E+01  -5.11466408E+00   7.50140915E+01  -6.10183859E+00   7.14637661E+00
             1579                2   8.18775177E+01   7.58508072E+01   7.58508072E+01  -5.95137739E+00  -6.10183859E+00   7.58508072E+01   7.58508072E+01  -5.95137739E+00  -6.10183859E+00   8.19526443E+01  -2.12658634E+01   8.18772049E+01  -5.34580755E+00   7.52452393E+01  -6.10183859E+00   7.01213312E+00
             1579                3   8.18285904E+01   7.58181610E+01   7.58181610E+01  -5.91872835E+00  -6.10183859E+00   7.58181610E+01   7.58181610E+01  -5.91872835E+00  -6.10183859E+00   8.19199982E+01  -2.12658634E+01   8.18281326E+01  -5.24685287E+00   7.51462860E+01  -6.10183859E+00   7.38006020E+00
             1579                4   8.21342850E+01   7.60220566E+01   7.60220566E+01  -6.12262535E+00  -6.10183859E+00   7.60220566E+01   7.60220566E+01  -6.10183859E+00  -6.12262535E+00   8.21446838E+01  -2.12658634E+01   8.21342850E+01  -5.47833014E+00   7.53777618E+01  -6.10183859E+00   7.24638748E+00
             1580                1   2.19328476E+02   2.37290527E+02   2.37290527E+02  -1.48238838E+00   4.47904549E+01   2.37290527E+02   2.37290527E+02   4.47904549E+01  -1.48238838E+00   2.38772919E+02  -9.35328674E+01   2.07916199E+02  -1.33811164E+00   2.37146240E+02   4.47904549E+01  -5.86773634E+00
             1580                2   2.19482147E+02   2.36896561E+02   2.36896561E+02  -3.49868965E+00   4.72007141E+01   2.36896561E+02   2.36896561E+02   4.72007141E+01  -3.49868965E+00   2.40395248E+02  -9.35328598E+01   2.05678787E+02  -3.49255681E+00   2.36890427E+02   4.72007141E+01  -1.21449697E+00
             1580                3   2.19216476E+02   2.37597275E+02   2.37597275E+02   2.23840684E-01   4.27774544E+01   2.37597275E+02   2.37597275E+02   4.27774544E+01   2.23840684E-01   2.37373444E+02  -9.35328598E+01   2.09619736E+02   2.24174127E-01   2.37596954E+02   4.27774544E+01   2.78256238E-01
             1580                4   2.19367783E+02   2.37197952E+02   2.37197952E+02  -1.98508906E+00   4.53857307E+01   2.37197952E+02   2.37197952E+02   4.53857307E+01  -1.98508906E+00   2.39183044E+02  -9.35328674E+01   2.07386322E+02  -1.88647807E+00   2.37099335E+02   4.53857307E+01   4.85563374E+00
             1581                1   4.63069191E+01   4.97453079E+01   4.97453079E+01   3.48875308E+00   3.38818884E+00   4.97453079E+01   4.97453079E+01   3.48875308E+00   3.38818884E+00   4.63571205E+01  -1.88740826E+01   4.63066750E+01   3.62358952E+00   4.96104736E+01   3.38818884E+00   2.49376106E+00
             1581                2   4.66586227E+01   4.99797363E+01   4.99797363E+01   3.25432634E+00   3.38818884E+00   4.99797363E+01   4.99797363E+01   3.38818884E+00   3.25432634E+00   4.67254105E+01  -1.88740826E+01   4.66581917E+01   3.39426947E+00   4.98397942E+01   3.38818884E+00   2.55328250E+00
             1581                3   4.62541695E+01   4.97100983E+01   4.97100983E+01   3.52396727E+00   3.38818884E+00   4.97100983E+01   4.97100983E+01   3.52396727E+00   3.38818884E+00   4.63219109E+01  -1.88740845E+01   4.62537231E+01   3.68485904E+00   4.95492058E+01   3.38818884E+00   2.72123814E+00
             1581                4   4.66064682E+01   4.99450073E+01   4.99450073E+01   3.28905296E+00   3.38818884E+00   4.99450073E+01   4.99450073E+01   3.38818884E+00   3.28905296E+00   4.66559563E+01  -1.88740826E+01   4.66062317E+01   3.45538068E+00   4.97786827E+01   3.38818884E+00   2.78072929E+00
             1582                1   8.47687073E+01   7.91491776E+01   7.91491776E+01  -5.32679701E+00  -5.90926075E+00   7.91491776E+01   7.91491776E+01  -5.32679701E+00  -5.90926075E+00   8.50584412E+01  -2.26377048E+01   8.47642059E+01  -3.77891374E+00   7.76012955E+01  -5.90926075E+00   1.13297338E+01
             1582                2   8.52846909E+01   7.94940033E+01   7.94940033E+01  -5.67161655E+00  -5.90926075E+00   7.94940033E+01   7.94940033E+01  -5.67161655E+00  -5.90926075E+00   8.54032669E+01  -2.26377087E+01   8.52839432E+01  -4.16453171E+00   7.79869156E+01  -5.90926075E+00   1.12285709E+01
             1582                3   8.50629807E+01   7.93459244E+01   7.93459244E+01  -5.52354431E+00  -5.90926075E+00   7.93459244E+01   7.93459244E+01  -5.52354431E+00  -5.90926075E+00   8.52551880E+01  -2.26377048E+01   8.50610123E+01  -3.87235570E+00   7.76947327E+01  -5.90926075E+00   1.17221718E+01
             1582                4   8.55772476E+01   7.96892014E+01   7.96892014E+01  -5.86681318E+00  -5.90926075E+00   7.96892014E+01   7.96892014E+01  -5.86681318E+00  -5.90926075E+00   8.55984650E+01  -2.26377087E+01   8.55772247E+01  -4.25809813E+00   7.80804825E+01  -5.90926075E+00   1.16209965E+01
             1583                1   4.66949654E+01   5.02009087E+01   5.02009087E+01   3.56316209E+00   3.44893909E+00   5.02009087E+01   5.02009087E+01   3.56316209E+00   3.44893909E+00   4.67519722E+01  -1.90710049E+01   4.66946487E+01   3.56733966E+00   5.01967316E+01   3.44893909E+00   4.41438735E-01
             1583                2   4.67047958E+01   5.02074738E+01   5.02074738E+01   3.55659628E+00   3.44893909E+00   5.02074738E+01   5.02074738E+01   3.55659628E+00   3.44893909E+00   4.67585335E+01  -1.90710030E+01   4.67045174E+01   3.55751562E+00   5.02065544E+01   3.44893909E+00   2.06942320E-01
             1583                3   4.70474052E+01   5.04358635E+01   5.04358635E+01   3.32820606E+00   3.44893909E+00   5.04358635E+01   5.04358635E+01   3.44893909E+00   3.32820606E+00   4.71076546E+01  -1.90710030E+01   4.70470543E+01   3.33253813E+00   5.04315300E+01   3.44893909E+00   4.51747745E-01
             1583                4   4.70569534E+01   5.04422188E+01   5.04422188E+01   3.32184839E+00   3.44893909E+00   5.04422188E+01   5.04422188E+01   3.44893909E+00   3.32184839E+00   4.71203728E+01  -1.90710030E+01   4.70565681E+01   3.32284975E+00   5.04412193E+01   3.44893909E+00   2.17175722E-01
             1584                1   9.39581757E+01   8.96575317E+01   8.96575317E+01  -4.36372948E+00  -4.23743868E+00   8.96575317E+01   8.96575317E+01  -4.23743868E+00  -4.36372948E+00   9.40212631E+01  -2.70187855E+01   9.39579926E+01  -3.97011685E+00   8.92639160E+01  -4.23743868E+00   6.07067966E+00
             1584                2   9.37116165E+01   8.94931946E+01   8.94931946E+01  -4.19939470E+00  -4.23743868E+00   8.94931946E+01   8.94931946E+01  -4.19939470E+00  -4.23743868E+00   9.37306366E+01  -2.70187855E+01   9.37116013E+01  -3.79414535E+00   8.90879440E+01  -4.23743868E+00   6.14855909E+00
             1584                3   9.38082581E+01   8.95576248E+01   8.95576248E+01  -4.26382637E+00  -4.23743868E+00   8.95576248E+01   8.95576248E+01  -4.23743868E+00  -4.26382637E+00   9.38214493E+01  -2.70187855E+01   9.38082581E+01  -3.89217043E+00   8.91859741E+01  -4.23743868E+00   5.89328814E+00
             1584                4   9.35616531E+01   8.93931732E+01   8.93931732E+01  -4.09937143E+00  -4.23743868E+00   8.93931732E+01   8.93931732E+01  -4.09937143E+00  -4.23743868E+00   9.36306076E+01  -2.70187855E+01   9.35614319E+01  -3.71639013E+00   8.90101929E+01  -4.23743868E+00   5.97151423E+00
             1585                1   2.11375809E+02   1.92359482E+02   1.92359482E+02  -2.47938137E+01  -1.27213793E+01   1.92359482E+02   1.92359482E+02  -1.27213793E+01  -2.47938137E+01   2.17153305E+02  -5.16147652E+01   2.10598038E+02  -2.46590900E+01   1.92224762E+02  -1.27213793E+01   5.40722370E+00
             1585                2   2.11840744E+02   1.92551819E+02   1.92551819E+02  -2.66892223E+01  -1.10182858E+01   1.92551819E+02   1.92551819E+02  -1.10182858E+01  -2.66892223E+01   2.19241043E+02  -5.16147728E+01   2.10530716E+02  -2.66779995E+01   1.92540588E+02  -1.10182858E+01   1.56894791E+00
             1585                3   2.11973648E+02   1.92634308E+02   1.92634308E+02  -2.68150425E+01  -1.09749641E+01   1.92634308E+02   1.92634308E+02  -1.09749641E+01  -2.68150425E+01   2.19449341E+02  -5.16147652E+01   2.10635910E+02  -2.64113350E+01   1.92230591E+02  -1.09749641E+01   9.40378952E+00
             1585                4   2.12405029E+02   1.92783188E+02   1.92783188E+02  -2.85735645E+01  -9.36532688E+00   1.92783188E+02   1.92783188E+02  -9.36532688E+00  -2.85735645E+01   2.21356750E+02  -5.16147652E+01   2.10437683E+02  -2.84333248E+01   1.92642944E+02  -9.36532688E+00   5.56998825E+00
             1586                1   1.85658585E+02   1.90240433E+02   1.90240433E+02  -5.04657984E-01   1.01250868E+01   1.90240433E+02   1.90240433E+02   1.01250868E+01  -5.04657984E-01   1.90745102E+02  -6.66202927E+01   1.84972076E+02  -4.65077072E-01   1.90200851E+02   1.01250868E+01   2.74756980E+00
             1586                2   1.86870026E+02   1.90980698E+02   1.90980698E+02  -1.96323681E+00   1.08434019E+01   1.90980698E+02   1.90980698E+02   1.08434019E+01  -1.96323681E+00   1.92943924E+02  -6.66202850E+01   1.85878860E+02  -1.96319592E+00   1.90980652E+02   1.08434019E+01   8.89177322E-02
             1586                3   1.87477448E+02   1.91374207E+02   1.91374207E+02  -2.33507657E+00   1.08217316E+01   1.91374207E+02   1.91374207E+02   1.08217316E+01  -2.33507657E+00   1.93709274E+02  -6.66202850E+01   1.86434509E+02  -2.20976782E+00   1.91248886E+02   1.08217316E+01   4.92532015E+00
             1586                4   1.88710114E+02   1.92113129E+02   1.92113129E+02  -3.81779718E+00   1.15655289E+01   1.92113129E+02   1.92113129E+02   1.15655289E+01  -3.81779718E+00   1.95930923E+02  -6.66202927E+01   1.87291626E+02  -3.79114032E+00   1.92086472E+02   1.15655289E+01   2.28532743E+00
             1587                1   2.80972919E+01   3.85037651E+01   3.85037651E+01   9.40020466E+00   1.15344591E+01   3.85037651E+01   3.85037651E+01   1.15344591E+01   9.40020466E+00   2.91035595E+01  -1.98128090E+01   2.79140491E+01   1.22186890E+01   3.56852798E+01   1.15344591E+01   8.60721111E+00
             1587                2   2.80017586E+01   3.84422531E+01   3.84422531E+01   9.46171761E+00   1.15344591E+01   3.84422531E+01   3.84422531E+01   1.15344591E+01   9.46171761E+00   2.89805336E+01  -1.98128090E+01   2.78283787E+01   1.21522694E+01   3.57517014E+01   1.15344591E+01   8.41038322E+00
             1587                3   2.84070892E+01   3.87028923E+01   3.87028923E+01   9.20107841E+00   1.15344591E+01   3.87028923E+01   3.87028923E+01   1.15344591E+01   9.20107841E+00   2.95018120E+01  -1.98128090E+01   2.81902714E+01   1.20212231E+01   3.58827477E+01   1.15344591E+01   8.67445374E+00
             1587                4   2.83127899E+01   3.86423340E+01   3.86423340E+01   9.26163387E+00   1.15344591E+01   3.86423340E+01   3.86423340E+01   1.15344591E+01   9.26163387E+00   2.93807011E+01  -1.98128090E+01   2.81064472E+01   1.19545641E+01   3.59494057E+01   1.15344591E+01   8.47751617E+00
             1588                1   4.08196335E+01   3.90121918E+01   3.90121918E+01  -5.81399977E-01  -2.93191171E+00   3.90121918E+01   3.90121918E+01  -5.81399977E-01  -2.93191171E+00   4.19441032E+01  -1.18329592E+01   4.06669540E+01   9.74486887E-01   3.74563026E+01  -2.93191171E+00   7.69300842E+00
             1588                2   4.11458893E+01   3.92360573E+01   3.92360573E+01  -8.05269182E-01  -2.93191171E+00   3.92360573E+01   3.92360573E+01  -8.05269182E-01  -2.93191171E+00   4.21679726E+01  -1.18329592E+01   4.10219650E+01   7.29519486E-01   3.77012711E+01  -2.93191171E+00   7.68761206E+00
             1588                3   4.09683304E+01   3.91143150E+01   3.91143150E+01  -6.83524966E-01  -2.93191171E+00   3.91143150E+01   3.91143150E+01  -6.83524966E-01  -2.93191171E+00   4.20462265E+01  -1.18329592E+01   4.08291740E+01   9.70001578E-01   3.74607887E+01  -2.93191171E+00   7.94182730E+00
             1588                4   4.12923088E+01   3.93362923E+01   3.93362923E+01  -9.05498385E-01  -2.93191171E+00   3.93362923E+01   3.93362923E+01  -9.05498385E-01  -2.93191171E+00   4.22682037E+01  -1.18329611E+01   4.11802101E+01   7.24851906E-01   3.77059402E+01  -2.93191171E+00   7.93411827E+00
             1589                1   2.89091568E+01   2.44517136E+01   2.44517136E+01  -6.77541494E-02  -7.42526245E+00   2.44517136E+01   2.44517136E+01  -6.77541494E-02  -7.42526245E+00   3.18769760E+01  -5.65289879E+00   2.66779327E+01   2.57811606E-01   2.41261463E+01  -7.42526245E+00   2.80655074E+00
             1589                2   2.85280647E+01   2.41504383E+01   2.41504383E+01   2.33518243E-01  -7.42526245E+00   2.41504383E+01   2.41504383E+01   2.33518243E-01  -7.42526245E+00   3.15757008E+01  -5.65289831E+00   2.60604153E+01   5.42698383E-01   2.38412590E+01  -7.42526245E+00   2.70167232E+00
             1589                3   2.89624119E+01   2.44935379E+01   2.44935379E+01  -1.09580003E-01  -7.42526245E+00   2.44935379E+01   2.44935379E+01  -1.09580003E-01  -7.42526245E+00   3.19188004E+01  -5.65289879E+00   2.67626114E+01   1.51706174E-01   2.42322521E+01  -7.42526245E+00   2.52194309E+00
             1589                4   2.85820103E+01   2.41933002E+01   2.41933002E+01   1.90658703E-01  -7.42526245E+00   2.41933002E+01   2.41933002E+01   1.90658703E-01  -7.42526245E+00   3.16185627E+01  -5.65289879E+00   2.61491032E+01   4.36564565E-01   2.39473934E+01  -7.42526245E+00   2.41701055E+00
             1590                1   2.91487274E+01   2.68915596E+01   2.68915596E+01  -2.41985545E-02  -4.06788349E+00   2.68915596E+01   2.68915596E+01  -2.41985545E-02  -4.06788349E+00   3.09594440E+01  -7.59982538E+00   2.85074463E+01  -1.35008385E-02   2.68808613E+01  -4.06788349E+00   5.36506772E-01
             1590                2   2.88290386E+01   2.66600266E+01   2.66600266E+01   2.07333773E-01  -4.06788349E+00   2.66600266E+01   2.66600266E+01   2.07333773E-01  -4.06788349E+00   3.07279110E+01  -7.59982538E+00   2.81025620E+01   2.14766085E-01   2.66525955E+01  -4.06788349E+00   4.43323135E-01
             1590                3   2.92684727E+01   2.69779148E+01   2.69779148E+01  -1.10552922E-01  -4.06788349E+00   2.69779148E+01   2.69779148E+01  -1.10552922E-01  -4.06788349E+00   3.10457973E+01  -7.59982538E+00   2.86573048E+01  -1.07047826E-01   2.69744091E+01  -4.06788349E+00   3.08106720E-01
             1590                4   2.89501572E+01   2.67479191E+01   2.67479191E+01   1.19442001E-01  -4.06788349E+00   2.67479191E+01   2.67479191E+01   1.19442001E-01  -4.06788349E+00   3.08158016E+01  -7.59982538E+00   2.82567978E+01   1.21175230E-01   2.67461853E+01  -4.06788349E+00   2.14859337E-01
             1591                1   3.58588066E+01   3.88534164E+01   3.88534164E+01   1.81352079E+00   4.30572271E+00   3.88534164E+01   3.88534164E+01   4.30572271E+00   1.81352079E+00   3.70398979E+01  -1.49908867E+01   3.56631813E+01   3.53386092E+00   3.71330795E+01   4.30572271E+00   7.79497242E+00
             1591                2   3.57469063E+01   3.87811661E+01   3.87811661E+01   1.88577318E+00   4.30572271E+00   3.87811661E+01   3.87811661E+01   4.30572271E+00   1.88577318E+00   3.68953934E+01  -1.49908867E+01   3.55619125E+01   3.58700490E+00   3.70799332E+01   4.30572271E+00   7.73779345E+00
             1591                3   3.59058609E+01   3.88837814E+01   3.88837814E+01   1.78315747E+00   4.30572271E+00   3.88837814E+01   3.88837814E+01   4.30572271E+00   1.78315747E+00   3.71006241E+01  -1.49908867E+01   3.57056808E+01   3.47383308E+00   3.71931076E+01   4.30572271E+00   7.73735571E+00
             1591                4   3.57940407E+01   3.88116074E+01   3.88116074E+01   1.85533082E+00   4.30572271E+00   3.88116074E+01   3.88116074E+01   4.30572271E+00   1.85533082E+00   3.69562759E+01  -1.49908867E+01   3.56046028E+01   3.52696228E+00   3.71399765E+01   4.30572271E+00   7.68003416E+00
             1592                1   1.47935181E+02   1.75851593E+02   1.75851593E+02   2.56125336E+01   3.03333168E+01   1.75851593E+02   1.75851593E+02   3.03333168E+01   2.56125336E+01   1.50239059E+02  -7.72658157E+01   1.47765564E+02   2.64101524E+01   1.75053970E+02   3.03333168E+01   1.09177837E+01
             1592                2   1.47567520E+02   1.75610153E+02   1.75610153E+02   2.58539677E+01   3.03333168E+01   1.75610153E+02   1.75610153E+02   3.03333168E+01   2.58539677E+01   1.49756195E+02  -7.72658157E+01   1.47414429E+02   2.68020725E+01   1.74662048E+02   3.03333168E+01   1.18779812E+01
             1592                3   1.46414856E+02   1.74852066E+02   1.74852066E+02   2.66120605E+01   3.03333168E+01   1.74852066E+02   1.74852066E+02   3.03333168E+01   2.66120605E+01   1.48240005E+02  -7.72658157E+01   1.46308395E+02   2.73758678E+01   1.74088257E+02   3.03333168E+01   1.06133757E+01
             1592                4   1.46055450E+02   1.74615326E+02   1.74615326E+02   2.68487968E+01   3.03333168E+01   1.74615326E+02   1.74615326E+02   3.03333168E+01   2.68487968E+01   1.47766525E+02  -7.72658157E+01   1.45961884E+02   2.77517948E+01   1.73712326E+02   3.03333168E+01   1.15159979E+01
             1593                1   7.06446762E+01   6.45896835E+01   6.45896835E+01  -5.46216154E+00  -6.63326263E+00   6.45896835E+01   6.45896835E+01  -5.46216154E+00  -6.63326263E+00   7.12229462E+01  -1.74980869E+01   7.06228333E+01  -3.58383775E+00   6.27113647E+01  -6.63326263E+00   1.13160000E+01
             1593                2   7.11548462E+01   6.49322357E+01   6.49322357E+01  -5.80471420E+00  -6.63326263E+00   6.49322357E+01   6.49322357E+01  -5.80471420E+00  -6.63326263E+00   7.15654984E+01  -1.74980869E+01   7.11439896E+01  -3.98231316E+00   6.31098404E+01  -6.63326263E+00   1.12066860E+01
             1593                3   7.09863968E+01   6.48192368E+01   6.48192368E+01  -5.69170380E+00  -6.63326263E+00   6.48192368E+01   6.48192368E+01  -5.69170380E+00  -6.63326263E+00   7.14524994E+01  -1.74980888E+01   7.09723434E+01  -3.68859959E+00   6.28161278E+01  -6.63326263E+00   1.17144470E+01
             1593                4   7.14928894E+01   6.51587448E+01   6.51587448E+01  -6.03121805E+00  -6.63326263E+00   6.51587448E+01   6.51587448E+01  -6.03121805E+00  -6.63326263E+00   7.17920074E+01  -1.74980888E+01   7.14871826E+01  -4.08651400E+00   6.32140427E+01  -6.63326263E+00   1.16043711E+01
             1594                1   5.46425591E+01   5.33748207E+01   5.33748207E+01  -1.22466934E+00  -1.31070936E+00   5.33748207E+01   5.33748207E+01  -1.22466934E+00  -1.31070936E+00   5.46855278E+01  -1.69464798E+01   5.46424065E+01  -4.00830835E-01   5.25509796E+01  -1.31070936E+00   6.65601492E+00
             1594                2   5.44457245E+01   5.32434120E+01   5.32434120E+01  -1.09326553E+00  -1.31070936E+00   5.32434120E+01   5.32434120E+01  -1.09326553E+00  -1.31070936E+00   5.45541229E+01  -1.69464779E+01   5.44447517E+01  -2.19209909E-01   5.23693581E+01  -1.31070936E+00   6.83587742E+00
             1594                3   5.43138542E+01   5.31552887E+01   5.31552887E+01  -1.00513709E+00  -1.31070936E+00   5.31552887E+01   5.31552887E+01  -1.00513709E+00  -1.31070936E+00   5.44659958E+01  -1.69464798E+01   5.43119240E+01  -2.19997004E-01   5.23701477E+01  -1.31070936E+00   6.47356558E+00
             1594                4   5.41163673E+01   5.30231743E+01   5.30231743E+01  -8.73026609E-01  -1.31070936E+00   5.30231743E+01   5.30231743E+01  -8.73026609E-01  -1.31070936E+00   5.43338814E+01  -1.69464779E+01   5.41123886E+01  -3.86110134E-02   5.21887589E+01  -1.31070936E+00   6.65398455E+00
             1595                1   9.08015289E+01   8.56345978E+01   8.56345978E+01  -5.20811367E+00  -5.12568998E+00   8.56345978E+01   8.56345978E+01  -5.12568998E+00  -5.20811367E+00   9.08427124E+01  -2.51002655E+01   9.08014374E+01  -5.16725779E+00   8.55937424E+01  -5.12568998E+00   1.92604613E+00
             1595                2   9.07215042E+01   8.55812607E+01   8.55812607E+01  -5.15478039E+00  -5.12568998E+00   8.55812607E+01   8.55812607E+01  -5.12568998E+00  -5.15478039E+00   9.07360458E+01  -2.51002655E+01   9.07214890E+01  -5.10931444E+00   8.55357971E+01  -5.12568998E+00   2.03061032E+00
             1595                3   9.06410675E+01   8.55276413E+01   8.55276413E+01  -5.10115957E+00  -5.12568998E+00   8.55276413E+01   8.55276413E+01  -5.10115957E+00  -5.12568998E+00   9.06533356E+01  -2.51002655E+01   9.06410599E+01  -5.06264687E+00   8.54891281E+01  -5.12568998E+00   1.86790133E+00
             1595                4   9.05609283E+01   8.54741974E+01   8.54741974E+01  -5.04771566E+00  -5.12568998E+00   8.54741974E+01   8.54741974E+01  -5.04771566E+00  -5.12568998E+00   9.05998917E+01  -2.51002655E+01   9.05608444E+01  -5.00471497E+00   8.54311981E+01  -5.12568998E+00   1.97247016E+00
             1596                1   1.68499039E+02   1.69793594E+02   1.69793594E+02  -3.10935706E-01   2.94731259E+00   1.69793594E+02   1.69793594E+02   2.94731259E+00  -3.10935706E-01   1.70104538E+02  -5.74766579E+01   1.68428146E+02  -2.78149277E-01   1.69760818E+02   2.94731259E+00   2.36125016E+00
             1596                2   1.67671005E+02   1.69255463E+02   1.69255463E+02   1.02694893E+00   2.14756703E+00   1.69255463E+02   1.69255463E+02   2.14756703E+00   1.02694893E+00   1.68228516E+02  -5.74766579E+01   1.67662582E+02   1.11012185E+00   1.69172287E+02   2.14756703E+00   3.73969007E+00
             1596                3   1.67822906E+02   1.69352844E+02   1.69352844E+02   5.55561125E-01   2.52157664E+00   1.69352844E+02   1.69352844E+02   2.52157664E+00   5.55561125E-01   1.68797272E+02  -5.74766579E+01   1.67796997E+02   5.55783391E-01   1.69352615E+02   2.52157664E+00   1.94874763E-01
             1596                4   1.66972824E+02   1.68791794E+02   1.68791794E+02   1.93278289E+00   1.70539927E+00   1.68791794E+02   1.68791794E+02   1.93278289E+00   1.70539927E+00   1.67086395E+02  -5.74766579E+01   1.66972473E+02   1.94733036E+00   1.68777252E+02   1.70539927E+00   1.55773795E+00
             1597                1   2.14462784E+02   1.99479553E+02   1.99479553E+02  -2.58143997E+01  -2.19701052E+00   1.99479553E+02   1.99479553E+02  -2.19701052E+00  -2.58143997E+01   2.25293945E+02  -5.71560478E+01   2.11507431E+02  -2.56789513E+01   1.99344101E+02  -2.19701052E+00  -5.52238321E+00
             1597                2   2.14101212E+02   1.99391785E+02   1.99391785E+02  -2.42827816E+01  -3.64087796E+00   1.99391785E+02   1.99391785E+02  -3.64087796E+00  -2.42827816E+01   2.23674576E+02  -5.71560402E+01   2.11845169E+02  -2.42573624E+01   1.99366379E+02  -3.64087796E+00  -2.38394666E+00
             1597                3   2.13851288E+02   1.99241394E+02   1.99241394E+02  -2.40324783E+01  -3.74080062E+00   1.99241394E+02   1.99241394E+02  -3.74080062E+00  -2.40324783E+01   2.23273880E+02  -5.71560402E+01   2.11669113E+02  -2.37350693E+01   1.98944000E+02  -3.74080062E+00  -8.14330196E+00
             1597                4   2.13471298E+02   1.99125916E+02   1.99125916E+02  -2.23972263E+01  -5.26053905E+00   1.99125916E+02   1.99125916E+02  -5.26053905E+00  -2.23972263E+01   2.21523132E+02  -5.71560478E+01   2.11915482E+02  -2.22852516E+01   1.99013931E+02  -5.26053905E+00  -4.97927475E+00
             1598                1   2.16286591E+02   2.18422882E+02   2.18422882E+02  -9.36151218E+00   1.58425112E+01   2.18422882E+02   2.18422882E+02   1.58425112E+01  -9.36151218E+00   2.27784393E+02  -7.49679642E+01   2.12945114E+02  -9.35499859E+00   2.18416367E+02   1.58425112E+01   1.21831477E+00
             1598                2   2.16563797E+02   2.18441177E+02   2.18441177E+02  -1.07282486E+01   1.71909466E+01   2.18441177E+02   2.18441177E+02   1.71909466E+01  -1.07282486E+01   2.29169418E+02  -7.49679565E+01   2.12458313E+02  -1.06039886E+01   2.18316910E+02   1.71909466E+01   5.33489895E+00
             1598                3   2.15877197E+02   2.18344971E+02   2.18344971E+02  -7.51847410E+00   1.40773802E+01   2.18344971E+02   2.18344971E+02   1.40773802E+01  -7.51847410E+00   2.25863434E+02  -7.49679565E+01   2.13426636E+02  -7.42519093E+00   2.18251678E+02   1.40773802E+01   4.58929968E+00
             1598                4   2.16183243E+02   2.18389450E+02   2.18389450E+02  -9.03530216E+00   1.55497265E+01   2.18389450E+02   2.18389450E+02   1.55497265E+01  -9.03530216E+00   2.27424744E+02  -7.49679565E+01   2.13004089E+02  -8.69239616E+00   2.18046539E+02   1.55497265E+01   8.82424450E+00
             1599                1   3.10259590E+01   4.24987907E+01   4.24987907E+01   1.13681736E+01   1.15785561E+01   4.24987907E+01   4.24987907E+01   1.15785561E+01   1.13681736E+01   3.11306152E+01  -2.18151722E+01   3.10243549E+01   1.14621401E+01   4.24048233E+01   1.15785561E+01   1.70773995E+00
             1599                2   3.10212898E+01   4.24956856E+01   4.24956856E+01   1.13712759E+01   1.15785561E+01   4.24956856E+01   4.24956856E+01   1.15785561E+01   1.13712759E+01   3.11244106E+01  -2.18151722E+01   3.10197315E+01   1.14975386E+01   4.23694229E+01   1.15785561E+01   1.97836900E+00
             1599                3   3.06112175E+01   4.22226143E+01   4.22226143E+01   1.16443462E+01   1.15785561E+01   4.22226143E+01   4.22226143E+01   1.16443462E+01   1.15785561E+01   3.06440601E+01  -2.18151722E+01   3.06110592E+01   1.17352037E+01   4.21317596E+01   1.15785561E+01   1.66432452E+00
             1599                4   3.06017132E+01   4.22162704E+01   4.22162704E+01   1.16506872E+01   1.15785561E+01   4.22162704E+01   4.22162704E+01   1.16506872E+01   1.15785561E+01   3.06377144E+01  -2.18151703E+01   3.06015282E+01   1.17735844E+01   4.20933762E+01   1.15785561E+01   1.93423939E+00
             1600                1   7.07185974E+01   6.61159821E+01   6.61159821E+01  -4.54479122E+00  -4.66029644E+00   6.61159821E+01   6.61159821E+01  -4.54479122E+00  -4.66029644E+00   7.07762756E+01  -1.89702969E+01   7.07183838E+01  -4.51533461E+00   6.60865250E+01  -4.66029644E+00   1.44240224E+00
             1600                2   7.07712097E+01   6.61510849E+01   6.61510849E+01  -4.57989216E+00  -4.66029644E+00   6.61510849E+01   6.61510849E+01  -4.57989216E+00  -4.66029644E+00   7.08113785E+01  -1.89702969E+01   7.07711105E+01  -4.55753326E+00   6.61287231E+01  -4.66029644E+00   1.25736618E+00
             1600                3   7.09986572E+01   6.63027191E+01   6.63027191E+01  -4.73152876E+00  -4.66029644E+00   6.63027191E+01   6.63027191E+01  -4.66029644E+00  -4.73152876E+00   7.10342484E+01  -1.89702969E+01   7.09985809E+01  -4.70047855E+00   6.62716675E+01  -4.66029644E+00   1.48482895E+00
             1600                4   7.10510788E+01   6.63376389E+01   6.63376389E+01  -4.76645422E+00  -4.66029644E+00   6.63376389E+01   6.63376389E+01  -4.66029644E+00  -4.76645422E+00   7.11040955E+01  -1.89702969E+01   7.10509033E+01  -4.74268627E+00   6.63138733E+01  -4.66029644E+00   1.29980433E+00
             1601                1   1.72861298E+02   1.68421097E+02   1.68421097E+02  -5.16982126E+00  -3.70120120E+00   1.68421097E+02   1.68421097E+02  -3.70120120E+00  -5.16982126E+00   1.73590927E+02  -5.31833611E+01   1.72847260E+02  -5.16741276E+00   1.68418701E+02  -3.70120120E+00   6.45707309E-01
             1601                2   1.71462585E+02   1.67489273E+02   1.67489273E+02  -3.31609392E+00  -4.62308693E+00   1.67489273E+02   1.67489273E+02  -3.31609392E+00  -4.62308693E+00   1.72112350E+02  -5.31833611E+01   1.71451385E+02  -3.30921531E+00   1.67482391E+02  -4.62308693E+00   1.08359063E+00
             1601                3   1.72674561E+02   1.68298035E+02   1.68298035E+02  -4.91711044E+00  -3.83083653E+00   1.68298035E+02   1.68298035E+02  -3.83083653E+00  -4.91711044E+00   1.73215134E+02  -5.31833611E+01   1.72666885E+02  -4.89112377E+00   1.68272049E+02  -3.83083653E+00  -2.12126327E+00
             1601                4   1.71267151E+02   1.67357208E+02   1.67357208E+02  -3.04869914E+00  -4.75840855E+00   1.67357208E+02   1.67357208E+02  -3.04869914E+00  -4.75840855E+00   1.72115616E+02  -5.31833649E+01   1.71247955E+02  -3.03155637E+00   1.67340057E+02  -4.75840855E+00  -1.70913720E+00
             1602                1   7.94226990E+01   7.35041885E+01   7.35041885E+01  -5.73575974E+00  -6.10000563E+00   7.35041885E+01   7.35041885E+01  -5.73575974E+00  -6.10000563E+00   7.96041870E+01  -2.05561390E+01   7.94208145E+01  -5.13578367E+00   7.29042053E+01  -6.10000563E+00   6.86894274E+00
             1602                2   7.97152023E+01   7.36995163E+01   7.36995163E+01  -5.93110132E+00  -6.10000563E+00   7.36995163E+01   7.36995163E+01  -5.93110132E+00  -6.10000563E+00   7.97995224E+01  -2.05561371E+01   7.97148056E+01  -5.35883093E+00   7.31272507E+01  -6.10000563E+00   6.72626066E+00
             1602                3   7.96887436E+01   7.36818619E+01   7.36818619E+01  -5.91344118E+00  -6.10000563E+00   7.36818619E+01   7.36818619E+01  -5.91344118E+00  -6.10000563E+00   7.97818604E+01  -2.05561371E+01   7.96882553E+01  -5.27601910E+00   7.30444336E+01  -6.10000563E+00   7.09434366E+00
             1602                4   7.99802475E+01   7.38763046E+01   7.38763046E+01  -6.10788536E+00  -6.10000563E+00   7.38763046E+01   7.38763046E+01  -6.10000563E+00  -6.10788536E+00   7.99841843E+01  -2.05561371E+01   7.99802475E+01  -5.49906921E+00   7.32674866E+01  -6.10000563E+00   6.95161819E+00
             1603                1   1.23421448E+02   1.51452179E+02   1.51452179E+02   2.77290077E+01   2.83346729E+01   1.51452179E+02   1.51452179E+02   2.83346729E+01   2.77290077E+01   1.23723167E+02  -6.91719513E+01   1.23418114E+02   2.77900162E+01   1.51391174E+02   2.83346729E+01   2.74662733E+00
             1603                2   1.23171646E+02   1.51285995E+02   1.51285995E+02   2.78952026E+01   2.83346729E+01   1.51285995E+02   1.51285995E+02   2.83346729E+01   2.78952026E+01   1.23390793E+02  -6.91719589E+01   1.23169884E+02   2.79711895E+01   1.51210007E+02   2.83346729E+01   3.06112075E+00
             1603                3   1.22942451E+02   1.51133423E+02   1.51133423E+02   2.80477676E+01   2.83346729E+01   1.51133423E+02   1.51133423E+02   2.83346729E+01   2.80477676E+01   1.23085648E+02  -6.91719513E+01   1.22941704E+02   2.81010666E+01   1.51080124E+02   2.83346729E+01   2.56068921E+00
             1603                4   1.22691589E+02   1.50966324E+02   1.50966324E+02   2.82148762E+01   2.83346729E+01   1.50966324E+02   1.50966324E+02   2.83346729E+01   2.82148762E+01   1.22751450E+02  -6.91719589E+01   1.22691452E+02   2.82822514E+01   1.50898941E+02   2.83346729E+01   2.87508345E+00
             1604                1   3.43706322E+01   3.23363342E+01   3.23363342E+01  -2.52561673E-04  -3.75930667E+00   3.23363342E+01   3.23363342E+01  -2.52561673E-04  -3.75930667E+00   3.60956421E+01  -9.52559185E+00   3.39035378E+01   6.17446542E-01   3.17186375E+01  -3.75930667E+00   4.42636538E+00
             1604                2   3.47285995E+01   3.25893326E+01   3.25893326E+01  -2.53247529E-01  -3.75930667E+00   3.25893326E+01   3.25893326E+01  -2.53247529E-01  -3.75930667E+00   3.63486404E+01  -9.52559376E+00   3.43270416E+01   3.74753058E-01   3.19613323E+01  -3.75930667E+00   4.49786663E+00
             1604                3   3.43659058E+01   3.23329849E+01   3.23329849E+01   3.09729320E-03  -3.75930667E+00   3.23329849E+01   3.23329849E+01   3.09729320E-03  -3.75930667E+00   3.60922928E+01  -9.52559185E+00   3.38979034E+01   6.92296743E-01   3.16437874E+01  -3.75930667E+00   4.66976690E+00
             1604                4   3.47237549E+01   3.25859184E+01   3.25859184E+01  -2.49831736E-01  -3.75930667E+00   3.25859184E+01   3.25859184E+01  -2.49831736E-01  -3.75930667E+00   3.63452263E+01  -9.52559376E+00   3.43213463E+01   4.49655801E-01   3.18864288E+01  -3.75930667E+00   4.74119568E+00
             1605                1   6.77186279E+01   6.25679970E+01   6.25679970E+01  -3.58451486E+00  -6.61499739E+00   6.25679970E+01   6.25679970E+01  -3.58451486E+00  -6.61499739E+00   6.91829910E+01  -1.74561615E+01   6.75658112E+01   5.17601013E+00   5.38074722E+01  -6.61499739E+00   2.24228439E+01
             1605                2   6.83164139E+01   6.29752464E+01   6.29752464E+01  -3.99176383E+00  -6.61499739E+00   6.29752464E+01   6.29752464E+01  -3.99176383E+00  -6.61499739E+00   6.95902405E+01  -1.74561615E+01   6.82029572E+01   4.28341293E+00   5.47000694E+01  -6.61499739E+00   2.20382690E+01
             1605                3   6.87143326E+01   6.32455673E+01   6.32455673E+01  -4.26208639E+00  -6.61499739E+00   6.32455673E+01   6.32455673E+01  -4.26208639E+00  -6.61499739E+00   6.98605652E+01  -1.74561615E+01   6.86236038E+01   5.09539461E+00   5.38880882E+01  -6.61499739E+00   2.33267899E+01
             1605                4   6.93463364E+01   6.36736946E+01   6.36736946E+01  -4.69021034E+00  -6.61499739E+00   6.36736946E+01   6.36736946E+01  -4.69021034E+00  -6.61499739E+00   7.02886887E+01  -1.74561615E+01   6.92861938E+01   4.18960428E+00   5.47938766E+01  -6.61499739E+00   2.29827709E+01
             1606                1   2.20000000E+02   2.09452454E+02   2.09452454E+02  -3.08834686E+01   1.80175209E+01   2.09452454E+02   2.09452454E+02   1.80175209E+01  -3.08834686E+01   2.40335922E+02  -6.55288315E+01   2.07235962E+02  -3.08830128E+01   2.09451996E+02   1.80175209E+01   3.31496298E-01
             1606                2   2.20000000E+02   2.09138931E+02   2.09138931E+02  -3.20723343E+01   1.95199089E+01   2.09138931E+02   2.09138931E+02   1.95199089E+01  -3.20723343E+01   2.41211258E+02  -6.55288315E+01   2.05717834E+02  -3.20595779E+01   2.09126175E+02   1.95199089E+01   1.75362122E+00
             1606                3   2.20000000E+02   2.09687225E+02   2.09687225E+02  -2.99405384E+01   1.68398132E+01   2.09687225E+02   2.09687225E+02   1.68398132E+01  -2.99405384E+01   2.39627762E+02  -6.55288315E+01   2.08364120E+02  -2.98988514E+01   2.09645538E+02   1.68398132E+01   3.16042805E+00
             1606                4   2.20000000E+02   2.09374908E+02   2.09374908E+02  -3.11845894E+01   1.83961887E+01   2.09374908E+02   2.09374908E+02   1.83961887E+01  -3.11845894E+01   2.40559494E+02  -6.55288391E+01   2.06861710E+02  -3.10976753E+01   2.09287994E+02   1.83961887E+01   4.57179403E+00
             1607                1   1.05529114E+02   1.08085762E+02   1.08085762E+02   2.54396987E+00   2.56933022E+00   1.08085762E+02   1.08085762E+02   2.56933022E+00   2.54396987E+00   1.05541794E+02  -3.77330208E+01   1.05529106E+02   2.55310059E+00   1.08076630E+02   2.56933022E+00   9.81624365E-01
             1607                2   1.05558784E+02   1.08105545E+02   1.08105545E+02   2.52418900E+00   2.56933022E+00   1.08105545E+02   1.08105545E+02   2.56933022E+00   2.52418900E+00   1.05581352E+02  -3.77330208E+01   1.05558769E+02   2.53408194E+00   1.08095650E+02   2.56933022E+00   1.02189505E+00
             1607                3   1.05469254E+02   1.08045860E+02   1.08045860E+02   2.58387232E+00   2.56933022E+00   1.08045860E+02   1.08045860E+02   2.58387232E+00   2.56933022E+00   1.05476524E+02  -3.77330208E+01   1.05469261E+02   2.59337211E+00   1.08036362E+02   2.56933022E+00   1.00070488E+00
             1607                4   1.05498940E+02   1.08065643E+02   1.08065643E+02   2.56408381E+00   2.56933022E+00   1.08065643E+02   1.08065643E+02   2.56933022E+00   2.56408381E+00   1.05501564E+02  -3.77330208E+01   1.05498940E+02   2.57435536E+00   1.08055374E+02   2.56933022E+00   1.04097414E+00
             1608                1   7.20505753E+01   6.60334625E+01   6.60334625E+01  -5.51913595E+00  -6.50497961E+00   6.60334625E+01   6.60334625E+01  -5.51913595E+00  -6.50497961E+00   7.25384369E+01  -1.80031147E+01   7.20353928E+01  -3.88894343E+00   6.44032669E+01  -6.50497961E+00   1.06764641E+01
             1608                2   7.25235443E+01   6.63506012E+01   6.63506012E+01  -5.83628035E+00  -6.50497961E+00   6.63506012E+01   6.63506012E+01  -5.83628035E+00  -6.50497961E+00   7.28555832E+01  -1.80031147E+01   7.25166016E+01  -4.25756788E+00   6.47718887E+01  -6.50497961E+00   1.05579338E+01
             1608                3   7.23800430E+01   6.62544556E+01   6.62544556E+01  -5.74013376E+00  -6.50497961E+00   6.62544556E+01   6.62544556E+01  -5.74013376E+00  -6.50497961E+00   7.27594376E+01  -1.80031147E+01   7.23709488E+01  -4.00333929E+00   6.45176620E+01  -6.50497961E+00   1.10464163E+01
             1608                4   7.28505096E+01   6.65694275E+01   6.65694275E+01  -6.05510521E+00  -6.50497961E+00   6.65694275E+01   6.65694275E+01  -6.05510521E+00  -6.50497961E+00   7.30744019E+01  -1.80031147E+01   7.28473816E+01  -4.37183428E+00   6.48861542E+01  -6.50497961E+00   1.09276438E+01
             1609                1   8.28128052E+01   7.67670135E+01   7.67670135E+01  -6.07271528E+00  -6.01884747E+00   7.67670135E+01   7.67670135E+01  -6.01884747E+00  -6.07271528E+00   8.28397293E+01  -2.15584850E+01   8.28127670E+01  -5.60999918E+00   7.63042984E+01  -6.01884747E+00   6.17390251E+00
             1609                2   8.25556335E+01   7.65955353E+01   7.65955353E+01  -5.90122604E+00  -6.01884747E+00   7.65955353E+01   7.65955353E+01  -5.90122604E+00  -6.01884747E+00   8.26143799E+01  -2.15584869E+01   8.25554352E+01  -5.41582060E+00   7.61101227E+01  -6.01884747E+00   6.30944109E+00
             1609                3   8.25699539E+01   7.66050873E+01   7.66050873E+01  -5.91078186E+00  -6.01884747E+00   7.66050873E+01   7.66050873E+01  -5.91078186E+00  -6.01884747E+00   8.26239319E+01  -2.15584869E+01   8.25697937E+01  -5.47534418E+00   7.61696472E+01  -6.01884747E+00   5.97838640E+00
             1609                4   8.23121567E+01   7.64330139E+01   7.64330139E+01  -5.73871136E+00  -6.01884747E+00   7.64330139E+01   7.64330139E+01  -5.73871136E+00  -6.01884747E+00   8.24518661E+01  -2.15584869E+01   8.23110809E+01  -5.28123474E+00   7.59755402E+01  -6.01884747E+00   6.11410999E+00
             1610                1   5.82944145E+01   5.65649643E+01   5.65649643E+01  -1.59526265E+00  -1.86271989E+00   5.65649643E+01   5.65649643E+01  -1.59526265E+00  -1.86271989E+00   5.84276810E+01  -1.77023258E+01   5.82930336E+01  -1.22880435E+00   5.61985054E+01  -1.86271989E+00   4.60205793E+00
             1610                2   5.84394722E+01   5.66618500E+01   5.66618500E+01  -1.69215035E+00  -1.86271989E+00   5.66618500E+01   5.66618500E+01  -1.69215035E+00  -1.86271989E+00   5.85245705E+01  -1.77023258E+01   5.84389114E+01  -1.35757577E+00   5.63272743E+01  -1.86271989E+00   4.40589380E+00
             1610                3   5.86154213E+01   5.67792625E+01   5.67792625E+01  -1.80956161E+00  -1.86271989E+00   5.67792625E+01   5.67792625E+01  -1.80956161E+00  -1.86271989E+00   5.86419830E+01  -1.77023258E+01   5.86153679E+01  -1.42502332E+00   5.63947220E+01  -1.86271989E+00   4.73094559E+00
             1610                4   5.87595673E+01   5.68753624E+01   5.68753624E+01  -1.90566337E+00  -1.86271989E+00   5.68753624E+01   5.68753624E+01  -1.86271989E+00  -1.90566337E+00   5.87810249E+01  -1.77023258E+01   5.87595329E+01  -1.55370057E+00   5.65233994E+01  -1.86271989E+00   4.53485584E+00
             1611                1   5.40725670E+01   5.37364578E+01   5.37364578E+01  -3.16248447E-01  -3.55953932E-01   5.37364578E+01   5.37364578E+01  -3.16248447E-01  -3.55953932E-01   5.40924110E+01  -1.76880856E+01   5.40725365E+01   1.50387824E-01   5.32698212E+01  -3.55953932E-01   5.00051498E+00
             1611                2   5.37411804E+01   5.35152206E+01   5.35152206E+01  -9.50103477E-02  -3.55953932E-01   5.35152206E+01   5.35152206E+01  -9.50103477E-02  -3.55953932E-01   5.38711777E+01  -1.76880856E+01   5.37397537E+01   3.51546705E-01   5.30686646E+01  -3.55953932E-01   4.87243700E+00
             1611                3   5.42074013E+01   5.38263435E+01   5.38263435E+01  -4.06130344E-01  -3.55953932E-01   5.38263435E+01   5.38263435E+01  -3.55953932E-01  -4.06130344E-01   5.42324715E+01  -1.76880856E+01   5.42073479E+01   2.20516231E-02   5.33981590E+01  -3.55953932E-01   4.79980087E+00
             1611                4   5.38769760E+01   5.36059341E+01   5.36059341E+01  -1.85725242E-01  -3.55953932E-01   5.36059341E+01   5.36059341E+01  -1.85725242E-01  -3.55953932E-01   5.39618874E+01  -1.76880856E+01   5.38763695E+01   2.23099366E-01   5.31971092E+01  -3.55953932E-01   4.67163610E+00
             1612                1   2.99625149E+01   2.24474220E+01   2.24474220E+01  -1.05303323E+00  -1.12925472E+01   2.24474220E+01   2.24474220E+01  -1.05303323E+00  -1.12925472E+01   3.37399673E+01  -3.36728024E+00   2.55563660E+01   2.34770274E+00   1.90466862E+01  -1.12925472E+01   8.26763725E+00
             1612                2   3.05001507E+01   2.28997955E+01   2.28997955E+01  -1.50540638E+00  -1.12925472E+01   2.28997955E+01   2.28997955E+01  -1.50540638E+00  -1.12925472E+01   3.41923447E+01  -3.36728096E+00   2.66070328E+01   1.80821133E+00   1.95861778E+01  -1.12925472E+01   8.35999203E+00
             1612                3   3.03426075E+01   2.27681675E+01   2.27681675E+01  -1.37377656E+00  -1.12925472E+01   2.27681675E+01   2.27681675E+01  -1.37377656E+00  -1.12925472E+01   3.40607147E+01  -3.36728096E+00   2.63058987E+01   2.51207066E+00   1.88823185E+01  -1.12925472E+01   8.87198448E+00
             1612                4   3.08565865E+01   2.31949291E+01   2.31949291E+01  -1.80054104E+00  -1.12925472E+01   2.31949291E+01   2.31949291E+01  -1.80054104E+00  -1.12925472E+01   3.44874763E+01  -3.36728024E+00   2.72697048E+01   1.96827698E+00   1.94261112E+01  -1.12925472E+01   8.94423771E+00
             1613                1   6.12802925E+01   5.81823273E+01   5.81823273E+01  -2.88053942E+00  -3.31309485E+00   5.81823273E+01   5.81823273E+01  -2.88053942E+00  -3.31309485E+00   6.14954224E+01  -1.73295650E+01   6.12768555E+01  -2.23065352E+00   5.75324402E+01  -3.31309485E+00   6.26591110E+00
             1613                2   6.14995613E+01   5.83289375E+01   5.83289375E+01  -3.02715087E+00  -3.31309485E+00   5.83289375E+01   5.83289375E+01  -3.02715087E+00  -3.31309485E+00   6.16420326E+01  -1.73295650E+01   6.14980659E+01  -2.41679406E+00   5.77185822E+01  -3.31309485E+00   6.08905458E+00
             1613                3   6.15967102E+01   5.83938370E+01   5.83938370E+01  -3.09205008E+00  -3.31309485E+00   5.83938370E+01   5.83938370E+01  -3.09205008E+00  -3.31309485E+00   6.17069321E+01  -1.73295650E+01   6.15958138E+01  -2.40730047E+00   5.77090874E+01  -3.31309485E+00   6.45241308E+00
             1613                4   6.18147354E+01   5.85393677E+01   5.85393677E+01  -3.23757815E+00  -3.31309485E+00   5.85393677E+01   5.85393677E+01  -3.23757815E+00  -3.31309485E+00   6.18524628E+01  -1.73295650E+01   6.18146362E+01  -2.59335995E+00   5.78951492E+01  -3.31309485E+00   6.27556849E+00
             1614                1   6.22547073E+01   5.97546310E+01   5.97546310E+01  -2.55647516E+00  -2.44353175E+00   5.97546310E+01   5.97546310E+01  -2.44353175E+00  -2.55647516E+00   6.23111038E+01  -1.82515411E+01   6.22544785E+01  -2.53791285E+00   5.97360687E+01  -2.44353175E+00   1.07526767E+00
             1614                2   6.22151222E+01   5.97282600E+01   5.97282600E+01  -2.53010058E+00  -2.44353175E+00   5.97282600E+01   5.97282600E+01  -2.44353175E+00  -2.53010058E+00   6.22583580E+01  -1.82515430E+01   6.22149849E+01  -2.50377774E+00   5.97019348E+01  -2.44353175E+00   1.27992392E+00
             1614                3   6.19458542E+01   5.95487442E+01   5.95487442E+01  -2.35058570E+00  -2.44353175E+00   5.95487442E+01   5.95487442E+01  -2.35058570E+00  -2.44353175E+00   6.19922752E+01  -1.82515430E+01   6.19456978E+01  -2.33308530E+00   5.95312424E+01  -2.44353175E+00   1.04068947E+00
             1614                4   6.19059982E+01   5.95221481E+01   5.95221481E+01  -2.32399106E+00  -2.44353175E+00   5.95221481E+01   5.95221481E+01  -2.32399106E+00  -2.44353175E+00   6.19656792E+01  -1.82515430E+01   6.19057388E+01  -2.29890394E+00   5.94970627E+01  -2.44353175E+00   1.24534345E+00
             1615                1   2.96377792E+01   2.77314034E+01   2.77314034E+01  -1.22621700E-01  -3.41515803E+00   2.77314034E+01   2.77314034E+01  -1.22621700E-01  -3.41515803E+00   3.11465607E+01  -8.06454182E+00   2.92220650E+01  -1.19404681E-01   2.77281857E+01  -3.41515803E+00   2.99365968E-01
             1615                2   2.95141068E+01   2.76435814E+01   2.76435814E+01  -3.47997732E-02  -3.41515803E+00   2.76435814E+01   2.76435814E+01  -3.47997732E-02  -3.41515803E+00   3.10587387E+01  -8.06454182E+00   2.90737991E+01  -2.42752656E-02   2.76330566E+01  -3.41515803E+00   5.39632022E-01
             1615                3   2.92977867E+01   2.74895096E+01   2.74895096E+01   1.19270787E-01  -3.41515803E+00   2.74895096E+01   2.74895096E+01   1.19270787E-01  -3.41515803E+00   3.09046669E+01  -8.06454086E+00   2.88122883E+01   1.20802827E-01   2.74879780E+01  -3.41515803E+00   2.04707965E-01
             1615                4   2.91728039E+01   2.74002190E+01   2.74002190E+01   2.08563387E-01  -3.41515803E+00   2.74002190E+01   2.74002190E+01   2.08563387E-01  -3.41515803E+00   3.08153763E+01  -8.06454182E+00   2.86598969E+01   2.15844393E-01   2.73929367E+01  -3.41515803E+00   4.44914669E-01
             1616                1   9.23496246E+01   8.75500946E+01   8.75500946E+01  -4.85155964E+00  -4.74741316E+00   8.75500946E+01   8.75500946E+01  -4.74741316E+00  -4.85155964E+00   9.24016495E+01  -2.59837055E+01   9.23494873E+01  -4.62366581E+00   8.73221970E+01  -4.74741316E+00   4.58322287E+00
             1616                2   9.21631393E+01   8.74257965E+01   8.74257965E+01  -4.72726440E+00  -4.74741316E+00   8.74257965E+01   8.74257965E+01  -4.72726440E+00  -4.74741316E+00   9.21732101E+01  -2.59837055E+01   9.21631317E+01  -4.48953390E+00   8.71880646E+01  -4.74741316E+00   4.67452812E+00
             1616                3   9.21939621E+01   8.74463501E+01   8.74463501E+01  -4.74781752E+00  -4.74741316E+00   8.74463501E+01   8.74463501E+01  -4.74741316E+00  -4.74781752E+00   9.21941681E+01  -2.59837055E+01   9.21939621E+01  -4.53266954E+00   8.72312012E+01  -4.74741316E+00   4.44849825E+00
             1616                4   9.20071259E+01   8.73217545E+01   8.73217545E+01  -4.62321854E+00  -4.74741316E+00   8.73217545E+01   8.73217545E+01  -4.62321854E+00  -4.74741316E+00   9.20691605E+01  -2.59837055E+01   9.20069427E+01  -4.39851904E+00   8.70970535E+01  -4.74741316E+00   4.53974628E+00
             1617                1   2.14423035E+02   2.30690109E+02   2.30690109E+02  -1.57004356E+00   4.02724113E+01   2.30690109E+02   2.30690109E+02   4.02724113E+01  -1.57004356E+00   2.32260162E+02  -8.97974930E+01   2.04933533E+02  -1.56819224E+00   2.30688263E+02   4.02724113E+01  -6.55863822E-01
             1617                2   2.14337921E+02   2.30674011E+02   2.30674011E+02  -1.35157752E+00   4.00700607E+01   2.30674011E+02   2.30674011E+02   4.00700607E+01  -1.35157752E+00   2.32025589E+02  -8.97974930E+01   2.05040787E+02  -1.33583474E+00   2.30658264E+02   4.00700607E+01   1.91138935E+00
             1617                3   2.13924377E+02   2.30536697E+02   2.30536697E+02  -5.44706166E-01   3.94004898E+01   2.30536697E+02   2.30536697E+02   3.94004898E+01  -5.44706166E-01   2.31081406E+02  -8.97974930E+01   2.05280670E+02  -5.36328554E-01   2.30528320E+02   3.94004898E+01  -1.39112878E+00
             1617                4   2.13832169E+02   2.30516830E+02   2.30516830E+02  -3.09367716E-01   3.91850204E+01   2.30516830E+02   2.30516830E+02   3.91850204E+01  -3.09367716E-01   2.30826187E+02  -8.97974930E+01   2.05384491E+02  -3.03446591E-01   2.30510910E+02   3.91850204E+01   1.16857743E+00
             1618                1   8.84617081E+01   8.29111633E+01   8.29111633E+01  -5.59732437E+00  -5.50368786E+00   8.29111633E+01   8.29111633E+01  -5.50368786E+00  -5.59732437E+00   8.85084839E+01  -2.39367161E+01   8.84615860E+01  -5.49121380E+00   8.28050461E+01  -5.50368786E+00   3.06278992E+00
             1618                2   8.83352737E+01   8.28268967E+01   8.28268967E+01  -5.51306009E+00  -5.50368786E+00   8.28268967E+01   8.28268967E+01  -5.50368786E+00  -5.51306009E+00   8.83399582E+01  -2.39367161E+01   8.83352661E+01  -5.39843178E+00   8.27122650E+01  -5.50368786E+00   3.18013906E+00
             1618                3   8.82767258E+01   8.27878647E+01   8.27878647E+01  -5.47403002E+00  -5.50368786E+00   8.27878647E+01   8.27878647E+01  -5.47403002E+00  -5.50368786E+00   8.82915497E+01  -2.39367161E+01   8.82767181E+01  -5.37399769E+00   8.26878357E+01  -5.50368786E+00   2.96964526E+00
             1618                4   8.81500320E+01   8.27033615E+01   8.27033615E+01  -5.38952827E+00  -5.50368786E+00   8.27033615E+01   8.27033615E+01  -5.38952827E+00  -5.50368786E+00   8.82070541E+01  -2.39367161E+01   8.81498566E+01  -5.28122282E+00   8.25950546E+01  -5.50368786E+00   3.08698893E+00
             1619                1   2.20000000E+02   1.92490585E+02   1.92490585E+02  -4.32732162E+01  -7.31549072E+00   1.92490585E+02   1.92490585E+02  -7.31549072E+00  -4.32732162E+01   2.35763809E+02  -4.73006287E+01   2.13238022E+02  -4.29460373E+01   1.92163406E+02  -7.31549072E+00   8.77675724E+00
             1619                2   2.20000000E+02   1.92949768E+02   1.92949768E+02  -4.04597855E+01  -1.05881004E+01   1.92949768E+02   1.92949768E+02  -1.05881004E+01  -4.04597855E+01   2.33409546E+02  -4.73006248E+01   2.15366486E+02  -4.04312630E+01   1.92921234E+02  -1.05881004E+01   2.58025885E+00
             1619                3   2.20000000E+02   1.92060303E+02   1.92060303E+02  -4.54951897E+01  -4.66323423E+00   1.92060303E+02   1.92060303E+02  -4.66323423E+00  -4.54951897E+01   2.37555481E+02  -4.73006248E+01   2.11220993E+02  -4.54784508E+01   1.92043564E+02  -4.66323423E+00   1.99379361E+00
             1619                4   2.20000000E+02   1.92547104E+02   1.92547104E+02  -4.29558105E+01  -7.68941879E+00   1.92547104E+02   1.92547104E+02  -7.68941879E+00  -4.29558105E+01   2.35502914E+02  -4.73006248E+01   2.13501312E+02  -4.28868408E+01   1.92478134E+02  -7.68941879E+00  -4.02958250E+00
             1620                1   8.59998398E+01   8.04843063E+01   8.04843063E+01  -5.28155565E+00  -5.74762249E+00   8.04843063E+01   8.04843063E+01  -5.28155565E+00  -5.74762249E+00   8.62319260E+01  -2.31517105E+01   8.59970016E+01  -4.03575039E+00   7.92385025E+01  -5.74762249E+00   1.02613564E+01
             1620                2   8.64552155E+01   8.07884445E+01   8.07884445E+01  -5.58569384E+00  -5.74762249E+00   8.07884445E+01   8.07884445E+01  -5.58569384E+00  -5.74762249E+00   8.65360641E+01  -2.31517105E+01   8.64548721E+01  -4.37384462E+00   7.95765991E+01  -5.74762249E+00   1.01589155E+01
             1620                3   8.62655334E+01   8.06618271E+01   8.06618271E+01  -5.45906878E+00  -5.74762249E+00   8.06618271E+01   8.06618271E+01  -5.45906878E+00  -5.74762249E+00   8.64094467E+01  -2.31517124E+01   8.62644424E+01  -4.13333368E+00   7.93360901E+01  -5.74762249E+00   1.06026478E+01
             1620                4   8.67205582E+01   8.09654160E+01   8.09654160E+01  -5.76266003E+00  -5.74762249E+00   8.09654160E+01   8.09654160E+01  -5.74762249E+00  -5.76266003E+00   8.67280807E+01  -2.31517124E+01   8.67205582E+01  -4.47182512E+00   7.96745834E+01  -5.74762249E+00   1.05016870E+01
             1621                1   3.77999954E+01   4.54962578E+01   4.54962578E+01   7.61275959E+00   7.78032160E+00   4.54962578E+01   4.54962578E+01   7.78032160E+00   7.61275959E+00   3.78834991E+01  -2.02964458E+01   3.77991562E+01   7.78427887E+00   4.53247375E+01   7.78032160E+00   2.54329276E+00
             1621                2   3.74103737E+01   4.52366371E+01   4.52366371E+01   7.87237740E+00   7.78032160E+00   4.52366371E+01   4.52366371E+01   7.87237740E+00   7.78032160E+00   3.74563179E+01  -2.02964458E+01   3.74101181E+01   8.03872204E+00   4.50702934E+01   7.78032160E+00   2.48751068E+00
             1621                3   3.78310852E+01   4.55169373E+01   4.55169373E+01   7.59208107E+00   7.78032160E+00   4.55169373E+01   4.55169373E+01   7.78032160E+00   7.59208107E+00   3.79248543E+01  -2.02964458E+01   3.78300285E+01   7.73212290E+00   4.53768921E+01   7.78032160E+00   2.30032849E+00
             1621                4   3.74391441E+01   4.52558403E+01   4.52558403E+01   7.85317564E+00   7.78032160E+00   4.52558403E+01   4.52558403E+01   7.85317564E+00   7.78032160E+00   3.74755173E+01  -2.02964458E+01   3.74389839E+01   7.98817921E+00   4.51208382E+01   7.78032160E+00   2.24304056E+00
             1622                1   1.80048599E+02   1.70160110E+02   1.70160110E+02  -1.11835184E+01  -8.56490040E+00   1.70160110E+02   1.70160110E+02  -8.56490040E+00  -1.11835184E+01   1.81343628E+02  -5.01372337E+01   1.80005737E+02  -1.11818600E+01   1.70158447E+02  -8.56490040E+00   5.49381733E-01
             1622                2   1.78318649E+02   1.69016190E+02   1.69016190E+02  -9.14182663E+00  -9.46267986E+00   1.69016190E+02   1.69016190E+02  -9.14182663E+00  -9.46267986E+00   1.78478867E+02  -5.01372261E+01   1.78318008E+02  -9.13013458E+00   1.69004501E+02  -9.46267986E+00   1.44274235E+00
             1622                3   1.79566788E+02   1.69843842E+02   1.69843842E+02  -1.06239252E+01  -8.80822372E+00   1.69843842E+02   1.69843842E+02  -8.80822372E+00  -1.06239252E+01   1.80467758E+02  -5.01372261E+01   1.79546143E+02  -1.05922194E+01   1.69812134E+02  -8.80822372E+00  -2.39166665E+00
             1622                4   1.77816467E+02   1.68679642E+02   1.68679642E+02  -8.55166245E+00  -9.71628571E+00   1.68679642E+02   1.68679642E+02  -8.55166245E+00  -9.71628571E+00   1.78395920E+02  -5.01372261E+01   1.77807907E+02  -8.53859901E+00   1.68666580E+02  -9.71628571E+00  -1.52122319E+00
             1623                1   6.56164322E+01   6.00533752E+01   6.00533752E+01  -4.90010500E+00  -6.20649242E+00   6.00533752E+01   6.00533752E+01  -4.90010500E+00  -6.20649242E+00   6.62598648E+01  -1.63155918E+01   6.55871582E+01  -3.03751063E+00   5.81907806E+01  -6.20649242E+00   1.08403311E+01
             1623                2   6.60917206E+01   6.03730545E+01   6.03730545E+01  -5.21978474E+00  -6.20649242E+00   6.03730545E+01   6.03730545E+01  -5.21978474E+00  -6.20649242E+00   6.65795517E+01  -1.63155918E+01   6.60751419E+01  -3.41446781E+00   5.85677376E+01  -6.20649242E+00   1.07311115E+01
             1623                3   6.59536667E+01   6.02802849E+01   6.02802849E+01  -5.12701464E+00  -6.20649242E+00   6.02802849E+01   6.02802849E+01  -5.12701464E+00  -6.20649242E+00   6.64867783E+01  -1.63155918E+01   6.59337845E+01  -3.14301252E+00   5.82962837E+01  -6.20649242E+00   1.12174826E+01
             1623                4   6.64265442E+01   6.05977707E+01   6.05977707E+01  -5.44450140E+00  -6.20649242E+00   6.05977707E+01   6.05977707E+01  -5.44450140E+00  -6.20649242E+00   6.68042679E+01  -1.63155918E+01   6.64167099E+01  -3.52000690E+00   5.86732788E+01  -6.20649242E+00   1.11082954E+01
             1624                1   8.89127579E+01   8.41699600E+01   8.41699600E+01  -4.51339722E+00  -4.97044134E+00   8.41699600E+01   8.41699600E+01  -4.51339722E+00  -4.97044134E+00   8.91404037E+01  -2.48953724E+01   8.89101181E+01  -2.79199934E+00   8.24485626E+01  -4.97044134E+00   1.22350359E+01
             1624                2   8.94583435E+01   8.45342484E+01   8.45342484E+01  -4.87768555E+00  -4.97044134E+00   8.45342484E+01   8.45342484E+01  -4.87768555E+00  -4.97044134E+00   8.95046921E+01  -2.48953724E+01   8.94582443E+01  -3.19320345E+00   8.28497696E+01  -4.97044134E+00   1.21562748E+01
             1624                3   8.91870117E+01   8.43531723E+01   8.43531723E+01  -4.69660568E+00  -4.97044134E+00   8.43531723E+01   8.43531723E+01  -4.69660568E+00  -4.97044134E+00   8.93236084E+01  -2.48953724E+01   8.91860657E+01  -2.86466455E+00   8.25212250E+01  -4.97044134E+00   1.26403379E+01
             1624                4   8.97308273E+01   8.47159042E+01   8.47159042E+01  -5.05933952E+00  -4.97044134E+00   8.47159042E+01   8.47159042E+01  -4.97044134E+00  -5.05933952E+00   8.97752380E+01  -2.48953724E+01   8.97307281E+01  -3.26602674E+00   8.29225922E+01  -4.97044134E+00   1.25610065E+01
             1625                1   1.92569702E+02   1.67254730E+02   1.67254730E+02  -2.64948254E+01  -2.41130352E+01   1.67254730E+02   1.67254730E+02  -2.41130352E+01  -2.64948254E+01   1.93749557E+02  -3.88822899E+01   1.92536560E+02  -2.64913082E+01   1.67251205E+02  -2.41130352E+01  -8.26212108E-01
             1625                2   1.91404343E+02   1.66484436E+02   1.66484436E+02  -2.45400410E+01  -2.52975426E+01   1.66484436E+02   1.66484436E+02  -2.45400410E+01  -2.52975426E+01   1.91781982E+02  -3.88822823E+01   1.91400986E+02  -2.45400009E+01   1.66484406E+02  -2.52975426E+01  -7.80532584E-02
             1625                3   1.92244522E+02   1.67041336E+02   1.67041336E+02  -2.60712376E+01  -2.43232288E+01   1.67041336E+02   1.67041336E+02  -2.43232288E+01  -2.60712376E+01   1.93112564E+02  -3.88822899E+01   1.92226639E+02  -2.59902725E+01   1.66960373E+02  -2.43232288E+01  -3.95313787E+00
             1625                4   1.91066299E+02   1.66257172E+02   1.66257172E+02  -2.40935860E+01  -2.55167179E+01   1.66257172E+02   1.66257172E+02  -2.40935860E+01  -2.55167179E+01   1.91773895E+02  -3.88822899E+01   1.91054382E+02  -2.40386353E+01   1.66202225E+02  -2.55167179E+01  -3.23371196E+00
             1626                1   3.96279221E+01   3.82245407E+01   3.82245407E+01  -4.66601938E-01  -2.27803421E+00   3.82245407E+01   3.82245407E+01  -4.66601938E-01  -2.27803421E+00   4.05025749E+01  -1.18266344E+01   3.95346107E+01   9.85458016E-01   3.67724800E+01  -2.27803421E+00   7.35346127E+00
             1626                2   3.93404541E+01   3.80279694E+01   3.80279694E+01  -2.70029932E-01  -2.27803421E+00   3.80279694E+01   3.80279694E+01  -2.70029932E-01  -2.27803421E+00   4.03060036E+01  -1.18266344E+01   3.92249031E+01   1.19904232E+00   3.65588951E+01  -2.27803421E+00   7.35556841E+00
             1626                3   3.95115166E+01   3.81450119E+01   3.81450119E+01  -3.87073308E-01  -2.27803421E+00   3.81450119E+01   3.81450119E+01  -3.87073308E-01  -2.27803421E+00   4.04230461E+01  -1.18266344E+01   3.94095154E+01   9.84073222E-01   3.67738647E+01  -2.27803421E+00   7.13814449E+00
             1626                4   3.92226906E+01   3.79472733E+01   3.79472733E+01  -1.89334124E-01  -2.27803421E+00   3.79472733E+01   3.79472733E+01  -1.89334124E-01  -2.27803421E+00   4.02253075E+01  -1.18266344E+01   3.90972672E+01   1.19766891E+00   3.65602684E+01  -2.27803421E+00   7.13945723E+00
             1627                1   2.16992340E+02   2.22960098E+02   2.22960098E+02  -6.28293324E+00   2.07520561E+01   2.22960098E+02   2.22960098E+02   2.07520561E+01  -6.28293324E+00   2.29243042E+02  -7.91430740E+01   2.13153961E+02  -6.28134108E+00   2.22958511E+02   2.07520561E+01   6.04092181E-01
             1627                2   2.17211014E+02   2.22948654E+02   2.22948654E+02  -7.48532867E+00   2.19658947E+01   2.22948654E+02   2.22948654E+02   2.19658947E+01  -7.48532867E+00   2.30433975E+02  -7.91430740E+01   2.12649399E+02  -7.39844656E+00   2.22861771E+02   2.19658947E+01   4.47343683E+00
             1627                3   2.16616623E+02   2.22911789E+02   2.22911789E+02  -4.52430296E+00   1.90417404E+01   2.22911789E+02   2.22911789E+02   1.90417404E+01  -4.52430296E+00   2.27436081E+02  -7.91430740E+01   2.13704071E+02  -4.47288370E+00   2.22860367E+02   1.90417404E+01   3.41929984E+00
             1627                4   2.16853348E+02   2.22919449E+02   2.22919449E+02  -5.83678675E+00   2.03465633E+01   2.22919449E+02   2.22919449E+02   2.03465633E+01  -5.83678675E+00   2.28756226E+02  -7.91430740E+01   2.13253555E+02  -5.59947252E+00   2.22682129E+02   2.03465633E+01   7.36416054E+00
             1628                1   2.10629654E+02   1.67852768E+02   1.67852768E+02  -4.50148659E+01  -4.04652100E+01   1.67852768E+02   1.67852768E+02  -4.04652100E+01  -4.50148659E+01   2.12867630E+02  -2.74575634E+01   2.10519058E+02  -4.49444656E+01   1.67782364E+02  -4.04652100E+01  -3.87040162E+00
             1628                2   2.11335373E+02   1.68233231E+02   1.68233231E+02  -4.78500099E+01  -3.80105362E+01   1.68233231E+02   1.68233231E+02  -3.80105362E+01  -4.78500099E+01   2.16083237E+02  -2.74575634E+01   2.10819077E+02  -4.75863647E+01   1.67969589E+02  -3.80105362E+01  -7.54317427E+00
             1628                3   2.11127228E+02   1.68131271E+02   1.68131271E+02  -4.69308357E+01  -3.88277512E+01   1.68131271E+02   1.68131271E+02  -3.88277512E+01  -4.69308357E+01   2.15062103E+02  -2.74575634E+01   2.10776932E+02  -4.69231262E+01   1.68123566E+02  -3.88277512E+01   1.28748286E+00
             1628                4   2.11790955E+02   1.68449097E+02   1.68449097E+02  -4.95837555E+01  -3.64926491E+01   1.68449097E+02   1.68449097E+02  -3.64926491E+01  -4.95837555E+01   2.18032852E+02  -2.74575653E+01   2.10877792E+02  -4.95563660E+01   1.68421707E+02  -3.64926491E+01  -2.44365883E+00
             1629                1   3.37419701E+01   2.85327797E+01   2.85327797E+01  -1.10319865E+00  -8.18959713E+00   2.85327797E+01   2.85327797E+01  -1.10319865E+00  -8.18959713E+00   3.67223778E+01  -6.41332769E+00   3.20028305E+01   3.34930360E-01   2.70946503E+01  -8.18959713E+00   6.36805677E+00
             1629                2   3.32442169E+01   2.81528854E+01   2.81528854E+01  -7.23304212E-01  -8.18959713E+00   2.81528854E+01   2.81528854E+01  -7.23304212E-01  -8.18959713E+00   3.63424835E+01  -6.41332769E+00   3.12732162E+01   7.19522715E-01   2.67100582E+01  -8.18959713E+00   6.29138994E+00
             1629                3   3.36396637E+01   2.84550400E+01   2.84550400E+01  -1.02545917E+00  -8.18959713E+00   2.84550400E+01   2.84550400E+01  -1.02545917E+00  -8.18959713E+00   3.66446381E+01  -6.41332769E+00   3.18547134E+01   2.42382511E-01   2.71871986E+01  -8.18959713E+00   5.98073339E+00
             1629                4   3.31391525E+01   2.80721493E+01   2.80721493E+01  -6.42568588E-01  -8.18959713E+00   2.80721493E+01   2.80721493E+01  -6.42568588E-01  -8.18959713E+00   3.62617455E+01  -6.41332769E+00   3.11162243E+01   6.26442254E-01   2.68031387E+01  -8.18959713E+00   5.90160084E+00
             1630                1   1.87363434E+02   1.96650772E+02   1.96650772E+02   2.69725108E+00   1.66584702E+01   1.96650772E+02   1.96650772E+02   1.66584702E+01   2.69725108E+00   1.93953522E+02  -7.20021667E+01   1.86187759E+02   2.84331155E+00   1.96504715E+02   1.66584702E+01   5.32041454E+00
             1630                2   1.88807999E+02   1.97523682E+02   1.97523682E+02   1.11223328E+00   1.73705826E+01   1.97523682E+02   1.97523682E+02   1.73705826E+01   1.11223328E+00   1.96411438E+02  -7.20021667E+01   1.87223373E+02   1.13050961E+00   1.97505402E+02   1.73705826E+01   1.89449739E+00
             1630                3   1.89193741E+02   1.97739700E+02   1.97739700E+02   5.32387674E-01   1.77343998E+01   1.97739700E+02   1.97739700E+02   1.77343998E+01   5.32387674E-01   1.97207321E+02  -7.20021667E+01   1.87422195E+02   8.52275491E-01   1.97419815E+02   1.77343998E+01   7.93616438E+00
             1630                4   1.90598221E+02   1.98571960E+02   1.98571960E+02  -9.93090153E-01   1.84276218E+01   1.98571960E+02   1.98571960E+02   1.84276218E+01  -9.93090153E-01   1.99565048E+02  -7.20021667E+01   1.88352890E+02  -8.89577448E-01   1.98468445E+02   1.84276218E+01   4.54399204E+00
             1631                1   1.95659378E+02   1.78916351E+02   1.78916351E+02  -2.04112625E+01  -1.28559475E+01   1.78916351E+02   1.78916351E+02  -1.28559475E+01  -2.04112625E+01   1.99327606E+02  -4.85497131E+01   1.95330765E+02  -2.03667450E+01   1.78871826E+02  -1.28559475E+01  -2.97852302E+00
             1631                2   1.94535614E+02   1.78211533E+02   1.78211533E+02  -1.86389999E+01  -1.39234133E+01   1.78211533E+02   1.78211533E+02  -1.39234133E+01  -1.86389999E+01   1.96850540E+02  -4.85497093E+01   1.94406967E+02  -1.86356277E+01   1.78208176E+02  -1.39234133E+01  -8.13766241E-01
             1631                3   1.94761002E+02   1.78349518E+02   1.78349518E+02  -1.91707973E+01  -1.35295963E+01   1.78349518E+02   1.78349518E+02  -1.35295963E+01  -1.91707973E+01   1.97520325E+02  -4.85497093E+01   1.94577057E+02  -1.89996815E+01   1.78178406E+02  -1.35295963E+01  -5.81118488E+00
             1631                4   1.93604919E+02   1.77610153E+02   1.77610153E+02  -1.73374729E+01  -1.46235294E+01   1.77610153E+02   1.77610153E+02  -1.46235294E+01  -1.73374729E+01   1.94947617E+02  -4.85497131E+01   1.93562119E+02  -1.72686367E+01   1.77541306E+02  -1.46235294E+01  -3.66274428E+00
             1632                1   2.19245926E+02   2.28263702E+02   2.28263702E+02  -8.22978497E+00   3.17744236E+01   2.28263702E+02   2.28263702E+02   3.17744236E+01  -8.22978497E+00   2.36493484E+02  -8.39361191E+01   2.10798904E+02  -8.22015572E+00   2.28254074E+02   3.17744236E+01  -1.50914836E+00
             1632                2   2.19322327E+02   2.27879242E+02   2.27879242E+02  -1.02700129E+01   3.41991196E+01   2.27879242E+02   2.27879242E+02   3.41991196E+01  -1.02700129E+01   2.38149246E+02  -8.39361191E+01   2.08814713E+02  -9.98705292E+00   2.27596268E+02   3.41991196E+01  -8.20417595E+00
             1632                3   2.19360718E+02   2.27821350E+02   2.27821350E+02  -1.06446457E+01   3.46316299E+01   2.27821350E+02   2.27821350E+02   3.46316299E+01  -1.06446457E+01   2.38466003E+02  -8.39361191E+01   2.08455353E+02  -1.05863686E+01   2.27763077E+02   3.46316299E+01   3.72753882E+00
             1632                4   2.19429871E+02   2.27428574E+02   2.27428574E+02  -1.24527378E+01   3.68325119E+01   2.27428574E+02   2.27428574E+02   3.68325119E+01  -1.24527378E+01   2.39881302E+02  -8.39361191E+01   2.06418152E+02  -1.24157152E+01   2.27391541E+02   3.68325119E+01  -2.98005939E+00
             1633                1   7.93695374E+01   7.36373749E+01   7.36373749E+01  -5.66349125E+00  -5.80065966E+00   7.36373749E+01   7.36373749E+01  -5.66349125E+00  -5.80065966E+00   7.94380341E+01  -2.07244091E+01   7.93692780E+01  -5.57261419E+00   7.35465012E+01  -5.80065966E+00   2.68294430E+00
             1633                2   7.94769440E+01   7.37090225E+01   7.37090225E+01  -5.73514175E+00  -5.80065966E+00   7.37090225E+01   7.37090225E+01  -5.73514175E+00  -5.80065966E+00   7.95096893E+01  -2.07244091E+01   7.94768829E+01  -5.65475512E+00   7.36286392E+01  -5.80065966E+00   2.52582860E+00
             1633                3   7.96129532E+01   7.37997055E+01   7.37997055E+01  -5.82582188E+00  -5.80065966E+00   7.37997055E+01   7.37997055E+01  -5.80065966E+00  -5.82582188E+00   7.96255264E+01  -2.07244091E+01   7.96129379E+01  -5.72966146E+00   7.37035446E+01  -5.80065966E+00   2.76544333E+00
             1633                4   7.97200699E+01   7.38710938E+01   7.38710938E+01  -5.89720964E+00  -5.80065966E+00   7.38710938E+01   7.38710938E+01  -5.80065966E+00  -5.89720964E+00   7.97683029E+01  -2.07244091E+01   7.97199402E+01  -5.81182814E+00   7.37857132E+01  -5.80065966E+00   2.60833263E+00
             1634                1   3.15095062E+01   2.83720398E+01   2.83720398E+01  -1.12028673E-01  -5.47464609E+00   2.83720398E+01   2.83720398E+01  -1.12028673E-01  -5.47464609E+00   3.38466873E+01  -7.59512186E+00   3.04573555E+01   2.69343644E-01   2.79906673E+01  -5.47464609E+00   3.27377605E+00
             1634                2   3.11306934E+01   2.80915928E+01   2.80915928E+01   1.68419749E-01  -5.47464609E+00   2.80915928E+01   2.80915928E+01   1.68419749E-01  -5.47464609E+00   3.35662384E+01  -7.59512186E+00   2.99473839E+01   5.35359979E-01   2.77246513E+01  -5.47464609E+00   3.17985845E+00
             1634                3   3.15569344E+01   2.84069996E+01   2.84069996E+01  -1.46988258E-01  -5.47464609E+00   2.84069996E+01   2.84069996E+01  -1.46988258E-01  -5.47464609E+00   3.38816452E+01  -7.59512186E+00   3.05204372E+01   1.73415750E-01   2.80865955E+01  -5.47464609E+00   3.00768423E+00
             1634                4   3.11785698E+01   2.81271572E+01   2.81271572E+01   1.32853627E-01  -5.47464609E+00   2.81271572E+01   2.81271572E+01   1.32853627E-01  -5.47464609E+00   3.36018028E+01  -7.59512186E+00   3.00124531E+01   4.39492315E-01   2.78205185E+01  -5.47464609E+00   2.91378331E+00
             1635                1   4.05287514E+01   3.71261063E+01   3.71261063E+01  -1.23362553E+00  -5.26966333E+00   3.71261063E+01   3.71261063E+01  -1.23362553E+00  -5.26966333E+00   4.23957672E+01  -1.02076054E+01   4.00728798E+01   4.00093675E-01   3.54923859E+01  -5.26966333E+00   7.74596453E+00
             1635                2   4.09654808E+01   3.74329224E+01   3.74329224E+01  -1.54044509E+00  -5.26966333E+00   3.74329224E+01   3.74329224E+01  -1.54044509E+00  -5.26966333E+00   4.27025871E+01  -1.02076054E+01   4.05809555E+01   7.41270855E-02   3.58183517E+01  -5.26966333E+00   7.76649714E+00
             1635                3   4.06913528E+01   3.72405205E+01   3.72405205E+01  -1.34804213E+00  -5.26966333E+00   3.72405205E+01   3.72405205E+01  -1.34804213E+00  -5.26966333E+00   4.25101852E+01  -1.02076054E+01   4.02629013E+01   4.30240273E-01   3.54622383E+01  -5.26966333E+00   8.09067917E+00
             1635                4   4.11250877E+01   3.75446663E+01   3.75446663E+01  -1.65218544E+00  -5.26966333E+00   3.75446663E+01   3.75446663E+01  -1.65218544E+00  -5.26966333E+00   4.28143272E+01  -1.02076054E+01   4.07648315E+01   1.03532352E-01   3.57889481E+01  -5.26966333E+00   8.10777473E+00
             1636                1   6.61096954E+01   6.24971199E+01   6.24971199E+01  -3.54108787E+00  -3.68382454E+00   6.24971199E+01   6.24971199E+01  -3.54108787E+00  -3.68382454E+00   6.61809464E+01  -1.84240704E+01   6.61093445E+01  -3.47237968E+00   6.24284096E+01  -3.68382454E+00   2.12903142E+00
             1636                2   6.61848526E+01   6.25472717E+01   6.25472717E+01  -3.59124160E+00  -3.68382454E+00   6.25472717E+01   6.25472717E+01  -3.59124160E+00  -3.68382454E+00   6.62310944E+01  -1.84240704E+01   6.61847076E+01  -3.53459263E+00   6.24906235E+01  -3.68382454E+00   1.93482304E+00
             1636                3   6.64068756E+01   6.26953049E+01   6.26953049E+01  -3.73927832E+00  -3.68382454E+00   6.26953049E+01   6.26953049E+01  -3.68382454E+00  -3.73927832E+00   6.64345856E+01  -1.84240665E+01   6.64068298E+01  -3.66687298E+00   6.26229019E+01  -3.68382454E+00   2.19203997E+00
             1636                4   6.64816971E+01   6.27451553E+01   6.27451553E+01  -3.78912473E+00  -3.68382454E+00   6.27451553E+01   6.27451553E+01  -3.68382454E+00  -3.78912473E+00   6.65342789E+01  -1.84240704E+01   6.64815063E+01  -3.72908092E+00   6.26851120E+01  -3.68382454E+00   1.99785423E+00
             1637                1   4.96887093E+01   4.37559509E+01   4.37559509E+01  -3.47346640E+00  -8.07230282E+00   4.37559509E+01   4.37559509E+01  -3.47346640E+00  -8.07230282E+00   5.18282547E+01  -1.07367277E+01   4.92064857E+01  -1.85361356E-01   4.04678459E+01  -8.07230282E+00   1.20201378E+01
             1637                2   5.03395576E+01   4.42110481E+01   4.42110481E+01  -3.92856622E+00  -8.07230282E+00   4.42110481E+01   4.42110481E+01  -3.92856622E+00  -8.07230282E+00   5.22833519E+01  -1.07367258E+01   4.99536896E+01  -7.01587975E-01   4.09840698E+01  -8.07230282E+00   1.20387754E+01
             1637                3   5.00542030E+01   4.40118599E+01   4.40118599E+01  -3.72937655E+00  -8.07230282E+00   4.40118599E+01   4.40118599E+01  -3.72937655E+00  -8.07230282E+00   5.20841599E+01  -1.07367258E+01   4.96276627E+01  -1.54644623E-01   4.04371262E+01  -8.07230282E+00   1.25651674E+01
             1637                4   5.06990852E+01   4.44612808E+01   4.44612808E+01  -4.17879581E+00  -8.07230282E+00   4.44612808E+01   4.44612808E+01  -4.17879581E+00  -8.07230282E+00   5.25335846E+01  -1.07367277E+01   5.03610725E+01  -6.75218523E-01   4.09577026E+01  -8.07230282E+00   1.25753450E+01
             1638                1   3.59623337E+01   3.74184074E+01   3.74184074E+01   1.03835297E+00   1.88888073E+00   3.74184074E+01   3.74184074E+01   1.88888073E+00   1.03835297E+00   3.63800545E+01  -1.34485474E+01   3.59396935E+01   2.22216010E+00   3.62346001E+01   1.88888073E+00   6.45488787E+00
             1638                2   3.60375824E+01   3.74679832E+01   3.74679832E+01   9.88775253E-01   1.88888073E+00   3.74679832E+01   3.74679832E+01   1.88888073E+00   9.88775253E-01   3.64792061E+01  -1.34485464E+01   3.60122795E+01   2.17051482E+00   3.62862434E+01   1.88888073E+00   6.45851040E+00
             1638                3   3.59874153E+01   3.74349327E+01   3.74349327E+01   1.02182722E+00   1.88888073E+00   3.74349327E+01   3.74349327E+01   1.88888073E+00   1.02182722E+00   3.64131050E+01  -1.34485474E+01   3.59639015E+01   2.22550583E+00   3.62312546E+01   1.88888073E+00   6.51005650E+00
             1638                4   3.60612526E+01   3.74835663E+01   3.74835663E+01   9.73193109E-01   1.88888073E+00   3.74835663E+01   3.74835663E+01   1.88888073E+00   9.73193109E-01   3.65103760E+01  -1.34485474E+01   3.60350761E+01   2.17436957E+00   3.62823906E+01   1.88888073E+00   6.51249456E+00
             1639                1   8.59787674E+01   8.01548309E+01   8.01548309E+01  -5.87026739E+00  -5.77753687E+00   8.01548309E+01   8.01548309E+01  -5.77753687E+00  -5.87026739E+00   8.60250931E+01  -2.28356762E+01   8.59786530E+01  -5.67255783E+00   7.99571228E+01  -5.77753687E+00   4.11929369E+00
             1639                2   8.58082275E+01   8.00411606E+01   8.00411606E+01  -5.75659323E+00  -5.77753687E+00   8.00411606E+01   8.00411606E+01  -5.75659323E+00  -5.77753687E+00   8.58187027E+01  -2.28356781E+01   8.58082199E+01  -5.54579401E+00   7.98303604E+01  -5.77753687E+00   4.24757338E+00
             1639                3   8.57694244E+01   8.00152893E+01   8.00152893E+01  -5.73072147E+00  -5.77753687E+00   8.00152893E+01   8.00152893E+01  -5.73072147E+00  -5.77753687E+00   8.57928238E+01  -2.28356781E+01   8.57694016E+01  -5.54446888E+00   7.98290405E+01  -5.77753687E+00   3.99192953E+00
             1639                4   8.55984955E+01   7.99012680E+01   7.99012680E+01  -5.61669779E+00  -5.77753687E+00   7.99012680E+01   7.99012680E+01  -5.61669779E+00  -5.77753687E+00   8.56788025E+01  -2.28356781E+01   8.55981522E+01  -5.41772461E+00   7.97022934E+01  -5.77753687E+00   4.12021589E+00
             1640                1   7.85681076E+01   7.24732361E+01   7.24732361E+01  -5.75683641E+00  -6.42859459E+00   7.24732361E+01   7.24732361E+01  -5.75683641E+00  -6.42859459E+00   7.89018326E+01  -2.00959339E+01   7.85616455E+01  -4.45230436E+00   7.11687012E+01  -6.42859459E+00   1.00175896E+01
             1640                2   7.90110703E+01   7.27695389E+01   7.27695389E+01  -6.05313730E+00  -6.42859459E+00   7.27695389E+01   7.27695389E+01  -6.05313730E+00  -6.42859459E+00   7.91981354E+01  -2.00959339E+01   7.90090637E+01  -4.79056120E+00   7.15069580E+01  -6.42859459E+00   9.89574528E+00
             1640                3   7.88706284E+01   7.26756592E+01   7.26756592E+01  -5.95926285E+00  -6.42859459E+00   7.26756592E+01   7.26756592E+01  -5.95926285E+00  -6.42859459E+00   7.91042480E+01  -2.00959320E+01   7.88674927E+01  -4.57020283E+00   7.12865982E+01  -6.42859459E+00   1.03585196E+01
             1640                4   7.93117142E+01   7.29703140E+01   7.29703140E+01  -6.25392151E+00  -6.42859459E+00   7.29703140E+01   7.29703140E+01  -6.25392151E+00  -6.42859459E+00   7.93989105E+01  -2.00959320E+01   7.93112869E+01  -4.90849924E+00   7.16248932E+01  -6.42859459E+00   1.02361994E+01
             1641                1   1.06482590E+02   1.10532829E+02   1.10532829E+02   4.02230501E+00   4.07820702E+00   1.10532829E+02   1.10532829E+02   4.07820702E+00   4.02230501E+00   1.06510529E+02  -3.95444489E+01   1.06482552E+02   4.30063343E+00   1.10254501E+02   4.07820702E+00   5.43762255E+00
             1641                2   1.06542831E+02   1.10572975E+02   1.10572975E+02   3.98215222E+00   4.07820702E+00   1.10572975E+02   1.10572975E+02   4.07820702E+00   3.98215222E+00   1.06590828E+02  -3.95444450E+01   1.06542732E+02   4.25033474E+00   1.10304794E+02   4.07820702E+00   5.33984756E+00
             1641                3   1.06635582E+02   1.10634773E+02   1.10634773E+02   3.92035532E+00   4.07820702E+00   1.10634773E+02   1.10634773E+02   4.07820702E+00   3.92035532E+00   1.06714417E+02  -3.95444450E+01   1.06635315E+02   4.20339537E+00   1.10351738E+02   4.07820702E+00   5.48853302E+00
             1641                4   1.06695763E+02   1.10674858E+02   1.10674858E+02   3.88027573E+00   4.07820702E+00   1.10674858E+02   1.10674858E+02   4.07820702E+00   3.88027573E+00   1.06794586E+02  -3.95444489E+01   1.06695343E+02   4.15308142E+00   1.10402054E+02   4.07820702E+00   5.39073277E+00
             1642                1   2.91682472E+01   2.63273506E+01   2.63273506E+01   2.07044184E-01  -5.14703035E+00   2.63273506E+01   2.63273506E+01   2.07044184E-01  -5.14703035E+00   3.14743805E+01  -7.12912178E+00   2.80305233E+01   2.51517355E-01   2.62828770E+01  -5.14703035E+00   1.07689285E+00
             1642                2   2.94912434E+01   2.65669422E+01   2.65669422E+01  -3.25487107E-02  -5.14703035E+00   2.65669422E+01   2.65669422E+01  -3.25487107E-02  -5.14703035E+00   3.17139721E+01  -7.12912130E+00   2.84677162E+01   1.94459204E-02   2.65149479E+01  -5.14703035E+00   1.17486763E+00
             1642                3   2.90649605E+01   2.62503681E+01   2.62503681E+01   2.84025967E-01  -5.14703035E+00   2.62503681E+01   2.62503681E+01   2.84025967E-01  -5.14703035E+00   3.13973980E+01  -7.12912130E+00   2.78888474E+01   3.50180119E-01   2.61842136E+01  -5.14703035E+00   1.30896664E+00
             1642                4   2.93890533E+01   2.64913254E+01   2.64913254E+01   4.30677272E-02  -5.14703035E+00   2.64913254E+01   2.64913254E+01   4.30677272E-02  -5.14703035E+00   3.16383553E+01  -7.12912130E+00   2.83303375E+01   1.18120790E-01   2.64162731E+01  -5.14703035E+00   1.40690231E+00
             1643                1   8.06957474E+01   7.47188721E+01   7.47188721E+01  -5.75344706E+00  -6.19845915E+00   7.47188721E+01   7.47188721E+01  -5.75344706E+00  -6.19845915E+00   8.09173279E+01  -2.09223213E+01   8.06929855E+01  -4.92064857E+00   7.38860703E+01  -6.19845915E+00   8.14394474E+00
             1643                2   8.10509109E+01   7.49561310E+01   7.49561310E+01  -5.99070549E+00  -6.19845915E+00   7.49561310E+01   7.49561310E+01  -5.99070549E+00  -6.19845915E+00   8.11545868E+01  -2.09223213E+01   8.10503159E+01  -5.18986940E+00   7.41552963E+01  -6.19845915E+00   8.01146221E+00
             1643                3   8.09690628E+01   7.49014816E+01   7.49014816E+01  -5.93605947E+00  -6.19845915E+00   7.49014816E+01   7.49014816E+01  -5.93605947E+00  -6.19845915E+00   8.10999451E+01  -2.09223213E+01   8.09681015E+01  -5.04981279E+00   7.40152359E+01  -6.19845915E+00   8.41763687E+00
             1643                4   8.13232040E+01   7.51377869E+01   7.51377869E+01  -6.17236710E+00  -6.19845915E+00   7.51377869E+01   7.51377869E+01  -6.17236710E+00  -6.19845915E+00   8.13362503E+01  -2.09223213E+01   8.13231964E+01  -5.31916094E+00   7.42845840E+01  -6.19845915E+00   8.28531170E+00
             1644                1   5.75890999E+01   5.65105400E+01   5.65105400E+01  -1.13184094E+00  -1.02512681E+00   5.65105400E+01   5.65105400E+01  -1.02512681E+00  -1.13184094E+00   5.76423836E+01  -1.81178570E+01   5.75888786E+01  -1.03409052E+00   5.64127922E+01  -1.02512681E+00   2.37169290E+00
             1644                2   5.75155678E+01   5.64615555E+01   5.64615555E+01  -1.08285427E+00  -1.02512681E+00   5.64615555E+01   5.64615555E+01  -1.02512681E+00  -1.08285427E+00   5.75444069E+01  -1.81178570E+01   5.75155029E+01  -9.66805279E-01   5.63455048E+01  -1.02512681E+00   2.58157849E+00
             1644                3   5.72671165E+01   5.62958870E+01   5.62958870E+01  -9.17181432E-01  -1.02512681E+00   5.62958870E+01   5.62958870E+01  -9.17181432E-01  -1.02512681E+00   5.73210106E+01  -1.81178589E+01   5.72668877E+01  -8.24251056E-01   5.62029533E+01  -1.02512681E+00   2.30397463E+00
             1644                4   5.71929512E+01   5.62463837E+01   5.62463837E+01  -8.67683172E-01  -1.02512681E+00   5.62463837E+01   5.62463837E+01  -8.67683172E-01  -1.02512681E+00   5.72715111E+01  -1.81178570E+01   5.71924629E+01  -7.56821692E-01   5.61355209E+01  -1.02512681E+00   2.51386476E+00
             1645                1   9.79578247E+01   9.57746277E+01   9.57746277E+01  -2.34019804E+00  -2.02542996E+00   9.57746277E+01   9.57746277E+01  -2.02542996E+00  -2.34019804E+00   9.81148300E+01  -3.04696674E+01   9.79566879E+01  -1.07881773E+00   9.45132523E+01  -2.02542996E+00   1.10530033E+01
             1645                2   9.75128860E+01   9.54782639E+01   9.54782639E+01  -2.04382730E+00  -2.02542996E+00   9.54782639E+01   9.54782639E+01  -2.02542996E+00  -2.04382730E+00   9.75220871E+01  -3.04696674E+01   9.75128860E+01  -7.66012847E-01   9.42004471E+01  -2.02542996E+00   1.10897341E+01
             1645                3   9.77996368E+01   9.56693115E+01   9.56693115E+01  -2.23488188E+00  -2.02542996E+00   9.56693115E+01   9.56693115E+01  -2.02542996E+00  -2.23488188E+00   9.79041977E+01  -3.04696674E+01   9.77991333E+01  -1.04311121E+00   9.44775467E+01  -2.02542996E+00   1.07358646E+01
             1645                4   9.73543777E+01   9.53725739E+01   9.53725739E+01  -1.93813014E+00  -2.02542996E+00   9.53725739E+01   9.53725739E+01  -1.93813014E+00  -2.02542996E+00   9.73980026E+01  -3.04696712E+01   9.73542938E+01  -7.30660737E-01   9.41651001E+01  -2.02542996E+00   1.07722712E+01
             1646                1   1.05220909E+02   1.07733780E+02   1.07733780E+02   2.51151204E+00   2.51422668E+00   1.07733780E+02   1.07733780E+02   2.51422668E+00   2.51151204E+00   1.05222267E+02  -3.75865059E+01   1.05220909E+02   2.65209556E+00   1.07593201E+02   2.51422668E+00   3.84348512E+00
             1646                2   1.05267021E+02   1.07764519E+02   1.07764519E+02   2.48077273E+00   2.51422668E+00   1.07764519E+02   1.07764519E+02   2.51422668E+00   2.48077273E+00   1.05283745E+02  -3.75865059E+01   1.05267014E+02   2.61585498E+00   1.07629440E+02   2.51422668E+00   3.76874399E+00
             1646                3   1.05336113E+02   1.07810562E+02   1.07810562E+02   2.43472743E+00   2.51422668E+00   1.07810562E+02   1.07810562E+02   2.51422668E+00   2.43472743E+00   1.05375839E+02  -3.75865059E+01   1.05336044E+02   2.57778907E+00   1.07667503E+02   2.51422668E+00   3.88005114E+00
             1646                4   1.05382202E+02   1.07841278E+02   1.07841278E+02   2.40401101E+00   2.51422668E+00   1.07841278E+02   1.07841278E+02   2.51422668E+00   2.40401101E+00   1.05437271E+02  -3.75865059E+01   1.05382072E+02   2.54152942E+00   1.07703766E+02   2.51422668E+00   3.80530977E+00
             1647                1   2.73846722E+01   2.16291866E+01   2.16291866E+01  -2.01297730E-01  -9.09748459E+00   2.16291866E+01   2.16291866E+01  -2.01297730E-01  -9.09748459E+00   3.07266712E+01  -4.11013460E+00   2.37919559E+01   3.32862020E-01   2.10950260E+01  -9.09748459E+00   3.37278175E+00
             1647                2   2.69654751E+01   2.12755756E+01   2.12755756E+01   1.52311921E-01  -9.09748459E+00   2.12755756E+01   2.12755756E+01   1.52311921E-01  -9.09748459E+00   3.03730602E+01  -4.11013412E+00   2.29662380E+01   6.67412579E-01   2.07604752E+01  -9.09748459E+00   3.25810719E+00
             1647                3   2.74003849E+01   2.16423225E+01   2.16423225E+01  -2.14433804E-01  -9.09748459E+00   2.16423225E+01   2.16423225E+01  -2.14433804E-01  -9.09748459E+00   3.07398071E+01  -4.11013460E+00   2.38220463E+01   2.16603994E-01   2.12112846E+01  -9.09748459E+00   3.03896356E+00
             1647                4   2.69814148E+01   2.12891369E+01   2.12891369E+01   1.38752639E-01  -9.09748459E+00   2.12891369E+01   2.12891369E+01   1.38752639E-01  -9.09748459E+00   3.03866215E+01  -4.11013460E+00   2.29984894E+01   5.51113188E-01   2.08767757E+01  -9.09748459E+00   2.92430186E+00
             1648                1   3.43587723E+01   4.31113434E+01   4.31113434E+01   8.67490482E+00   8.83076763E+00   4.31113434E+01   4.31113434E+01   8.83076763E+00   8.67490482E+00   3.44364395E+01  -2.02056713E+01   3.43579750E+01   9.35451412E+00   4.24317322E+01   8.83076763E+00   4.78972864E+00
             1648                2   3.43805008E+01   4.31257935E+01   4.31257935E+01   8.66045094E+00   8.83076763E+00   4.31257935E+01   4.31257935E+01   8.83076763E+00   8.66045094E+00   3.44653397E+01  -2.02056713E+01   3.43795509E+01   9.27391529E+00   4.25123291E+01   8.83076763E+00   4.55706978E+00
             1648                3   3.47344780E+01   4.33608055E+01   4.33608055E+01   8.42543983E+00   8.83076763E+00   4.33608055E+01   4.33608055E+01   8.83076763E+00   8.42543983E+00   3.49353676E+01  -2.02056713E+01   3.47291527E+01   9.11907005E+00   4.26671753E+01   8.83076763E+00   4.87351608E+00
             1648                4   3.47562981E+01   4.33752670E+01   4.33752670E+01   8.41097832E+00   8.83076763E+00   4.33752670E+01   4.33752670E+01   8.83076763E+00   8.41097832E+00   3.49642906E+01  -2.02056713E+01   3.47505913E+01   9.03805447E+00   4.27481918E+01   8.83076763E+00   4.64026594E+00
             1649                1   2.20000000E+02   2.17573395E+02   2.17573395E+02  -2.35435276E+01   2.77547379E+01   2.17573395E+02   2.17573395E+02   2.77547379E+01  -2.35435276E+01   2.41116913E+02  -7.39281998E+01   2.05888443E+02  -2.34978333E+01   2.17527695E+02   2.77547379E+01   3.31900716E+00
             1649                2   2.20000000E+02   2.17164368E+02   2.17164368E+02  -2.50007210E+01   2.96209469E+01   2.17164368E+02   2.17164368E+02   2.96209469E+01  -2.50007210E+01   2.42165085E+02  -7.39281998E+01   2.03889496E+02  -2.49808693E+01   2.17144516E+02   2.96209469E+01  -2.19268155E+00
             1649                3   2.20000000E+02   2.17038620E+02   2.17038620E+02  -2.54279099E+01   3.01738987E+01   2.17038620E+02   2.17038620E+02   3.01738987E+01  -2.54279099E+01   2.42466522E+02  -7.39281998E+01   2.03270065E+02  -2.52670174E+01   2.16877716E+02   3.01738987E+01   6.24390125E+00
             1649                4   2.20000000E+02   2.16646622E+02   2.16646622E+02  -2.67042542E+01   3.18422298E+01   2.16646622E+02   2.16646622E+02   3.18422298E+01  -2.67042542E+01   2.43350876E+02  -7.39281998E+01   2.01324402E+02  -2.67008018E+01   2.16643173E+02   3.18422298E+01   9.16194022E-01
             1650                1   3.42227440E+01   4.04046974E+01   4.04046974E+01   4.23018122E+00   8.54248333E+00   4.04046974E+01   4.04046974E+01   8.54248333E+00   4.23018122E+00   3.61745186E+01  -1.77257881E+01   3.36033363E+01   7.44808388E+00   3.71867943E+01   8.54248333E+00   1.02981167E+01
             1650                2   3.43913269E+01   4.05109711E+01   4.05109711E+01   4.12390518E+00   8.54248333E+00   4.05109711E+01   4.05109711E+01   8.54248333E+00   4.12390518E+00   3.63870659E+01  -1.77257862E+01   3.37438583E+01   7.16797352E+00   3.74669037E+01   8.54248333E+00   1.00746384E+01
             1650                3   3.47570877E+01   4.07412109E+01   4.07412109E+01   3.89367032E+00   8.54248333E+00   4.07412109E+01   4.07412109E+01   8.54248333E+00   3.89367032E+00   3.68475380E+01  -1.77257881E+01   3.40470963E+01   7.22875452E+00   3.74061241E+01   8.54248333E+00   1.05719852E+01
             1650                4   3.49228821E+01   4.08454208E+01   4.08454208E+01   3.78945971E+00   8.54248333E+00   4.08454208E+01   4.08454208E+01   8.54248333E+00   3.78945971E+00   3.70559616E+01  -1.77257881E+01   3.41838264E+01   6.95008755E+00   3.76847916E+01   8.54248333E+00   1.03503895E+01
             1651                1   6.40986099E+01   6.10714836E+01   6.10714836E+01  -2.96758413E+00  -3.08650851E+00   6.10714836E+01   6.10714836E+01  -2.96758413E+00  -3.08650851E+00   6.41579971E+01  -1.83391304E+01   6.40983658E+01  -2.94156146E+00   6.10454636E+01  -3.08650851E+00   1.29062331E+00
             1651                2   6.41417465E+01   6.11002617E+01   6.11002617E+01  -2.99636030E+00  -3.08650851E+00   6.11002617E+01   6.11002617E+01  -2.99636030E+00  -3.08650851E+00   6.41867676E+01  -1.83391304E+01   6.41416016E+01  -2.97780609E+00   6.10817070E+01  -3.08650851E+00   1.09043157E+00
             1651                3   6.44011993E+01   6.12732391E+01   6.12732391E+01  -3.16933775E+00  -3.08650851E+00   6.12732391E+01   6.12732391E+01  -3.08650851E+00  -3.16933775E+00   6.44425735E+01  -1.83391304E+01   6.44010773E+01  -3.14198756E+00   6.12458878E+01  -3.08650851E+00   1.32728827E+00
             1651                4   6.44441528E+01   6.13018532E+01   6.13018532E+01  -3.19795394E+00  -3.08650851E+00   6.13018532E+01   6.13018532E+01  -3.08650851E+00  -3.19795394E+00   6.44998093E+01  -1.83391304E+01   6.44439392E+01  -3.17824960E+00   6.12821503E+01  -3.08650851E+00   1.12713242E+00
             1652                1   2.02273911E+02   1.62986801E+02   1.62986801E+02  -4.16649818E+01  -3.68222771E+01   1.62986801E+02   1.62986801E+02  -3.68222771E+01  -4.16649818E+01   2.04651779E+02  -2.81665134E+01   2.02143433E+02  -4.16478691E+01   1.62969696E+02  -3.68222771E+01  -1.87107038E+00
             1652                2   2.01625443E+02   1.62582687E+02   1.62582687E+02  -3.94408455E+01  -3.86422882E+01   1.62582687E+02   1.62582687E+02  -3.86422882E+01  -3.94408455E+01   2.02023544E+02  -2.81665192E+01   2.01621887E+02  -3.94406738E+01   1.62582520E+02  -3.86422882E+01  -1.86699748E-01
             1652                3   2.01955048E+02   1.62789154E+02   1.62789154E+02  -4.08299026E+01  -3.74597054E+01   1.62789154E+02   1.62789154E+02  -3.74597054E+01  -4.08299026E+01   2.03619064E+02  -2.81665192E+01   2.01891769E+02  -4.06587334E+01   1.62617996E+02  -3.74597054E+01  -5.90111780E+00
             1652                4   2.01283463E+02   1.62354752E+02   1.62354752E+02  -3.85401344E+01  -3.93150673E+01   1.62354752E+02   1.62354752E+02  -3.85401344E+01  -3.93150673E+01   2.01669815E+02  -2.81665134E+01   2.01280106E+02  -3.84495468E+01   1.62264160E+02  -3.93150673E+01  -4.26494741E+00
             1653                1   2.42737617E+01   1.82386570E+01   1.82386570E+01   6.22605672E-03  -9.31391811E+00   1.82386570E+01   1.82386570E+01   6.22605672E-03  -9.31391811E+00   2.75525742E+01  -2.97698808E+00   1.95942745E+01   4.53778096E-02   1.81995049E+01  -9.31391811E+00   8.43977094E-01
             1653                2   2.39719543E+01   1.79684429E+01   1.79684429E+01   2.76439577E-01  -9.31391811E+00   1.79684429E+01   1.79684429E+01   2.76439577E-01  -9.31391811E+00   2.72823620E+01  -2.97698808E+00   1.88685188E+01   3.05772781E-01   1.79391098E+01  -9.31391811E+00   7.19793618E-01
             1653                3   2.43908939E+01   1.83422813E+01   1.83422813E+01  -9.73990336E-02  -9.31391811E+00   1.83422813E+01   1.83422813E+01  -9.73990336E-02  -9.31391811E+00   2.76562004E+01  -2.97698808E+00   1.98642597E+01  -7.89072812E-02   1.83237896E+01  -9.31391811E+00   5.83648026E-01
             1653                4   2.40904293E+01   1.80750847E+01   1.80750847E+01   1.69796258E-01  -9.31391811E+00   1.80750847E+01   1.80750847E+01   1.69796258E-01  -9.31391811E+00   2.73890018E+01  -2.97698760E+00   1.91589031E+01   1.81603029E-01   1.80632782E+01  -9.31391811E+00   4.59624082E-01
             1654                1   2.16086319E+02   2.13196045E+02   2.13196045E+02  -1.42469702E+01   1.06176519E+01   2.13196045E+02   2.13196045E+02   1.06176519E+01  -1.42469702E+01   2.27443024E+02  -6.98555756E+01   2.12832138E+02  -1.37067776E+01   2.12655853E+02   1.06176519E+01   1.10712452E+01
             1654                2   2.15311920E+02   2.12904083E+02   2.12904083E+02  -1.19602823E+01   8.62291813E+00   2.12904083E+02   2.12904083E+02   8.62291813E+00  -1.19602823E+01   2.24864365E+02  -6.98555756E+01   2.13081573E+02  -1.18225527E+01   2.12766357E+02   8.62291813E+00   5.56335020E+00
             1654                3   2.16397629E+02   2.13184769E+02   2.13184769E+02  -1.60171013E+01   1.23990574E+01   2.13184769E+02   2.13184769E+02   1.23990574E+01  -1.60171013E+01   2.29201874E+02  -6.98555756E+01   2.12139191E+02  -1.58966913E+01   2.13064362E+02   1.23990574E+01   5.25188828E+00
             1654                4   2.15816559E+02   2.13036026E+02   2.13036026E+02  -1.39867897E+01   1.05174961E+01   2.13036026E+02   2.13036026E+02   1.05174961E+01  -1.39867897E+01   2.27022812E+02  -6.98555832E+01   2.12652985E+02  -1.39863462E+01   2.13035583E+02   1.05174961E+01  -3.18161011E-01
             1655                1   7.71513062E+01   7.15835876E+01   7.15835876E+01  -5.49759388E+00  -5.63765240E+00   7.15835876E+01   7.15835876E+01  -5.49759388E+00  -5.63765240E+00   7.72212372E+01  -2.01494465E+01   7.71510162E+01  -5.41092634E+00   7.14969177E+01  -5.63765240E+00   2.58319688E+00
             1655                2   7.72535553E+01   7.16518021E+01   7.16518021E+01  -5.56581068E+00  -5.63765240E+00   7.16518021E+01   7.16518021E+01  -5.56581068E+00  -5.63765240E+00   7.72894516E+01  -2.01494465E+01   7.72534866E+01  -5.48998833E+00   7.15759811E+01  -5.63765240E+00   2.41845155E+00
             1655                3   7.74058456E+01   7.17533417E+01   7.17533417E+01  -5.66735697E+00  -5.63765240E+00   7.17533417E+01   7.17533417E+01  -5.63765240E+00  -5.66735697E+00   7.74207001E+01  -2.01494427E+01   7.74058380E+01  -5.57567215E+00   7.16616592E+01  -5.63765240E+00   2.66263151E+00
             1655                4   7.75077896E+01   7.18212738E+01   7.18212738E+01  -5.73528194E+00  -5.63765240E+00   7.18212738E+01   7.18212738E+01  -5.63765240E+00  -5.73528194E+00   7.75565567E+01  -2.01494465E+01   7.75076523E+01  -5.65474749E+00   7.17407379E+01  -5.63765240E+00   2.49790668E+00
             1656                1   7.94140625E+01   7.35364914E+01   7.35364914E+01  -5.92099047E+00  -5.83408022E+00   7.35364914E+01   7.35364914E+01  -5.83408022E+00  -5.92099047E+00   7.94574814E+01  -2.05938072E+01   7.94139557E+01  -5.75304747E+00   7.33685455E+01  -5.83408022E+00   3.64916277E+00
             1656                2   7.92649307E+01   7.34370956E+01   7.34370956E+01  -5.82159901E+00  -5.83408022E+00   7.34370956E+01   7.34370956E+01  -5.82159901E+00  -5.83408022E+00   7.92711716E+01  -2.05938053E+01   7.92649307E+01  -5.63851881E+00   7.32540131E+01  -5.83408022E+00   3.80488229E+00
             1656                3   7.91658859E+01   7.33710403E+01   7.33710403E+01  -5.75554752E+00  -5.83408022E+00   7.33710403E+01   7.33710403E+01  -5.75554752E+00  -5.83408022E+00   7.92051239E+01  -2.05938053E+01   7.91657944E+01  -5.59739685E+00   7.32128906E+01  -5.83408022E+00   3.53396559E+00
             1656                4   7.90163803E+01   7.32712936E+01   7.32712936E+01  -5.65579319E+00  -5.83408022E+00   7.32712936E+01   7.32712936E+01  -5.65579319E+00  -5.83408022E+00   7.91053772E+01  -2.05938072E+01   7.90159302E+01  -5.48292828E+00   7.30984268E+01  -5.83408022E+00   3.68972683E+00
             1657                1   2.84814453E+01   2.54237518E+01   2.54237518E+01  -9.29542854E-02  -5.30307484E+00   2.54237518E+01   2.54237518E+01  -9.29542854E-02  -5.30307484E+00   3.07268257E+01  -6.67590714E+00   2.73783264E+01  -8.82779434E-02   2.54190750E+01  -5.30307484E+00   3.45407218E-01
             1657                2   2.83644333E+01   2.53365612E+01   2.53365612E+01  -5.76393493E-03  -5.30307484E+00   2.53365612E+01   2.53365612E+01  -5.76393493E-03  -5.30307484E+00   3.06396351E+01  -6.67590714E+00   2.72179394E+01   6.57293014E-03   2.53242245E+01  -5.30307484E+00   5.59005737E-01
             1657                3   2.81924572E+01   2.52079735E+01   2.52079735E+01   1.22822829E-01  -5.30307484E+00   2.52079735E+01   2.52079735E+01   1.22822829E-01  -5.30307484E+00   3.05110493E+01  -6.67590714E+00   2.69799500E+01   1.25332430E-01   2.52054653E+01  -5.30307484E+00   2.50865847E-01
             1657                4   2.80743065E+01   2.51193218E+01   2.51193218E+01   2.11475343E-01  -5.30307484E+00   2.51193218E+01   2.51193218E+01   2.11475343E-01  -5.30307484E+00   3.04223976E+01  -6.67590714E+00   2.68148365E+01   2.20138803E-01   2.51106586E+01  -5.30307484E+00   4.64442283E-01
             1658                1   7.43497467E+01   6.86806793E+01   6.86806793E+01  -5.44041109E+00  -5.89563513E+00   6.86806793E+01   6.86806793E+01  -5.44041109E+00  -5.89563513E+00   7.45763168E+01  -1.91148777E+01   7.43466110E+01  -4.73449230E+00   6.79747620E+01  -5.89563513E+00   7.19897223E+00
             1658                2   7.46483765E+01   6.88802414E+01   6.88802414E+01  -5.63997793E+00  -5.89563513E+00   6.88802414E+01   6.88802414E+01  -5.63997793E+00  -5.89563513E+00   7.47758789E+01  -1.91148777E+01   7.46473923E+01  -4.96727705E+00   6.82075424E+01  -5.89563513E+00   7.04820919E+00
             1658                3   7.46384430E+01   6.88736038E+01   6.88736038E+01  -5.63333797E+00  -5.89563513E+00   6.88736038E+01   6.88736038E+01  -5.63333797E+00  -5.89563513E+00   7.47692413E+01  -1.91148777E+01   7.46374054E+01  -4.88416529E+00   6.81244354E+01  -5.89563513E+00   7.43352842E+00
             1658                4   7.49357376E+01   6.90720215E+01   6.90720215E+01  -5.83175516E+00  -5.89563513E+00   6.90720215E+01   6.90720215E+01  -5.83175516E+00  -5.89563513E+00   7.49676590E+01  -1.91148777E+01   7.49356766E+01  -5.11689425E+00   6.83571625E+01  -5.89563513E+00   7.28249025E+00
             1659                1   6.82526474E+01   6.27373276E+01   6.27373276E+01  -5.03904676E+00  -5.98183012E+00   6.27373276E+01   6.27373276E+01  -5.03904676E+00  -5.98183012E+00   6.87191544E+01  -1.72388172E+01   6.82379990E+01  -3.60027599E+00   6.12985573E+01  -5.98183012E+00   9.76957226E+00
             1659                2   6.86681671E+01   6.30159912E+01   6.30159912E+01  -5.31770754E+00  -5.98183012E+00   6.30159912E+01   6.30159912E+01  -5.31770754E+00  -5.98183012E+00   6.89978256E+01  -1.72388172E+01   6.86609421E+01  -3.92949009E+00   6.16277733E+01  -5.98183012E+00   9.64027119E+00
             1659                3   6.85766525E+01   6.29546700E+01   6.29546700E+01  -5.25638819E+00  -5.98183012E+00   6.29546700E+01   6.29546700E+01  -5.25638819E+00  -5.98183012E+00   6.89365005E+01  -1.72388172E+01   6.85680237E+01  -3.72675967E+00   6.14250412E+01  -5.98183012E+00   1.00993929E+01
             1659                4   6.89899673E+01   6.32313995E+01   6.32313995E+01  -5.53311586E+00  -5.98183012E+00   6.32313995E+01   6.32313995E+01  -5.53311586E+00  -5.98183012E+00   6.92132263E+01  -1.72388172E+01   6.89866791E+01  -4.05588675E+00   6.17541695E+01  -5.98183012E+00   9.96988964E+00
             1660                1   9.85245743E+01   9.60206146E+01   9.60206146E+01  -2.52384162E+00  -2.48407269E+00   9.60206146E+01   9.60206146E+01  -2.48407269E+00  -2.52384162E+00   9.85444565E+01  -3.03375683E+01   9.85245590E+01  -2.39985347E+00   9.58966293E+01  -2.48407269E+00   3.49323010E+00
             1660                2   9.85965195E+01   9.60685654E+01   9.60685654E+01  -2.57178164E+00  -2.48407269E+00   9.60685654E+01   9.60685654E+01  -2.48407269E+00  -2.57178164E+00   9.86403427E+01  -3.03375702E+01   9.85964279E+01  -2.44117856E+00   9.59379578E+01  -2.48407269E+00   3.58689284E+00
             1660                3   9.83891449E+01   9.59303207E+01   9.59303207E+01  -2.43354392E+00  -2.48407269E+00   9.59303207E+01   9.59303207E+01  -2.43354392E+00  -2.48407269E+00   9.84143982E+01  -3.03375702E+01   9.83891068E+01  -2.30638242E+00   9.58031616E+01  -2.48407269E+00   3.53440785E+00
             1660                4   9.84612045E+01   9.59783707E+01   9.59783707E+01  -2.48158836E+00  -2.48407269E+00   9.59783707E+01   9.59783707E+01  -2.48158836E+00  -2.48407269E+00   9.84624405E+01  -3.03375702E+01   9.84611969E+01  -2.34772062E+00   9.58444977E+01  -2.48407269E+00   3.62808824E+00
             1661                1   2.89661522E+01   2.56671352E+01   2.56671352E+01   4.64110449E-02  -5.76369333E+00   2.56671352E+01   2.56671352E+01   4.64110449E-02  -5.76369333E+00   3.14308281E+01  -6.64995146E+00   2.76090851E+01   1.31303579E-01   2.55822430E+01  -5.76369333E+00   1.47234738E+00
             1661                2   2.86438885E+01   2.54232712E+01   2.54232712E+01   2.90275693E-01  -5.76369333E+00   2.54232712E+01   2.54232712E+01   2.90275693E-01  -5.76369333E+00   3.11869640E+01  -6.64995146E+00   2.71479073E+01   3.65530938E-01   2.53480167E+01  -5.76369333E+00   1.37320900E+00
             1661                3   2.90652809E+01   2.57417622E+01   2.57417622E+01  -2.82151606E-02  -5.76369333E+00   2.57417622E+01   2.57417622E+01  -2.82151606E-02  -5.76369333E+00   3.15054550E+01  -6.64995146E+00   2.77489014E+01   3.13948989E-02   2.56821518E+01  -5.76369333E+00   1.23798144E+00
             1661                4   2.87440929E+01   2.54993095E+01   2.54993095E+01   2.14237615E-01  -5.76369333E+00   2.54993095E+01   2.54993095E+01   2.14237615E-01  -5.76369333E+00   3.12630024E+01  -6.64995146E+00   2.72924232E+01   2.65631944E-01   2.54479141E+01  -5.76369333E+00   1.13880873E+00
             1662                1   1.01538490E+02   1.01021599E+02   1.01021599E+02  -5.94807327E-01  -4.38804924E-01   1.01021599E+02   1.01021599E+02  -4.38804924E-01  -5.94807327E-01   1.01616402E+02  -3.33293266E+01   1.01538223E+02  -1.67033970E-01   1.00593819E+02  -4.38804924E-01   6.57922220E+00
             1662                2   1.01583900E+02   1.01051849E+02   1.01051849E+02  -6.25057459E-01  -4.38804924E-01   1.01051849E+02   1.01051849E+02  -4.38804924E-01  -6.25057459E-01   1.01676903E+02  -3.33293266E+01   1.01583519E+02  -1.75953805E-01   1.00602745E+02  -4.38804924E-01   6.74251270E+00
             1662                3   1.01299759E+02   1.00862495E+02   1.00862495E+02  -4.35710847E-01  -4.38804924E-01   1.00862495E+02   1.00862495E+02  -4.35710847E-01  -4.38804924E-01   1.01301308E+02  -3.33293266E+01   1.01299759E+02  -5.56837348E-03   1.00432358E+02  -4.38804924E-01   6.58692122E+00
             1662                4   1.01345093E+02   1.00892715E+02   1.00892715E+02  -4.65930194E-01  -4.38804924E-01   1.00892715E+02   1.00892715E+02  -4.38804924E-01  -4.65930194E-01   1.01358650E+02  -3.33293266E+01   1.01345078E+02  -1.44370478E-02   1.00441223E+02  -4.38804924E-01   6.74974918E+00
             1663                1   2.69444485E+01   2.19714108E+01   2.19714108E+01   2.57264879E-02  -8.10099888E+00   2.19714108E+01   2.19714108E+01   2.57264879E-02  -8.10099888E+00   3.00724087E+01  -4.63204622E+00   2.39451618E+01   1.87780052E-01   2.18093567E+01  -8.10099888E+00   1.87886190E+00
             1663                2   2.66011181E+01   2.16885338E+01   2.16885338E+01   3.08603644E-01  -8.10099888E+00   2.16885338E+01   2.16885338E+01   3.08603644E-01  -8.10099888E+00   2.97895317E+01  -4.63204622E+00   2.33164158E+01   4.55725640E-01   2.15414124E+01  -8.10099888E+00   1.76742578E+00
             1663                3   2.70279408E+01   2.20396442E+01   2.20396442E+01  -4.25075218E-02  -8.10099888E+00   2.20396442E+01   2.20396442E+01  -4.25075218E-02  -8.10099888E+00   3.01406441E+01  -4.63204622E+00   2.40943394E+01   7.56475851E-02   2.19214897E+01  -8.10099888E+00   1.61094797E+00
             1663                4   2.66857090E+01   2.17585812E+01   2.17585812E+01   2.38556787E-01  -8.10099888E+00   2.17585812E+01   2.17585812E+01   2.38556787E-01  -8.10099888E+00   2.98595791E+01  -4.63204622E+00   2.34737091E+01   3.43544692E-01   2.16535931E+01  -8.10099888E+00   1.49943495E+00
             1664                1   2.58288536E+01   2.07179604E+01   2.07179604E+01  -8.55785981E-02  -8.19162464E+00   2.07179604E+01   2.07179604E+01  -8.55785981E-02  -8.19162464E+00   2.89095840E+01  -4.14691877E+00   2.26907082E+01  -7.31504261E-02   2.07055321E+01  -8.19162464E+00   5.08321881E-01
             1664                2   2.57088757E+01   2.06184082E+01   2.06184082E+01   1.39727499E-02  -8.19162464E+00   2.06184082E+01   2.06184082E+01   1.39727499E-02  -8.19162464E+00   2.88100338E+01  -4.14691877E+00   2.24662247E+01   4.04685847E-02   2.05919132E+01  -8.19162464E+00   7.38391578E-01
             1664                3   2.55467892E+01   2.04831181E+01   2.04831181E+01   1.49263397E-01  -8.19162464E+00   2.04831181E+01   2.04831181E+01   1.49263397E-01  -8.19162464E+00   2.86747417E+01  -4.14691877E+00   2.21573601E+01   1.56935379E-01   2.04754467E+01  -8.19162464E+00   3.94878536E-01
             1664                4   2.54254475E+01   2.03812160E+01   2.03812160E+01   2.51167834E-01  -8.19162464E+00   2.03812160E+01   2.03812160E+01   2.51167834E-01  -8.19162464E+00   2.85728397E+01  -4.14691973E+00   2.19216957E+01   2.70591229E-01   2.03617916E+01  -8.19162464E+00   6.25001192E-01
             1665                1   1.11544563E+02   1.23344879E+02   1.23344879E+02   1.17018299E+01   1.18990641E+01   1.23344879E+02   1.23344879E+02   1.18990641E+01   1.17018299E+01   1.11643051E+02  -4.89819221E+01   1.11544174E+02   1.19674463E+01   1.23079262E+02   1.18990641E+01   5.43908072E+00
             1665                2   1.11707245E+02   1.23453209E+02   1.23453209E+02   1.15934954E+01   1.18990641E+01   1.23453209E+02   1.23453209E+02   1.18990641E+01   1.15934954E+01   1.11859718E+02  -4.89819221E+01   1.11706306E+02   1.18572798E+01   1.23189430E+02   1.18990641E+01   5.42558146E+00
             1665                3   1.11577156E+02   1.23366592E+02   1.23366592E+02   1.16801176E+01   1.18990641E+01   1.23366592E+02   1.23366592E+02   1.18990641E+01   1.16801176E+01   1.11686470E+02  -4.89819221E+01   1.11576675E+02   1.19564848E+01   1.23090225E+02   1.18990641E+01   5.54884911E+00
             1665                4   1.11739929E+02   1.23474976E+02   1.23474976E+02   1.15717354E+01   1.18990641E+01   1.23474976E+02   1.23474976E+02   1.18990641E+01   1.15717354E+01   1.11903236E+02  -4.89819221E+01   1.11738853E+02   1.18462143E+01   1.23200493E+02   1.18990641E+01   5.53532171E+00
             1666                1   2.01389206E+02   1.85607330E+02   1.85607330E+02  -1.78361969E+01  -1.36626921E+01   1.85607330E+02   1.85607330E+02  -1.36626921E+01  -1.78361969E+01   2.03443527E+02  -5.13694801E+01   2.01291870E+02  -1.76929874E+01   1.85464127E+02  -1.36626921E+01   5.39566374E+00
             1666                2   2.02269073E+02   1.86172607E+02   1.86172607E+02  -1.89786148E+01  -1.30855455E+01   1.86172607E+02   1.86172607E+02  -1.30855455E+01  -1.89786148E+01   2.05151215E+02  -5.13694801E+01   2.02075790E+02  -1.89090977E+01   1.86103088E+02  -1.30855455E+01   3.77565742E+00
             1666                3   2.02082733E+02   1.86048447E+02   1.86048447E+02  -1.89127617E+01  -1.30272408E+01   1.86048447E+02   1.86048447E+02  -1.30272408E+01  -1.89127617E+01   2.04961197E+02  -5.13694801E+01   2.01889755E+02  -1.86584854E+01   1.85794174E+02  -1.30272408E+01   7.21459389E+00
             1666                4   2.02943481E+02   1.86594666E+02   1.86594666E+02  -2.00243797E+01  -1.24618292E+01   1.86594666E+02   1.86594666E+02  -1.24618292E+01  -2.00243797E+01   2.06619034E+02  -5.13694878E+01   2.02626068E+02  -1.98727016E+01   1.86442978E+02  -1.24618292E+01   5.59621334E+00
             1667                1   2.00264053E+02   1.92633347E+02   1.92633347E+02  -9.71381474E+00  -5.48048258E+00   1.92633347E+02   1.92633347E+02  -5.48048258E+00  -9.71381474E+00   2.02347153E+02  -5.91463470E+01   2.00163345E+02  -9.59455776E+00   1.92514084E+02  -5.48048258E+00   4.91088581E+00
             1667                2   1.99465637E+02   1.92112045E+02   1.92112045E+02  -8.84413052E+00  -5.82887268E+00   1.92112045E+02   1.92112045E+02  -5.82887268E+00  -8.84413052E+00   2.00956177E+02  -5.91463470E+01   1.99414352E+02  -8.68530655E+00   1.91953217E+02  -5.82887268E+00   5.64732456E+00
             1667                3   1.99955551E+02   1.92435699E+02   1.92435699E+02  -9.19143963E+00  -5.80522680E+00   1.92435699E+02   1.92435699E+02  -5.80522680E+00  -9.19143963E+00   2.01627136E+02  -5.91463470E+01   1.99891006E+02  -9.12862301E+00   1.92372879E+02  -5.80522680E+00   3.55850124E+00
             1667                4   1.98953476E+02   1.91776260E+02   1.91776260E+02  -8.23722172E+00  -6.09999561E+00   1.91776260E+02   1.91776260E+02  -6.09999561E+00  -8.23722172E+00   2.00013474E+02  -5.91463470E+01   1.98927643E+02  -8.14512634E+00   1.91684158E+02  -6.09999561E+00   4.29090309E+00
             1668                1   6.88084335E+01   6.29758530E+01   6.29758530E+01  -5.25157118E+00  -6.39923096E+00   6.29758530E+01   6.29758530E+01  -5.25157118E+00  -6.39923096E+00   6.93750839E+01  -1.71083508E+01   6.87868958E+01  -3.49170947E+00   6.12159920E+01  -6.39923096E+00   1.08154354E+01
             1668                2   6.92857437E+01   6.32963753E+01   6.32963753E+01  -5.57209444E+00  -6.39923096E+00   6.32963753E+01   6.32963753E+01  -5.57209444E+00  -6.39923096E+00   6.96956100E+01  -1.71083508E+01   6.92746353E+01  -3.86721706E+00   6.15914993E+01  -6.39923096E+00   1.07007303E+01
             1668                3   6.91448135E+01   6.32018204E+01   6.32018204E+01  -5.47753620E+00  -6.39923096E+00   6.32018204E+01   6.32018204E+01  -5.47753620E+00  -6.39923096E+00   6.96010513E+01  -1.71083508E+01   6.91309891E+01  -3.60265088E+00   6.13269348E+01  -6.39923096E+00   1.11915455E+01
             1668                4   6.96194534E+01   6.35200119E+01   6.35200119E+01  -5.79573154E+00  -6.39923096E+00   6.35200119E+01   6.35200119E+01  -5.79573154E+00  -6.39923096E+00   6.99192429E+01  -1.71083508E+01   6.96135712E+01  -3.97803688E+00   6.17023201E+01  -6.39923096E+00   1.10765848E+01
             1669                1   3.22246742E+01   2.78469009E+01   2.78469009E+01  -5.31953156E-01  -7.18503380E+00   2.78469009E+01   2.78469009E+01  -5.31953156E-01  -7.18503380E+00   3.50319328E+01  -6.70997095E+00   3.06217098E+01   3.04303855E-01   2.70106430E+01  -7.18503380E+00   4.79923916E+00
             1669                2   3.17776031E+01   2.75067329E+01   2.75067329E+01  -1.91784903E-01  -7.18503380E+00   2.75067329E+01   2.75067329E+01  -1.91784903E-01  -7.18503380E+00   3.46917648E+01  -6.70997095E+00   2.99720135E+01   6.32350206E-01   2.66825962E+01  -7.18503380E+00   4.70618105E+00
             1669                3   3.22032509E+01   2.78306789E+01   2.78306789E+01  -5.15733361E-01  -7.18503380E+00   2.78306789E+01   2.78306789E+01  -5.15733361E-01  -7.18503380E+00   3.50157127E+01  -6.70997047E+00   3.05910015E+01   2.07814008E-01   2.71071320E+01  -7.18503380E+00   4.47061872E+00
             1669                4   3.17557259E+01   2.74899960E+01   2.74899960E+01  -1.75050572E-01  -7.18503380E+00   2.74899960E+01   2.74899960E+01  -1.75050572E-01  -7.18503380E+00   3.46750298E+01  -6.70997047E+00   2.99397335E+01   5.35704553E-01   2.67792416E+01  -7.18503380E+00   4.37697124E+00
             1670                1   1.78695984E+02   1.68840942E+02   1.68840942E+02  -1.06371059E+01  -9.06255627E+00   1.68840942E+02   1.68840942E+02  -9.06255627E+00  -1.06371059E+01   1.79478058E+02  -4.97137604E+01   1.78680374E+02  -1.06363287E+01   1.68840164E+02  -9.06255627E+00   3.75075698E-01
             1670                2   1.76990509E+02   1.67704529E+02   1.67704529E+02  -8.56508255E+00  -9.99817467E+00   1.67704529E+02   1.67704529E+02  -8.56508255E+00  -9.99817467E+00   1.77702713E+02  -4.97137604E+01   1.76977448E+02  -8.56163025E+00   1.67701080E+02  -9.99817467E+00   7.80032039E-01
             1670                3   1.78505493E+02   1.68715286E+02   1.68715286E+02  -1.04045982E+01  -9.16940689E+00   1.68715286E+02   1.68715286E+02  -9.16940689E+00  -1.04045982E+01   1.79119873E+02  -4.97137604E+01   1.78495865E+02  -1.03662148E+01   1.68676895E+02  -9.16940689E+00  -2.62190342E+00
             1670                4   1.76790833E+02   1.67569763E+02   1.67569763E+02  -8.31853390E+00  -1.01099701E+01   1.67569763E+02   1.67569763E+02  -8.31853390E+00  -1.01099701E+01   1.77679733E+02  -4.97137566E+01   1.76770401E+02  -8.28993130E+00   1.67541168E+02  -1.01099701E+01  -2.24273562E+00
             1671                1   2.11147858E+02   2.07293243E+02   2.07293243E+02  -9.44490337E+00   2.21921945E+00   2.07293243E+02   2.07293243E+02   2.21921945E+00  -9.44490337E+00   2.16738144E+02  -6.66891861E+01   2.10421158E+02  -9.24593163E+00   2.07094269E+02   2.21921945E+00   6.56403208E+00
             1671                2   2.11711655E+02   2.07595917E+02   2.07595917E+02  -1.08052740E+01   3.27690053E+00   2.07595917E+02   2.07595917E+02   3.27690053E+00  -1.08052740E+01   2.18401199E+02  -6.66891861E+01   2.10654068E+02  -1.07886486E+01   2.07579300E+02   3.27690053E+00   1.90534079E+00
             1671                3   2.12026337E+02   2.07783707E+02   2.07783707E+02  -1.12273455E+01   3.51119542E+00   2.07783707E+02   2.07783707E+02   3.51119542E+00  -1.12273455E+01   2.19011063E+02  -6.66891861E+01   2.10869171E+02  -1.07230873E+01   2.07279449E+02   3.51119542E+00   1.04968853E+01
             1671                4   2.12537125E+02   2.08039215E+02   2.08039215E+02  -1.24986629E+01   4.52698421E+00   2.08039215E+02   2.08039215E+02   4.52698421E+00  -1.24986629E+01   2.20537888E+02  -6.66891785E+01   2.10994705E+02  -1.23380508E+01   2.07878616E+02   4.52698421E+00   5.94924307E+00
             1672                1   9.80309143E+01   9.55124817E+01   9.55124817E+01  -2.48612356E+00  -2.55070162E+00   9.55124817E+01   9.55124817E+01  -2.48612356E+00  -2.55070162E+00   9.80631866E+01  -3.01585522E+01   9.80308685E+01  -2.23924589E+00   9.52656021E+01  -2.55070162E+00   4.91253901E+00
             1672                2   9.82235794E+01   9.56409225E+01   9.56409225E+01  -2.61457181E+00  -2.55070162E+00   9.56409225E+01   9.56409225E+01  -2.55070162E+00  -2.61457181E+00   9.82554932E+01  -3.01585484E+01   9.82235336E+01  -2.37263441E+00   9.53989868E+01  -2.55070162E+00   4.86961079E+00
             1672                3   9.81155853E+01   9.55689392E+01   9.55689392E+01  -2.54258704E+00  -2.55070162E+00   9.55689392E+01   9.55689392E+01  -2.54258704E+00  -2.55070162E+00   9.81196442E+01  -3.01585484E+01   9.81155853E+01  -2.28234053E+00   9.53086929E+01  -2.55070162E+00   5.04632711E+00
             1672                4   9.83080978E+01   9.56972427E+01   9.56972427E+01  -2.67089272E+00  -2.55070162E+00   9.56972427E+01   9.56972427E+01  -2.55070162E+00  -2.67089272E+00   9.83681412E+01  -3.01585484E+01   9.83079376E+01  -2.41573405E+00   9.54420853E+01  -2.55070162E+00   5.00344372E+00
             1673                1   1.05931778E+02   1.09751366E+02   1.09751366E+02   3.72089076E+00   3.91856909E+00   1.09751366E+02   1.09751366E+02   3.91856909E+00   3.72089076E+00   1.06030479E+02  -3.91302757E+01   1.05931358E+02   4.44112110E+00   1.09031136E+02   3.91856909E+00   8.70907211E+00
             1673                2   1.05951271E+02   1.09764351E+02   1.09764351E+02   3.70790648E+00   3.91856909E+00   1.09764351E+02   1.09764351E+02   3.91856909E+00   3.70790648E+00   1.06056450E+02  -3.91302757E+01   1.05950798E+02   4.40029764E+00   1.09071960E+02   3.91856909E+00   8.54127026E+00
             1673                3   1.06186440E+02   1.09920914E+02   1.09920914E+02   3.55134463E+00   3.91856909E+00   1.09920914E+02   1.09920914E+02   3.91856909E+00   3.55134463E+00   1.06369568E+02  -3.91302757E+01   1.06184998E+02   4.27658463E+00   1.09195671E+02   3.91856909E+00   8.75316429E+00
             1673                4   1.06205872E+02   1.09933846E+02   1.09933846E+02   3.53840351E+00   3.91856909E+00   1.09933846E+02   1.09933846E+02   3.91856909E+00   3.53840351E+00   1.06395447E+02  -3.91302757E+01   1.06204338E+02   4.23562574E+00   1.09236626E+02   3.91856909E+00   8.58459091E+00
             1674                1   4.43827095E+01   4.88922729E+01   4.88922729E+01   4.56294250E+00   4.45637751E+00   4.88922729E+01   4.88922729E+01   4.56294250E+00   4.45637751E+00   4.44358940E+01  -1.93038654E+01   4.43824196E+01   4.60175276E+00   4.88534622E+01   4.45637751E+00   1.31108701E+00
             1674                2   4.47413673E+01   4.91313438E+01   4.91313438E+01   4.32387114E+00   4.45637751E+00   4.91313438E+01   4.91313438E+01   4.45637751E+00   4.32387114E+00   4.48074722E+01  -1.93038654E+01   4.47409248E+01   4.36421204E+00   4.90910034E+01   4.45637751E+00   1.34385574E+00
             1674                3   4.43558884E+01   4.88743706E+01   4.88743706E+01   4.58084583E+00   4.45637751E+00   4.88743706E+01   4.88743706E+01   4.58084583E+00   4.45637751E+00   4.44179916E+01  -1.93038654E+01   4.43554955E+01   4.63497496E+00   4.88202400E+01   4.45637751E+00   1.54746604E+00
             1674                4   4.47151184E+01   4.91138687E+01   4.91138687E+01   4.34134579E+00   4.45637751E+00   4.91138687E+01   4.91138687E+01   4.45637751E+00   4.34134579E+00   4.47725220E+01  -1.93038654E+01   4.47147865E+01   4.39719439E+00   4.90580215E+01   4.45637751E+00   1.58029580E+00
             1675                1   5.45973854E+01   5.42459259E+01   5.42459259E+01  -3.87197107E-01  -3.15652847E-01   5.42459259E+01   5.42459259E+01  -3.15652847E-01  -3.87197107E-01   5.46331253E+01  -1.78476925E+01   5.45972862E+01  -6.23571984E-02   5.39210892E+01  -3.15652847E-01   4.20016766E+00
             1675                2   5.44783936E+01   5.41666222E+01   5.41666222E+01  -3.07891667E-01  -3.15652847E-01   5.41666222E+01   5.41666222E+01  -3.07891667E-01  -3.15652847E-01   5.44822731E+01  -1.78476925E+01   5.44783974E+01   5.06565906E-02   5.38080750E+01  -3.15652847E-01   4.40489721E+00
             1675                3   5.42677689E+01   5.40261040E+01   5.40261040E+01  -1.67371541E-01  -3.15652847E-01   5.40261040E+01   5.40261040E+01  -1.67371541E-01  -3.15652847E-01   5.43417587E+01  -1.78476944E+01   5.42673111E+01   1.42642587E-01   5.37160912E+01  -3.15652847E-01   4.08713293E+00
             1675                4   5.41478539E+01   5.39460220E+01   5.39460220E+01  -8.72888789E-02  -3.15652847E-01   5.39460220E+01   5.39460220E+01  -8.72888789E-02  -3.15652847E-01   5.42616768E+01  -1.78476944E+01   5.41467705E+01   2.55805254E-01   5.36029282E+01  -3.15652847E-01   4.29195023E+00
             1676                1   9.88122177E+01   9.83039780E+01   9.83039780E+01  -8.42726409E-01  -1.70320272E-01   9.83039780E+01   9.83039780E+01  -1.70320272E-01  -8.42726409E-01   9.91467056E+01  -3.24303093E+01   9.88070679E+01   2.01214314E+00   9.54491043E+01  -1.70320272E-01   1.65801353E+01
             1676                2   9.81131973E+01   9.78389969E+01   9.78389969E+01  -3.77745301E-01  -1.70320272E-01   9.78389969E+01   9.78389969E+01  -1.70320272E-01  -3.77745301E-01   9.82167435E+01  -3.24303093E+01   9.81126938E+01   2.51898646E+00   9.49422607E+01  -1.70320272E-01   1.66167622E+01
             1676                3   9.85428162E+01   9.81249008E+01   9.81249008E+01  -6.63651764E-01  -1.70320272E-01   9.81249008E+01   9.81249008E+01  -1.70320272E-01  -6.63651764E-01   9.87885513E+01  -3.24303093E+01   9.85400314E+01   2.01785684E+00   9.54433899E+01  -1.70320272E-01   1.60534172E+01
             1676                4   9.78340073E+01   9.76529846E+01   9.76529846E+01  -1.91730857E-01  -1.70320272E-01   9.76529846E+01   9.76529846E+01  -1.70320272E-01  -1.91730857E-01   9.78447113E+01  -3.24303093E+01   9.78339996E+01   2.52502275E+00   9.49362259E+01  -1.70320272E-01   1.60760498E+01
             1677                1   4.79499207E+01   5.02246933E+01   5.02246933E+01   2.24793363E+00   2.30165315E+00   5.02246933E+01   5.02246933E+01   2.30165315E+00   2.24793363E+00   4.79767570E+01  -1.82580929E+01   4.79498520E+01   2.68408608E+00   4.97885399E+01   2.30165315E+00   4.55356359E+00
             1677                2   4.76032448E+01   4.99934235E+01   4.99934235E+01   2.47919774E+00   2.30165315E+00   4.99934235E+01   4.99934235E+01   2.47919774E+00   2.30165315E+00   4.76917725E+01  -1.82580929E+01   4.76025009E+01   2.89946079E+00   4.95731621E+01   2.30165315E+00   4.44879866E+00
             1677                3   4.80462341E+01   5.02888412E+01   5.02888412E+01   2.18378377E+00   2.30165315E+00   5.02888412E+01   5.02888412E+01   2.30165315E+00   2.18378377E+00   4.81050568E+01  -1.82580929E+01   4.80459061E+01   2.57849765E+00   4.98941269E+01   2.30165315E+00   4.33958387E+00
             1677                4   4.77005806E+01   5.00584145E+01   5.00584145E+01   2.41420841E+00   2.30165315E+00   5.00584145E+01   5.00584145E+01   2.41420841E+00   2.30165315E+00   4.77567596E+01  -1.82580929E+01   4.77002831E+01   2.79362202E+00   4.96790009E+01   2.30165315E+00   4.23472071E+00
             1678                1   3.02606220E+01   2.91831837E+01   2.91831837E+01  -5.87212630E-02  -2.00244498E+00   2.91831837E+01   2.91831837E+01  -5.87212630E-02  -2.00244498E+00   3.11856289E+01  -9.04067230E+00   3.01196918E+01  -4.70860712E-02   2.91715488E+01  -2.00244498E+00   5.83164573E-01
             1678                2   2.98611336E+01   2.89067860E+01   2.89067860E+01   2.17676014E-01  -2.00244498E+00   2.89067860E+01   2.89067860E+01   2.17676014E-01  -2.00244498E+00   3.09092312E+01  -9.04067230E+00   2.96745968E+01   2.25715518E-01   2.88987465E+01  -2.00244498E+00   4.80192661E-01
             1678                3   3.03985729E+01   2.92782631E+01   2.92782631E+01  -1.53800055E-01  -2.00244498E+00   2.92782631E+01   2.92782631E+01  -1.53800055E-01  -2.00244498E+00   3.12807064E+01  -9.04067230E+00   3.02717152E+01  -1.50531575E-01   2.92749939E+01  -2.00244498E+00   3.10132146E-01
             1678                4   3.00010681E+01   2.90037861E+01   2.90037861E+01   1.20675348E-01  -2.00244498E+00   2.90037861E+01   2.90037861E+01   1.20675348E-01  -2.00244498E+00   3.10062313E+01  -9.04067230E+00   2.98313446E+01   1.22160107E-01   2.90023022E+01  -2.00244498E+00   2.07069755E-01
             1679                1   5.57686729E+01   5.55133400E+01   5.55133400E+01  -3.10909837E-01  -1.99585393E-01   5.55133400E+01   5.55133400E+01  -1.99585393E-01  -3.10909837E-01   5.58242493E+01  -1.83342819E+01   5.57684212E+01  -3.06343555E-01   5.55087738E+01  -1.99585393E-01   5.04890323E-01
             1679                2   5.54411697E+01   5.52950096E+01   5.52950096E+01  -9.25789624E-02  -1.99585393E-01   5.52950096E+01   5.52950096E+01  -9.25789624E-02  -1.99585393E-01   5.54945946E+01  -1.83342819E+01   5.54409370E+01  -8.81973356E-02   5.52906265E+01  -1.99585393E-01   4.92700219E-01
             1679                3   5.57820244E+01   5.55222321E+01   5.55222321E+01  -3.19806010E-01  -1.99585393E-01   5.55222321E+01   5.55222321E+01  -1.99585393E-01  -3.19806010E-01   5.58420372E+01  -1.83342800E+01   5.57817345E+01  -3.18331122E-01   5.55207596E+01  -1.99585393E-01   2.86830544E-01
             1679                4   5.54547005E+01   5.53040390E+01   5.53040390E+01  -1.01612248E-01  -1.99585393E-01   5.53040390E+01   5.53040390E+01  -1.01612248E-01  -1.99585393E-01   5.55036240E+01  -1.83342800E+01   5.54545097E+01  -1.00248858E-01   5.53026772E+01  -1.99585393E-01   2.74701655E-01
             1680                1   7.19860687E+01   6.69728699E+01   6.69728699E+01  -4.89764071E+00  -5.12820292E+00   6.69728699E+01   6.69728699E+01  -4.89764071E+00  -5.12820292E+00   7.21010742E+01  -1.89823418E+01   7.19852448E+01  -4.65693951E+00   6.67321701E+01  -5.12820292E+00   4.15228224E+00
             1680                2   7.21497192E+01   6.70820999E+01   6.70820999E+01  -5.00686932E+00  -5.12820292E+00   6.70820999E+01   6.70820999E+01  -5.00686932E+00  -5.12820292E+00   7.22103043E+01  -1.89823437E+01   7.21494827E+01  -4.78669119E+00   6.68619232E+01  -5.12820292E+00   3.97794247E+00
             1680                3   7.22686844E+01   6.71614532E+01   6.71614532E+01  -5.08622980E+00  -5.12820292E+00   6.71614532E+01   6.71614532E+01  -5.08622980E+00  -5.12820292E+00   7.22896576E+01  -1.89823399E+01   7.22686539E+01  -4.83129215E+00   6.69065170E+01  -5.12820292E+00   4.28412676E+00
             1680                4   7.24317017E+01   6.72701263E+01   6.72701263E+01  -5.19489765E+00  -5.12820292E+00   6.72701263E+01   6.72701263E+01  -5.12820292E+00  -5.19489765E+00   7.24650269E+01  -1.89823418E+01   7.24316330E+01  -4.96106243E+00   6.70362930E+01  -5.12820292E+00   4.10977697E+00
             1681                1   7.65249939E+01   7.04672165E+01   7.04672165E+01  -5.71460056E+00  -6.39639282E+00   7.04672165E+01   7.04672165E+01  -5.71460056E+00  -6.39639282E+00   7.68636093E+01  -1.94520741E+01   7.65181580E+01  -4.48464918E+00   6.92372665E+01  -6.39639282E+00   9.60141182E+00
             1681                2   7.69454956E+01   7.07485504E+01   7.07485504E+01  -5.99592733E+00  -6.39639282E+00   7.07485504E+01   7.07485504E+01  -5.99592733E+00  -6.39639282E+00   7.71449432E+01  -1.94520779E+01   7.69431458E+01  -4.80802488E+00   6.95606461E+01  -6.39639282E+00   9.47386265E+00
             1681                3   7.68286362E+01   7.06704254E+01   7.06704254E+01  -5.91780663E+00  -6.39639282E+00   7.06704254E+01   7.06704254E+01  -5.91780663E+00  -6.39639282E+00   7.70668182E+01  -1.94520741E+01   7.68252869E+01  -4.60886097E+00   6.93614807E+01  -6.39639282E+00   9.92654419E+00
             1681                4   7.72472534E+01   7.09501114E+01   7.09501114E+01  -6.19749737E+00  -6.39639282E+00   7.09501114E+01   7.09501114E+01  -6.19749737E+00  -6.39639282E+00   7.73465042E+01  -1.94520741E+01   7.72466736E+01  -4.93220377E+00   6.96848221E+01  -6.39639282E+00   9.79863739E+00
             1682                1   9.68870621E+01   9.35339966E+01   9.35339966E+01  -3.38659549E+00  -3.31950688E+00   9.35339966E+01   9.35339966E+01  -3.31950688E+00  -3.38659549E+00   9.69205933E+01  -2.89426327E+01   9.68870087E+01  -3.33976173E+00   9.34871597E+01  -3.31950688E+00   2.13005781E+00
             1682                2   9.68036575E+01   9.34784012E+01   9.34784012E+01  -3.33100057E+00  -3.31950688E+00   9.34784012E+01   9.34784012E+01  -3.31950688E+00  -3.33100057E+00   9.68094025E+01  -2.89426327E+01   9.68036499E+01  -3.28150082E+00   9.34289017E+01  -3.31950688E+00   2.18849444E+00
             1682                3   9.67955246E+01   9.34729767E+01   9.34729767E+01  -3.32557940E+00  -3.31950688E+00   9.34729767E+01   9.34729767E+01  -3.31950688E+00  -3.32557940E+00   9.67985611E+01  -2.89426327E+01   9.67955170E+01  -3.28122067E+00   9.34286194E+01  -3.31950688E+00   2.07171845E+00
             1682                4   9.67120590E+01   9.34173279E+01   9.34173279E+01  -3.26993084E+00  -3.31950688E+00   9.34173279E+01   9.34173279E+01  -3.26993084E+00  -3.31950688E+00   9.67368393E+01  -2.89426327E+01   9.67120285E+01  -3.22297692E+00   9.33703766E+01  -3.31950688E+00   2.13018012E+00
             1683                1   3.08333035E+01   2.73602810E+01   2.73602810E+01   1.07397355E-01  -6.10684824E+00   2.73602810E+01   2.73602810E+01   1.07397355E-01  -6.10684824E+00   3.34671288E+01  -7.12027693E+00   2.93743801E+01   4.54181254E-01   2.70134964E+01  -6.10684824E+00   3.05460525E+00
             1683                2   3.12244320E+01   2.76539955E+01   2.76539955E+01  -1.86317161E-01  -6.10684824E+00   2.76539955E+01   2.76539955E+01  -1.86317161E-01  -6.10684824E+00   3.37608452E+01  -7.12027693E+00   2.99222279E+01   1.74795225E-01   2.72928829E+01  -6.10684824E+00   3.15009165E+00
             1683                3   3.07944946E+01   2.73309956E+01   2.73309956E+01   1.36682168E-01  -6.10684824E+00   2.73309956E+01   2.73309956E+01   1.36682168E-01  -6.10684824E+00   3.34378433E+01  -7.12027693E+00   2.93192825E+01   5.51624596E-01   2.69160538E+01  -6.10684824E+00   3.33345008E+00
             1683                4   3.11859379E+01   2.76252003E+01   2.76252003E+01  -1.57522991E-01  -6.10684824E+00   2.76252003E+01   2.76252003E+01  -1.57522991E-01  -6.10684824E+00   3.37320480E+01  -7.12027693E+00   2.98688946E+01   2.72329926E-01   2.71953487E+01  -6.10684824E+00   3.42894959E+00
             1684                1   2.19613235E+02   2.38675003E+02   2.38675003E+02  -1.63665521E+00   4.83928566E+01   2.38675003E+02   2.38675003E+02   4.83928566E+01  -1.63665521E+00   2.40311661E+02  -9.51437378E+01   2.06198624E+02  -1.47202110E+00   2.38510361E+02   4.83928566E+01  -6.28790569E+00
             1684                2   2.19737732E+02   2.38198807E+02   2.38198807E+02  -3.70271778E+00   5.09351120E+01   2.38198807E+02   2.38198807E+02   5.09351120E+01  -3.70271778E+00   2.41901535E+02  -9.51437378E+01   2.03595581E+02  -3.69710302E+00   2.38193192E+02   5.09351120E+01  -1.16596091E+00
             1684                3   2.19597687E+02   2.39105865E+02   2.39105865E+02   1.28773198E-01   4.61965637E+01   2.39105865E+02   2.39105865E+02   4.61965637E+01   1.28773198E-01   2.38977081E+02  -9.51437378E+01   2.08305389E+02   1.29396632E-01   2.39105240E+02   4.61965637E+01   3.85336041E-01
             1684                4   2.19727753E+02   2.38623184E+02   2.38623184E+02  -2.16283035E+00   4.89708405E+01   2.38623184E+02   2.38623184E+02   4.89708405E+01  -2.16283035E+00   2.40786026E+02  -9.51437378E+01   2.05692062E+02  -2.04040432E+00   2.38500763E+02   4.89708405E+01   5.42800808E+00
             1685                1   2.75640221E+01   2.37202358E+01   2.37202358E+01  -8.36346224E-02  -6.47943592E+00   2.37202358E+01   2.37202358E+01  -8.36346224E-02  -6.47943592E+00   3.01996708E+01  -5.71905518E+00   2.58140831E+01  -7.68497735E-02   2.37134495E+01  -6.47943592E+00   4.01843816E-01
             1685                2   2.74462910E+01   2.36291962E+01   2.36291962E+01   7.40335556E-03  -6.47943592E+00   2.36291962E+01   2.36291962E+01   7.40335556E-03  -6.47943592E+00   3.01086311E+01  -5.71905375E+00   2.56350117E+01   2.32930984E-02   2.36133060E+01  -6.47943592E+00   6.12436593E-01
             1685                3   2.72885075E+01   2.35066910E+01   2.35066910E+01   1.29908994E-01  -6.47943592E+00   2.35066910E+01   2.35066910E+01   1.29908994E-01  -6.47943592E+00   2.99861279E+01  -5.71905518E+00   2.53922482E+01   1.33811086E-01   2.35027885E+01  -6.47943592E+00   3.02032113E-01
             1685                4   2.71696548E+01   2.34140320E+01   2.34140320E+01   2.22569183E-01  -6.47943592E+00   2.34140320E+01   2.34140320E+01   2.22569183E-01  -6.47943592E+00   2.98934669E+01  -5.71905518E+00   2.52072201E+01   2.33903289E-01   2.34026966E+01  -6.47943592E+00   5.12581527E-01
             1686                1   3.28684311E+01   3.20157089E+01   3.20157089E+01   2.54435897E-01  -1.85797918E+00   3.20157089E+01   3.20157089E+01   2.54435897E-01  -1.85797918E+00   3.38736877E+01  -1.01373892E+01   3.27151833E+01   5.08175790E-01   3.17619705E+01  -1.85797918E+00   2.82748842E+00
             1686                2   3.31838799E+01   3.22328987E+01   3.22328987E+01   3.72458510E-02  -1.85797918E+00   3.22328987E+01   3.22328987E+01   3.72458510E-02  -1.85797918E+00   3.40908775E+01  -1.01373892E+01   3.30617867E+01   3.04373622E-01   3.19657726E+01  -1.85797918E+00   2.92043996E+00
             1686                3   3.27877197E+01   3.19599953E+01   3.19599953E+01   3.10149848E-01  -1.85797918E+00   3.19599953E+01   3.19599953E+01   3.10149848E-01  -1.85797918E+00   3.38179741E+01  -1.01373892E+01   3.26258507E+01   6.03127122E-01   3.16670189E+01  -1.85797918E+00   3.03097868E+00
             1686                4   3.31038551E+01   3.21778831E+01   3.21778831E+01   9.22631696E-02  -1.85797918E+00   3.21778831E+01   3.21778831E+01   9.22631696E-02  -1.85797918E+00   3.40358620E+01  -1.01373892E+01   3.29742317E+01   3.99371922E-01   3.18707733E+01  -1.85797918E+00   3.12401414E+00
             1687                1   5.97204514E+01   5.80333252E+01   5.80333252E+01  -1.62703335E+00  -1.74703884E+00   5.80333252E+01   5.80333252E+01  -1.62703335E+00  -1.74703884E+00   5.97803650E+01  -1.82197514E+01   5.97201805E+01  -1.60277331E+00   5.80090637E+01  -1.74703884E+00   1.20285857E+00
             1687                2   5.97570992E+01   5.80577774E+01   5.80577774E+01  -1.65148723E+00  -1.74703884E+00   5.80577774E+01   5.80577774E+01  -1.65148723E+00  -1.74703884E+00   5.98048172E+01  -1.82197514E+01   5.97569275E+01  -1.63493788E+00   5.80412292E+01  -1.74703884E+00   9.93935823E-01
             1687                3   6.00357895E+01   5.82435760E+01   5.82435760E+01  -1.83728909E+00  -1.74703884E+00   5.82435760E+01   5.82435760E+01  -1.74703884E+00  -1.83728909E+00   6.00808678E+01  -1.82197495E+01   6.00356407E+01  -1.81187677E+00   5.82181664E+01  -1.74703884E+00   1.23533833E+00
             1687                4   6.00721893E+01   5.82678223E+01   5.82678223E+01  -1.86153316E+00  -1.74703884E+00   5.82678223E+01   5.82678223E+01  -1.74703884E+00  -1.86153316E+00   6.01293564E+01  -1.82197495E+01   6.00719452E+01  -1.84400415E+00   5.82502937E+01  -1.74703884E+00   1.02645814E+00
             1688                1   7.08766556E+01   6.61518250E+01   6.61518250E+01  -4.77570581E+00  -4.67383862E+00   6.61518250E+01   6.61518250E+01  -4.67383862E+00  -4.77570581E+00   7.09275360E+01  -1.89007607E+01   7.08764877E+01  -4.70828342E+00   6.60844040E+01  -4.67383862E+00   2.18577647E+00
             1688                2   7.07907181E+01   6.60945663E+01   6.60945663E+01  -4.71844482E+00  -4.67383862E+00   6.60945663E+01   6.60945663E+01  -4.67383862E+00  -4.71844482E+00   7.08130112E+01  -1.89007607E+01   7.07906876E+01  -4.63906002E+00   6.60151825E+01  -4.67383862E+00   2.36962247E+00
             1688                3   7.05948334E+01   6.59639511E+01   6.59639511E+01  -4.58783293E+00  -4.67383862E+00   6.59639511E+01   6.59639511E+01  -4.58783293E+00  -4.67383862E+00   7.06377945E+01  -1.89007607E+01   7.05947113E+01  -4.52432299E+00   6.59004440E+01  -4.67383862E+00   2.11583400E+00
             1688                4   7.05085831E+01   6.59064102E+01   6.59064102E+01  -4.53028822E+00  -4.67383862E+00   6.59064102E+01   6.59064102E+01  -4.53028822E+00  -4.67383862E+00   7.05802460E+01  -1.89007607E+01   7.05082550E+01  -4.45512247E+00   6.58312454E+01  -4.67383862E+00   2.29971457E+00
             1689                1   1.13781013E+02   1.29883820E+02   1.29883820E+02   1.59027700E+01   1.63039131E+01   1.29883820E+02   1.29883820E+02   1.63039131E+01   1.59027700E+01   1.13981049E+02  -5.40301666E+01   1.13779419E+02   1.61648846E+01   1.29621704E+02   1.63039131E+01   5.45963097E+00
             1689                2   1.13596146E+02   1.29760757E+02   1.29760757E+02   1.60258293E+01   1.63039131E+01   1.29760757E+02   1.29760757E+02   1.63039131E+01   1.60258293E+01   1.13734932E+02  -5.40301666E+01   1.13595383E+02   1.62837048E+01   1.29502884E+02   1.63039131E+01   5.40954399E+00
             1689                3   1.13843185E+02   1.29925186E+02   1.29925186E+02   1.58613987E+01   1.63039131E+01   1.29925186E+02   1.29925186E+02   1.63039131E+01   1.58613987E+01   1.14063797E+02  -5.40301666E+01   1.13841248E+02   1.61121197E+01   1.29674469E+02   1.63039131E+01   5.34187078E+00
             1689                4   1.13658302E+02   1.29802139E+02   1.29802139E+02   1.59844398E+01   1.63039131E+01   1.29802139E+02   1.29802139E+02   1.63039131E+01   1.59844398E+01   1.13817696E+02  -5.40301628E+01   1.13657295E+02   1.62310085E+01   1.29555573E+02   1.63039131E+01   5.29177427E+00
             1690                1   7.68098526E+01   7.12320862E+01   7.12320862E+01  -5.48725128E+00  -5.66795349E+00   7.12320862E+01   7.12320862E+01  -5.48725128E+00  -5.66795349E+00   7.69000397E+01  -2.00256271E+01   7.68093719E+01  -5.32269526E+00   7.10675278E+01  -5.66795349E+00   3.54932809E+00
             1690                2   7.69520187E+01   7.13269501E+01   7.13269501E+01  -5.58211470E+00  -5.66795349E+00   7.13269501E+01   7.13269501E+01  -5.58211470E+00  -5.66795349E+00   7.69949036E+01  -2.00256271E+01   7.69519119E+01  -5.43274975E+00   7.11775818E+01  -5.66795349E+00   3.38606262E+00
             1690                3   7.70689087E+01   7.14048996E+01   7.14048996E+01  -5.66006994E+00  -5.66795349E+00   7.14048996E+01   7.14048996E+01  -5.66006994E+00  -5.66795349E+00   7.70728531E+01  -2.00256252E+01   7.70689087E+01  -5.48584080E+00   7.12306671E+01  -5.66795349E+00   3.66014719E+00
             1690                4   7.72106857E+01   7.14993896E+01   7.14993896E+01  -5.75456238E+00  -5.66795349E+00   7.14993896E+01   7.14993896E+01  -5.66795349E+00  -5.75456238E+00   7.72539520E+01  -2.00256252E+01   7.72105713E+01  -5.59594822E+00   7.13407745E+01  -5.66795349E+00   3.49692702E+00
             1691                1   8.01457367E+01   7.42647705E+01   7.42647705E+01  -5.73644066E+00  -6.02471876E+00   7.42647705E+01   7.42647705E+01  -5.73644066E+00  -6.02471876E+00   8.02894897E+01  -2.08345356E+01   8.01445694E+01  -5.30157471E+00   7.38299026E+01  -6.02471876E+00   5.88223648E+00
             1691                2   8.03922806E+01   7.44293442E+01   7.44293442E+01  -5.90101433E+00  -6.02471876E+00   7.44293442E+01   7.44293442E+01  -5.90101433E+00  -6.02471876E+00   8.04540634E+01  -2.08345356E+01   8.03920670E+01  -5.48905182E+00   7.40173798E+01  -6.02471876E+00   5.73789120E+00
             1691                3   8.03996048E+01   7.44342270E+01   7.44342270E+01  -5.90589380E+00  -6.02471876E+00   7.44342270E+01   7.44342270E+01  -5.90589380E+00  -6.02471876E+00   8.04589462E+01  -2.08345394E+01   8.03994064E+01  -5.44446039E+00   7.39727936E+01  -6.02471876E+00   6.07115316E+00
             1691                4   8.06454926E+01   7.45981903E+01   7.45981903E+01  -6.06986570E+00  -6.02471876E+00   7.45981903E+01   7.45981903E+01  -6.02471876E+00  -6.06986570E+00   8.06680603E+01  -2.08345356E+01   8.06454697E+01  -5.63201046E+00   7.41603394E+01  -6.02471876E+00   5.92698288E+00
             1692                1   2.00248962E+02   1.77510941E+02   1.77510941E+02  -2.65622864E+01  -1.86810551E+01   1.77510941E+02   1.77510941E+02  -1.86810551E+01  -2.65622864E+01   2.04073227E+02  -4.40891991E+01   1.99899567E+02  -2.64906521E+01   1.77439301E+02  -1.86810551E+01  -3.82292223E+00
             1692                2   1.99119080E+02   1.76808868E+02   1.76808868E+02  -2.45624523E+01  -1.99788303E+01   1.76808868E+02   1.76808868E+02  -1.99788303E+01  -2.45624523E+01   2.01371323E+02  -4.40891914E+01   1.99000336E+02  -2.45511665E+01   1.76797577E+02  -1.99788303E+01  -1.50779712E+00
             1692                3   1.99440674E+02   1.77006714E+02   1.77006714E+02  -2.52952595E+01  -1.94438667E+01   1.77006714E+02   1.77006714E+02  -1.94438667E+01  -2.52952595E+01   2.02301971E+02  -4.40891991E+01   1.99247391E+02  -2.50454159E+01   1.76756866E+02  -1.94438667E+01  -7.10510111E+00
             1692                4   1.98276672E+02   1.76266098E+02   1.76266098E+02  -2.32225075E+01  -2.07760067E+01   1.76266098E+02   1.76266098E+02  -2.07760067E+01  -2.32225075E+01   1.99488617E+02  -4.40891991E+01   1.98242706E+02  -2.31063213E+01   1.76149918E+02  -2.07760067E+01  -4.81291056E+00
             1693                1   5.32276306E+01   5.06613541E+01   5.06613541E+01  -2.01362514E+00  -3.10223365E+00   5.06613541E+01   5.06613541E+01  -2.01362514E+00  -3.10223365E+00   5.37635880E+01  -1.51818314E+01   5.32025757E+01  -4.24057871E-01   4.90717850E+01  -3.10223365E+00   9.01131153E+00
             1693                2   5.35391006E+01   5.08709564E+01   5.08709564E+01  -2.22322869E+00  -3.10223365E+00   5.08709564E+01   5.08709564E+01  -2.22322869E+00  -3.10223365E+00   5.39731903E+01  -1.51818314E+01   5.35228615E+01  -6.99531198E-01   4.93472595E+01  -3.10223365E+00   8.86441231E+00
             1693                3   5.35815773E+01   5.08995056E+01   5.08995056E+01  -2.25177932E+00  -3.10223365E+00   5.08995056E+01   5.08995056E+01  -2.25177932E+00  -3.10223365E+00   5.40017395E+01  -1.51818314E+01   5.35663872E+01  -5.66441894E-01   4.92141685E+01  -3.10223365E+00   9.31330013E+00
             1693                4   5.38822746E+01   5.11013985E+01   5.11013985E+01  -2.45366859E+00  -3.10223365E+00   5.11013985E+01   5.11013985E+01  -2.45366859E+00  -3.10223365E+00   5.42036285E+01  -1.51818314E+01   5.38734932E+01  -8.36573303E-01   4.94843025E+01  -3.10223365E+00   9.16452885E+00
             1694                1   3.60740433E+01   3.44942131E+01   3.44942131E+01  -2.16461480E-01  -2.80387831E+00   3.44942131E+01   3.44942131E+01  -2.16461480E-01  -2.80387831E+00   3.72980919E+01  -1.04912910E+01   3.58643837E+01   6.67143703E-01   3.36106071E+01  -2.80387831E+00   5.46715736E+00
             1694                2   3.57544518E+01   3.42723465E+01   3.42723465E+01   5.40508842E-03  -2.80387831E+00   3.42723465E+01   3.42723465E+01   5.40508842E-03  -2.80387831E+00   3.70762253E+01  -1.04912910E+01   3.55048752E+01   8.83704126E-01   3.33940468E+01  -2.80387831E+00   5.41527891E+00
             1694                3   3.60535507E+01   3.44800110E+01   3.44800110E+01  -2.02264294E-01  -2.80387831E+00   3.44800110E+01   3.44800110E+01  -2.02264294E-01  -2.80387831E+00   3.72838898E+01  -1.04912901E+01   3.58414536E+01   6.11684024E-01   3.36660652E+01  -2.80387831E+00   5.25043154E+00
             1694                4   3.57334633E+01   3.42577438E+01   3.42577438E+01   2.00085845E-02  -2.80387831E+00   3.42577438E+01   3.42577438E+01   2.00085845E-02  -2.80387831E+00   3.70616226E+01  -1.04912910E+01   3.54811172E+01   8.28356206E-01   3.34493942E+01  -2.80387831E+00   5.19832802E+00
             1695                1   4.46349983E+01   4.90030098E+01   4.90030098E+01   4.29865885E+00   4.43768787E+00   4.90030098E+01   4.90030098E+01   4.43768787E+00   4.29865885E+00   4.47043533E+01  -1.92464523E+01   4.46345139E+01   4.38086462E+00   4.89208069E+01   4.43768787E+00   1.91523874E+00
             1695                2   4.45974045E+01   4.89779854E+01   4.89779854E+01   4.32368946E+00   4.43768787E+00   4.89779854E+01   4.89779854E+01   4.43768787E+00   4.32368946E+00   4.46542969E+01  -1.92464542E+01   4.45970764E+01   4.42741299E+00   4.88742599E+01   4.43768787E+00   2.14964843E+00
             1695                3   4.42744408E+01   4.87626915E+01   4.87626915E+01   4.53898382E+00   4.43768787E+00   4.87626915E+01   4.87626915E+01   4.53898382E+00   4.43768787E+00   4.43250008E+01  -1.92464542E+01   4.42741814E+01   4.61808300E+00   4.86835899E+01   4.43768787E+00   1.86864662E+00
             1695                4   4.42377548E+01   4.87382011E+01   4.87382011E+01   4.56347227E+00   4.43768787E+00   4.87382011E+01   4.87382011E+01   4.56347227E+00   4.43768787E+00   4.43005142E+01  -1.92464542E+01   4.42373543E+01   4.66385555E+00   4.86378174E+01   4.43768787E+00   2.10341763E+00
             1696                1   1.11589859E+02   1.23384781E+02   1.23384781E+02   1.16936331E+01   1.18964853E+01   1.23384781E+02   1.23384781E+02   1.18964853E+01   1.16936331E+01   1.11691147E+02  -4.89916344E+01   1.11589447E+02   1.18326654E+01   1.23245750E+02   1.18964853E+01   3.93817163E+00
             1696                2   1.11412476E+02   1.23266602E+02   1.23266602E+02   1.18118153E+01   1.18964853E+01   1.23266602E+02   1.23266602E+02   1.18964853E+01   1.18118153E+01   1.11454788E+02  -4.89916344E+01   1.11412399E+02   1.19516506E+01   1.23126762E+02   1.18964853E+01   3.94537902E+00
             1696                3   1.11569038E+02   1.23370911E+02   1.23370911E+02   1.17075033E+01   1.18964853E+01   1.23370911E+02   1.23370911E+02   1.18964853E+01   1.17075033E+01   1.11663406E+02  -4.89916344E+01   1.11568680E+02   1.18383074E+01   1.23240105E+02   1.18964853E+01   3.81958556E+00
             1696                4   1.11391968E+02   1.23252930E+02   1.23252930E+02   1.18254843E+01   1.18964853E+01   1.23252930E+02   1.23252930E+02   1.18964853E+01   1.18254843E+01   1.11427444E+02  -4.89916344E+01   1.11391914E+02   1.19570599E+01   1.23121353E+02   1.18964853E+01   3.82675409E+00
             1697                1   5.94789200E+01   5.76384201E+01   5.76384201E+01  -1.88478315E+00  -1.79611874E+00   5.76384201E+01   5.76384201E+01  -1.79611874E+00  -1.88478315E+00   5.95232010E+01  -1.79858379E+01   5.94787712E+01  -1.71471477E+00   5.74683495E+01  -1.79611874E+00   3.17712688E+00
             1697                2   5.93767319E+01   5.75703239E+01   5.75703239E+01  -1.81668997E+00  -1.79611874E+00   5.75703239E+01   5.75703239E+01  -1.79611874E+00  -1.81668997E+00   5.93870163E+01  -1.79858379E+01   5.93767242E+01  -1.62366986E+00   5.73773041E+01  -1.79611874E+00   3.38019228E+00
             1697                3   5.91615791E+01   5.74268265E+01   5.74268265E+01  -1.67319572E+00  -1.79611874E+00   5.74268265E+01   5.74268265E+01  -1.67319572E+00  -1.79611874E+00   5.92229462E+01  -1.79858379E+01   5.91612930E+01  -1.51165962E+00   5.72652931E+01  -1.79611874E+00   3.08554363E+00
             1697                4   5.90586548E+01   5.73581200E+01   5.73581200E+01  -1.60448599E+00  -1.79611874E+00   5.73581200E+01   5.73581200E+01  -1.60448599E+00  -1.79611874E+00   5.91542397E+01  -1.79858379E+01   5.90579605E+01  -1.42048502E+00   5.71741219E+01  -1.79611874E+00   3.28865242E+00
             1698                1   5.35927887E+01   5.41804047E+01   5.41804047E+01   5.31067312E-01   6.44339681E-01   5.41804047E+01   5.41804047E+01   6.44339681E-01   5.31067312E-01   5.36493378E+01  -1.84519367E+01   5.35925217E+01   5.35538852E-01   5.41759338E+01   6.44339681E-01   4.89708364E-01
             1698                2   5.32591324E+01   5.39579697E+01   5.39579697E+01   7.53501773E-01   6.44339681E-01   5.39579697E+01   5.39579697E+01   7.53501773E-01   6.44339681E-01   5.33136292E+01  -1.84519367E+01   5.32588806E+01   7.57799566E-01   5.39536705E+01   6.44339681E-01   4.78250891E-01
             1698                3   5.36053581E+01   5.41887741E+01   5.41887741E+01   5.22701383E-01   6.44339681E-01   5.41887741E+01   5.41887741E+01   6.44339681E-01   5.22701383E-01   5.36660728E+01  -1.84519386E+01   5.36050453E+01   5.24034679E-01   5.41874390E+01   6.44339681E-01   2.67664462E-01
             1698                4   5.32717323E+01   5.39663773E+01   5.39663773E+01   7.45093763E-01   6.44339681E-01   5.39663773E+01   5.39663773E+01   7.45093763E-01   6.44339681E-01   5.33220367E+01  -1.84519367E+01   5.32715187E+01   7.46326625E-01   5.39651451E+01   6.44339681E-01   2.56133407E-01
             1699                1   9.70277710E+01   9.46297531E+01   9.46297531E+01  -2.57116818E+00  -2.22393107E+00   9.46297531E+01   9.46297531E+01  -2.22393107E+00  -2.57116818E+00   9.72009201E+01  -2.99448853E+01   9.70263748E+01  -9.25628722E-01   9.29842148E+01  -2.22393107E+00   1.25395441E+01
             1699                2   9.65078125E+01   9.42834244E+01   9.42834244E+01  -2.22484016E+00  -2.22393107E+00   9.42834244E+01   9.42834244E+01  -2.22393107E+00  -2.22484016E+00   9.65082626E+01  -2.99448853E+01   9.65078125E+01  -5.56261420E-01   9.26148453E+01  -2.22393107E+00   1.25796537E+01
             1699                3   9.68310699E+01   9.44988098E+01   9.44988098E+01  -2.44022441E+00  -2.22393107E+00   9.44988098E+01   9.44988098E+01  -2.22393107E+00  -2.44022441E+00   9.69390335E+01  -2.99448853E+01   9.68305283E+01  -8.89653862E-01   9.29482422E+01  -2.22393107E+00   1.21616745E+01
             1699                4   9.63109741E+01   9.41521530E+01   9.41521530E+01  -2.09356952E+00  -2.22393107E+00   9.41521530E+01   9.41521530E+01  -2.09356952E+00  -2.22393107E+00   9.63760834E+01  -2.99448853E+01   9.63107758E+01  -5.20591915E-01   9.25791779E+01  -2.22393107E+00   1.22032013E+01
             1700                1   3.25710182E+01   2.95808201E+01   2.95808201E+01  -1.53590844E-03  -5.32339621E+00   2.95808201E+01   2.95808201E+01  -1.53590844E-03  -5.32339621E+00   3.49042168E+01  -8.08529568E+00   3.15705566E+01   4.92559820E-01   2.90867252E+01  -5.32339621E+00   3.79109144E+00
             1700                2   3.29662895E+01   2.98698940E+01   2.98698940E+01  -2.90609986E-01  -5.32339621E+00   2.98698940E+01   2.98698940E+01  -2.90609986E-01  -5.32339621E+00   3.51932907E+01  -8.08529568E+00   3.20848885E+01   2.16452122E-01   2.93628330E+01  -5.32339621E+00   3.87764406E+00
             1700                3   3.25536728E+01   2.95680885E+01   2.95680885E+01   1.11961626E-02  -5.32339621E+00   2.95680885E+01   2.95680885E+01   1.11961626E-02  -5.32339621E+00   3.48914833E+01  -8.08529568E+00   3.15477486E+01   5.81793070E-01   2.89974918E+01  -5.32339621E+00   4.06687641E+00
             1700                4   3.29490051E+01   2.98572960E+01   2.98572960E+01  -2.78011888E-01  -5.32339621E+00   2.98572960E+01   2.98572960E+01  -2.78011888E-01  -5.32339621E+00   3.51806946E+01  -8.08529568E+00   3.20626106E+01   3.05785447E-01   2.92734985E+01  -5.32339621E+00   4.15356636E+00
             1701                1   2.63417435E+01   2.16918430E+01   2.16918430E+01   1.38042020E-02  -7.62512064E+00   2.16918430E+01   2.16918430E+01   1.38042020E-02  -7.62512064E+00   2.93169632E+01  -4.69350863E+00   2.36504993E+01   3.58776674E-02   2.16697693E+01  -7.62512064E+00   6.91384614E-01
             1701                2   2.60636654E+01   2.14653988E+01   2.14653988E+01   2.40248516E-01  -7.62512064E+00   2.14653988E+01   2.14653988E+01   2.40248516E-01  -7.62512064E+00   2.90905190E+01  -4.69350863E+00   2.31589432E+01   2.56267428E-01   2.14493790E+01  -7.62512064E+00   5.82880557E-01
             1701                3   2.64614391E+01   2.17885952E+01   2.17885952E+01  -8.29487741E-02  -7.62512064E+00   2.17885952E+01   2.17885952E+01  -8.29487741E-02  -7.62512064E+00   2.94137154E+01  -4.69350863E+00   2.38574734E+01  -7.27997720E-02   2.17784462E+01  -7.62512064E+00   4.71034348E-01
             1701                4   2.61846066E+01   2.15641766E+01   2.15641766E+01   1.41470909E-01  -7.62512064E+00   2.15641766E+01   2.15641766E+01   1.41470909E-01  -7.62512064E+00   2.91892967E+01  -4.69350863E+00   2.33746300E+01   1.47608191E-01   2.15580387E+01  -7.62512064E+00   3.62534434E-01
             1702                1   4.99973145E+01   5.13597412E+01   5.13597412E+01   1.35136557E+00   1.37348723E+00   5.13597412E+01   5.13597412E+01   1.37348723E+00   1.35136557E+00   5.00083733E+01  -1.80281963E+01   4.99973068E+01   1.79502666E+00   5.09160805E+01   1.37348723E+00   4.68933344E+00
             1702                2   4.96559258E+01   5.11319351E+01   5.11319351E+01   1.57917428E+00   1.37348723E+00   5.11319351E+01   5.11319351E+01   1.57917428E+00   1.37348723E+00   4.97584457E+01  -1.80281982E+01   4.96549683E+01   2.00570607E+00   5.07054024E+01   1.37348723E+00   4.57754660E+00
             1702                3   5.01052856E+01   5.14316788E+01   5.14316788E+01   1.27942824E+00   1.37348723E+00   5.14316788E+01   5.14316788E+01   1.37348723E+00   1.27942824E+00   5.01522484E+01  -1.80281963E+01   5.01050911E+01   1.68277156E+00   5.10283356E+01   1.37348723E+00   4.47948694E+00
             1702                4   4.97648239E+01   5.12046585E+01   5.12046585E+01   1.50644982E+00   1.37348723E+00   5.12046585E+01   5.12046585E+01   1.50644982E+00   1.37348723E+00   4.98311729E+01  -1.80281982E+01   4.97644272E+01   1.89329863E+00   5.08178101E+01   1.37348723E+00   4.36761570E+00
             1703                1   2.20000000E+02   1.92941696E+02   1.92941696E+02  -4.31332779E+01  -6.34514999E+00   1.92941696E+02   1.92941696E+02  -6.34514999E+00  -4.31332779E+01   2.36074966E+02  -4.78210869E+01   2.12914398E+02  -4.28004456E+01   1.92608856E+02  -6.34514999E+00   8.85792065E+00
             1703                2   2.20000000E+02   1.93380508E+02   1.93380508E+02  -4.05366364E+01  -9.38060570E+00   1.93380508E+02   1.93380508E+02  -9.38060570E+00  -4.05366364E+01   2.33917145E+02  -4.78210907E+01   2.14952484E+02  -4.04814224E+01   1.93325287E+02  -9.38060570E+00   3.59358573E+00
             1703                3   2.20000000E+02   1.92557556E+02   1.92557556E+02  -4.50860939E+01  -4.00821590E+00   1.92557556E+02   1.92557556E+02  -4.00821590E+00  -4.50860939E+01   2.37643646E+02  -4.78210869E+01   2.11111618E+02  -4.50531082E+01   1.92524582E+02  -4.00821590E+00   2.79923272E+00
             1703                4   2.20000000E+02   1.93009018E+02   1.93009018E+02  -4.27640266E+01  -6.78173971E+00   1.93009018E+02   1.93009018E+02  -6.78173971E+00  -4.27640266E+01   2.35773041E+02  -4.78210869E+01   2.13228577E+02  -4.27380028E+01   1.92983002E+02  -6.78173971E+00  -2.47667265E+00
             1704                1   1.98465729E+02   1.83371735E+02   1.83371735E+02  -1.62007675E+01  -1.39683676E+01   1.83371735E+02   1.83371735E+02  -1.39683676E+01  -1.62007675E+01   1.99572510E+02  -5.10675354E+01   1.98437469E+02  -1.60966053E+01   1.83267578E+02  -1.39683676E+01   4.55821609E+00
             1704                2   1.99190491E+02   1.83844467E+02   1.83844467E+02  -1.71463051E+01  -1.34955511E+01   1.83844467E+02   1.83844467E+02  -1.34955511E+01  -1.71463051E+01   2.00990784E+02  -5.10675392E+01   1.99115189E+02  -1.70954647E+01   1.83793625E+02  -1.34955511E+01   3.19642472E+00
             1704                3   1.98971741E+02   1.83698486E+02   1.83698486E+02  -1.70797939E+01  -1.34160872E+01   1.83698486E+02   1.83698486E+02  -1.34160872E+01  -1.70797939E+01   2.00778290E+02  -5.10675354E+01   1.98895813E+02  -1.68977871E+01   1.83516479E+02  -1.34160872E+01   6.04243183E+00
             1704                4   1.99635864E+02   1.84126144E+02   1.84126144E+02  -1.79879608E+01  -1.29355764E+01   1.84126144E+02   1.84126144E+02  -1.29355764E+01  -1.79879608E+01   2.02114105E+02  -5.10675354E+01   1.99491943E+02  -1.78794403E+01   1.84017624E+02  -1.29355764E+01   4.68205547E+00
             1705                1   1.05498245E+02   1.08017303E+02   1.08017303E+02   2.48587179E+00   2.55227804E+00   1.08017303E+02   1.08017303E+02   2.55227804E+00   2.48587179E+00   1.05531433E+02  -3.76851501E+01   1.05498199E+02   2.53772187E+00   1.07965454E+02   2.55227804E+00   2.33856702E+00
             1705                2   1.05443069E+02   1.07980530E+02   1.07980530E+02   2.52264357E+00   2.55227804E+00   1.07980530E+02   1.07980530E+02   2.55227804E+00   2.52264357E+00   1.05457886E+02  -3.76851501E+01   1.05443062E+02   2.57653832E+00   1.07926636E+02   2.55227804E+00   2.38341951E+00
             1705                3   1.05428772E+02   1.07970993E+02   1.07970993E+02   2.53217793E+00   2.55227804E+00   1.07970993E+02   1.07970993E+02   2.55227804E+00   2.53217793E+00   1.05438820E+02  -3.76851501E+01   1.05428764E+02   2.58235931E+00   1.07920815E+02   2.55227804E+00   2.29968429E+00
             1705                4   1.05373581E+02   1.07934204E+02   1.07934204E+02   2.56896806E+00   2.55227804E+00   1.07934204E+02   1.07934204E+02   2.56896806E+00   2.55227804E+00   1.05381927E+02  -3.76851501E+01   1.05373581E+02   2.62116504E+00   1.07882011E+02   2.55227804E+00   2.34451318E+00
             1706                1   6.59200974E+01   6.21537018E+01   6.21537018E+01  -3.80313492E+00  -3.72960162E+00   6.21537018E+01   6.21537018E+01  -3.72960162E+00  -3.80313492E+00   6.59568329E+01  -1.82069874E+01   6.59200058E+01  -3.60556483E+00   6.19561310E+01  -3.72960162E+00   3.60443902E+00
             1706                2   6.57893143E+01   6.20665359E+01   6.20665359E+01  -3.71596789E+00  -3.72960162E+00   6.20665359E+01   6.20665359E+01  -3.71596789E+00  -3.72960162E+00   6.57961349E+01  -1.82069874E+01   6.57893143E+01  -3.49638009E+00   6.18469467E+01  -3.72960162E+00   3.79430008E+00
             1706                3   6.56194839E+01   6.19532471E+01   6.19532471E+01  -3.60268140E+00  -3.72960162E+00   6.19532471E+01   6.19532471E+01  -3.60268140E+00  -3.72960162E+00   6.56828461E+01  -1.82069874E+01   6.56192093E+01  -3.41590381E+00   6.17664719E+01  -3.72960162E+00   3.49421501E+00
             1706                4   6.54878998E+01   6.18654099E+01   6.18654099E+01  -3.51484466E+00  -3.72960162E+00   6.18654099E+01   6.18654099E+01  -3.51484466E+00  -3.72960162E+00   6.55950165E+01  -1.82069874E+01   6.54871063E+01  -3.30659604E+00   6.16571617E+01  -3.72960162E+00   3.68401027E+00
             1707                1   7.13639755E+01   6.55955582E+01   6.55955582E+01  -5.35850525E+00  -6.17139244E+00   6.55955582E+01   6.55955582E+01  -5.35850525E+00  -6.17139244E+00   7.17669449E+01  -1.80218868E+01   7.13535538E+01  -4.05152512E+00   6.42885742E+01  -6.17139244E+00   9.54081917E+00
             1707                2   7.17736282E+01   6.58699570E+01   6.58699570E+01  -5.63290977E+00  -6.17139244E+00   6.58699570E+01   6.58699570E+01  -5.63290977E+00  -6.17139244E+00   7.20413513E+01  -1.80218868E+01   7.17690811E+01  -4.37272882E+00   6.46097794E+01  -6.17139244E+00   9.40842915E+00
             1707                3   7.16813736E+01   6.58082123E+01   6.58082123E+01  -5.57116127E+00  -6.17139244E+00   6.58082123E+01   6.58082123E+01  -5.57116127E+00  -6.17139244E+00   7.19795990E+01  -1.80218868E+01   7.16757202E+01  -4.18114710E+00   6.44181976E+01  -6.17139244E+00   9.86337757E+00
             1707                4   7.20890350E+01   6.60808716E+01   6.60808716E+01  -5.84381723E+00  -6.17139244E+00   6.60808716E+01   6.60808716E+01  -5.84381723E+00  -6.17139244E+00   7.22522659E+01  -1.80218868E+01   7.20873566E+01  -4.50226736E+00   6.47393188E+01  -6.17139244E+00   9.73092556E+00
             1708                1   3.04960365E+01   2.60918674E+01   2.60918674E+01  -2.67480552E-01  -7.30900335E+00   2.60918674E+01   2.60918674E+01  -2.67480552E-01  -7.30900335E+00   3.34008713E+01  -6.17179441E+00   2.85797939E+01   2.98996687E-01   2.55253906E+01  -7.30900335E+00   3.82244110E+00
             1708                2   3.00777569E+01   2.57674732E+01   2.57674732E+01   5.69149368E-02  -7.30900335E+00   2.57674732E+01   2.57674732E+01   5.69149368E-02  -7.30900335E+00   3.30764771E+01  -6.17179489E+00   2.79382515E+01   6.07698202E-01   2.52166901E+01  -7.30900335E+00   3.72257829E+00
             1708                3   3.05118580E+01   2.61040688E+01   2.61040688E+01  -2.79680699E-01  -7.30900335E+00   2.61040688E+01   2.61040688E+01  -2.79680699E-01  -7.30900335E+00   3.34130707E+01  -6.17179489E+00   2.86036701E+01   1.96942970E-01   2.56274452E+01  -7.30900335E+00   3.51396608E+00
             1708                4   3.00937805E+01   2.57799683E+01   2.57799683E+01   4.44184653E-02  -7.30900335E+00   2.57799683E+01   2.57799683E+01   4.44184653E-02  -7.30900335E+00   3.30889702E+01  -6.17179441E+00   2.79632092E+01   5.05505145E-01   2.53188820E+01  -7.30900335E+00   3.41375232E+00
             1709                1   8.21325378E+01   7.62319641E+01   7.62319641E+01  -5.94838572E+00  -5.85268831E+00   7.62319641E+01   7.62319641E+01  -5.85268831E+00  -5.94838572E+00   8.21803513E+01  -2.14769611E+01   8.21324234E+01  -5.91575289E+00   7.61993332E+01  -5.85268831E+00   1.63720453E+00
             1709                2   8.20634460E+01   7.61859207E+01   7.61859207E+01  -5.90234375E+00  -5.85268831E+00   7.61859207E+01   7.61859207E+01  -5.85268831E+00  -5.90234375E+00   8.20882645E+01  -2.14769611E+01   8.20634155E+01  -5.86344433E+00   7.61470184E+01  -5.85268831E+00   1.78659379E+00
             1709                3   8.19055634E+01   7.60806656E+01   7.60806656E+01  -5.79708624E+00  -5.85268831E+00   7.60806656E+01   7.60806656E+01  -5.79708624E+00  -5.85268831E+00   8.19333496E+01  -2.14769611E+01   8.19055252E+01  -5.76640081E+00   7.60499802E+01  -5.85268831E+00   1.58470821E+00
             1709                4   8.18362656E+01   7.60344391E+01   7.60344391E+01  -5.75086451E+00  -5.85268831E+00   7.60344391E+01   7.60344391E+01  -5.75086451E+00  -5.85268831E+00   8.18871307E+01  -2.14769611E+01   8.18361282E+01  -5.71408033E+00   7.59976578E+01  -5.85268831E+00   1.73407888E+00
             1710                1   4.03895226E+01   3.78506775E+01   3.78506775E+01  -1.08849382E+00  -3.84770250E+00   3.78506775E+01   3.78506775E+01  -1.08849382E+00  -3.84770250E+00   4.16983795E+01  -1.09714937E+01   4.01766548E+01   4.56938922E-01   3.63052444E+01  -3.84770250E+00   7.60194302E+00
             1710                2   4.00183029E+01   3.75934601E+01   3.75934601E+01  -8.31278503E-01  -3.84770250E+00   3.75934601E+01   3.75934601E+01  -8.31278503E-01  -3.84770250E+00   4.14411621E+01  -1.09714928E+01   3.97613220E+01   7.30325460E-01   3.60318565E+01  -3.84770250E+00   7.58719683E+00
             1710                3   4.02645569E+01   3.77642059E+01   3.77642059E+01  -1.00202370E+00  -3.84770250E+00   3.77642059E+01   3.77642059E+01  -1.00202370E+00  -3.84770250E+00   4.16119080E+01  -1.09714928E+01   4.00373764E+01   4.36693162E-01   3.63254890E+01  -3.84770250E+00   7.32827759E+00
             1710                4   3.98919411E+01   3.75056648E+01   3.75056648E+01  -7.43479908E-01  -3.84770250E+00   3.75056648E+01   3.75056648E+01  -7.43479908E-01  -3.84770250E+00   4.13533669E+01  -1.09714937E+01   3.96188393E+01   7.10144103E-01   3.60520401E+01  -3.84770250E+00   7.31347036E+00
             1711                1   1.05027786E+02   1.08569725E+02   1.08569725E+02   3.35556555E+00   3.72930574E+00   1.08569725E+02   1.08569725E+02   3.72930574E+00   3.35556555E+00   1.05214165E+02  -3.85515327E+01   1.05026291E+02   4.79030991E+00   1.07134987E+02   3.72930574E+00   1.22023172E+01
             1711                2   1.04984360E+02   1.08540825E+02   1.08540825E+02   3.38446712E+00   3.72930574E+00   1.08540825E+02   1.08540825E+02   3.72930574E+00   3.38446712E+00   1.05156357E+02  -3.85515327E+01   1.04983086E+02   4.75812054E+00   1.07167175E+02   3.72930574E+00   1.19398985E+01
             1711                3   1.05413269E+02   1.08826103E+02   1.08826103E+02   3.09918618E+00   3.72930574E+00   1.08826103E+02   1.08826103E+02   3.72930574E+00   3.09918618E+00   1.05726921E+02  -3.85515327E+01   1.05409035E+02   4.53682184E+00   1.07388474E+02   3.72930574E+00   1.22445803E+01
             1711                4   1.05369759E+02   1.08797180E+02   1.08797180E+02   3.12811971E+00   3.72930574E+00   1.08797180E+02   1.08797180E+02   3.72930574E+00   3.12811971E+00   1.05669060E+02  -3.85515366E+01   1.05365891E+02   4.50433254E+00   1.07420967E+02   3.72930574E+00   1.19803696E+01
             1712                1   2.51386070E+01   1.95700417E+01   1.95700417E+01  -9.02468860E-02  -8.75481319E+00   1.95700417E+01   1.95700417E+01  -9.02468860E-02  -8.75481319E+00   2.83248558E+01  -3.57499409E+00   2.13694191E+01  -7.50657544E-02   1.95548611E+01  -8.75481319E+00   5.46111465E-01
             1712                2   2.50194874E+01   1.94682140E+01   1.94682140E+01   1.15790972E-02  -8.75481319E+00   1.94682140E+01   1.94682140E+01   1.15790972E-02  -8.75481319E+00   2.82230282E+01  -3.57499337E+00   2.11246452E+01   4.36498225E-02   1.94361439E+01  -8.75481319E+00   7.89276242E-01
             1712                3   2.48486958E+01   1.93211880E+01   1.93211880E+01   1.58608064E-01  -8.75481319E+00   1.93211880E+01   1.93211880E+01   1.58608064E-01  -8.75481319E+00   2.80760002E+01  -3.57499409E+00   2.07655869E+01   1.68157294E-01   1.93116379E+01  -8.75481319E+00   4.27670449E-01
             1712                4   2.47281704E+01   1.92166786E+01   1.92166786E+01   2.63117731E-01  -8.75481319E+00   1.92166786E+01   1.92166786E+01   2.63117731E-01  -8.75481319E+00   2.79714909E+01  -3.57499409E+00   2.05060749E+01   2.86891788E-01   1.91929035E+01  -8.75481319E+00   6.70850575E-01
             1713                1   3.41016197E+01   2.66229076E+01   2.66229076E+01  -2.26136470E+00  -1.09966879E+01   2.66229076E+01   2.66229076E+01  -2.26136470E+00  -1.09966879E+01   3.76195946E+01  -4.45495176E+00   3.14331856E+01   2.26716852E+00   2.20943756E+01  -1.09966879E+01   1.05021791E+01
             1713                2   3.35503387E+01   2.61858978E+01   2.61858978E+01  -1.82435381E+00  -1.09966879E+01   2.61858978E+01   2.61858978E+01  -1.82435381E+00  -1.09966879E+01   3.71825867E+01  -4.45495176E+00   3.05327702E+01   2.87065315E+00   2.14908905E+01  -1.09966879E+01   1.04625635E+01
             1713                3   3.36473808E+01   2.62632866E+01   2.62632866E+01  -1.90174270E+00  -1.09966879E+01   2.62632866E+01   2.62632866E+01  -1.90174270E+00  -1.09966879E+01   3.72599754E+01  -4.45495176E+00   3.06940403E+01   2.09437442E+00   2.22671700E+01  -1.09966879E+01   9.82760334E+00
             1713                4   3.30693245E+01   2.57992096E+01   2.57992096E+01  -1.43766522E+00  -1.09966879E+01   2.57992096E+01   2.57992096E+01  -1.43766522E+00  -1.09966879E+01   3.67958984E+01  -4.45495176E+00   2.97143250E+01   2.69622087E+00   2.16653233E+01  -1.09966879E+01   9.77267170E+00
             1714                1   2.14224472E+02   2.16676651E+02   2.16676651E+02  -4.94747686E+00   1.07110958E+01   2.16676651E+02   2.16676651E+02   1.07110958E+01  -4.94747686E+00   2.21624130E+02  -7.41467514E+01   2.12931229E+02  -4.76331615E+00   2.16492493E+02   1.07110958E+01   6.38588095E+00
             1714                2   2.13912933E+02   2.16520782E+02   2.16520782E+02  -4.12148333E+00   1.00409756E+01   2.16520782E+02   2.16520782E+02   1.00409756E+01  -4.12148333E+00   2.20642258E+02  -7.41467514E+01   2.12854309E+02  -4.04676533E+00   2.16446060E+02   1.00409756E+01   4.05952930E+00
             1714                3   2.14673584E+02   2.16897629E+02   2.16897629E+02  -6.07297421E+00   1.16156101E+01   2.16897629E+02   2.16897629E+02   1.16156101E+01  -6.07297421E+00   2.22970612E+02  -7.41467590E+01   2.13024734E+02  -5.95697498E+00   2.16781631E+02   1.16156101E+01   5.08448553E+00
             1714                4   2.14495422E+02   2.16831284E+02   2.16831284E+02  -5.37719917E+00   1.09861898E+01   2.16831284E+02   2.16831284E+02   1.09861898E+01  -5.37719917E+00   2.22208481E+02  -7.41467590E+01   2.13084351E+02  -5.34302092E+00   2.16797104E+02   1.09861898E+01   2.75577450E+00
             1715                1   7.55334167E+01   6.96380234E+01   6.96380234E+01  -5.61305904E+00  -6.17459726E+00   6.96380234E+01   6.96380234E+01  -5.61305904E+00  -6.17459726E+00   7.58126221E+01  -1.92834549E+01   7.55287170E+01  -4.66909981E+00   6.86940613E+01  -6.17459726E+00   8.37514305E+00
             1715                2   7.58907700E+01   6.98769608E+01   6.98769608E+01  -5.85199690E+00  -6.17459726E+00   6.98769608E+01   6.98769608E+01  -5.85199690E+00  -6.17459726E+00   7.60515594E+01  -1.92834549E+01   7.58892288E+01  -4.94561338E+00   6.89705734E+01  -6.17459726E+00   8.23517990E+00
             1715                3   7.58279648E+01   6.98349915E+01   6.98349915E+01  -5.81003141E+00  -6.17459726E+00   6.98349915E+01   6.98349915E+01  -5.81003141E+00  -6.17459726E+00   7.60095901E+01  -1.92834549E+01   7.58259964E+01  -4.80677319E+00   6.88317337E+01  -6.17459726E+00   8.65362263E+00
             1715                4   7.61836777E+01   7.00725174E+01   7.00725174E+01  -6.04755545E+00  -6.17459726E+00   7.00725174E+01   7.00725174E+01  -6.04755545E+00  -6.17459726E+00   7.62471161E+01  -1.92834549E+01   7.61834335E+01  -5.08319283E+00   6.91081543E+01  -6.17459726E+00   8.51337147E+00
             1716                1   4.76045074E+01   4.98396683E+01   4.98396683E+01   2.21294618E+00   2.25740671E+00   4.98396683E+01   4.98396683E+01   2.25740671E+00   2.21294618E+00   4.76267242E+01  -1.81033421E+01   4.76044617E+01   2.76087260E+00   4.92917442E+01   2.25740671E+00   5.07894564E+00
             1716                2   4.72579880E+01   4.96084824E+01   4.96084824E+01   2.44413400E+00   2.25740671E+00   4.96084824E+01   4.96084824E+01   2.44413400E+00   2.25740671E+00   4.73510742E+01  -1.81033421E+01   4.72571564E+01   2.97258806E+00   4.90800285E+01   2.25740671E+00   4.96436310E+00
             1716                3   4.77086563E+01   4.99090424E+01   4.99090424E+01   2.14357257E+00   2.25740671E+00   4.99090424E+01   4.99090424E+01   2.25740671E+00   2.14357257E+00   4.77654724E+01  -1.81033421E+01   4.77083473E+01   2.64510584E+00   4.94075089E+01   2.25740671E+00   4.86872721E+00
             1716                4   4.73626480E+01   4.96783676E+01   4.96783676E+01   2.37424874E+00   2.25740671E+00   4.96783676E+01   4.96783676E+01   2.37424874E+00   2.25740671E+00   4.74209595E+01  -1.81033421E+01   4.73623238E+01   2.85686946E+00   4.91957474E+01   2.25740671E+00   4.75362968E+00
             1717                1   3.08497105E+01   2.68673801E+01   2.68673801E+01  -2.08802432E-01  -6.71727991E+00   2.68673801E+01   2.68673801E+01  -2.08802432E-01  -6.71727991E+00   3.35846596E+01  -6.64709902E+00   2.92445374E+01   2.82382905E-01   2.63761940E+01  -6.71727991E+00   3.61360788E+00
             1717                2   3.04449177E+01   2.65583992E+01   2.65583992E+01   1.00177892E-01  -6.71727991E+00   2.65583992E+01   2.65583992E+01   1.00177892E-01  -6.71727991E+00   3.32756805E+01  -6.64709902E+00   2.86509972E+01   5.75914621E-01   2.60826626E+01  -6.71727991E+00   3.51579523E+00
             1717                3   3.08778820E+01   2.68887711E+01   2.68887711E+01  -2.30193570E-01  -6.71727991E+00   2.68887711E+01   2.68887711E+01  -2.30193570E-01  -6.71727991E+00   3.36060486E+01  -6.64709902E+00   2.92852402E+01   1.82657748E-01   2.64759197E+01  -6.71727991E+00   3.32048798E+00
             1717                4   3.04732456E+01   2.65801220E+01   2.65801220E+01   7.84541145E-02  -6.71727991E+00   2.65801220E+01   2.65801220E+01   7.84541145E-02  -6.71727991E+00   3.32974014E+01  -6.64709902E+00   2.86930790E+01   4.76326138E-01   2.61822510E+01  -6.71727991E+00   3.22272658E+00
             1718                1   1.25046738E+02   1.53105591E+02   1.53105591E+02   2.73172188E+01   2.88139210E+01   1.53105591E+02   1.53105591E+02   2.88139210E+01   2.73172188E+01   1.25788368E+02  -6.97455750E+01   1.25026581E+02   2.75648785E+01   1.52857925E+02   2.88139210E+01   5.57599497E+00
             1718                2   1.24931961E+02   1.53029510E+02   1.53029510E+02   2.73932953E+01   2.88139210E+01   1.53029510E+02   1.53029510E+02   2.88139210E+01   2.73932953E+01   1.25636215E+02  -6.97455750E+01   1.24913788E+02   2.76894665E+01   1.52733337E+02   2.88139210E+01   6.09281635E+00
             1718                3   1.24262543E+02   1.52585358E+02   1.52585358E+02   2.78374519E+01   2.88139210E+01   1.52585358E+02   1.52585358E+02   2.88139210E+01   2.78374519E+01   1.24747902E+02  -6.97455750E+01   1.24253906E+02   2.80744877E+01   1.52348312E+02   2.88139210E+01   5.43264818E+00
             1718                4   1.24145805E+02   1.52507828E+02   1.52507828E+02   2.79149837E+01   2.88139210E+01   1.52507828E+02   1.52507828E+02   2.88139210E+01   2.79149837E+01   1.24592834E+02  -6.97455750E+01   1.24138481E+02   2.81998386E+01   1.52222961E+02   2.88139210E+01   5.95061970E+00
             1719                1   3.34055481E+01   3.94303970E+01   3.94303970E+01   4.75071669E+00   7.46454048E+00   3.94303970E+01   3.94303970E+01   7.46454048E+00   4.75071669E+00   3.46796799E+01  -1.72152176E+01   3.31561775E+01   7.70025539E+00   3.64808578E+01   7.46454048E+00   9.67415714E+00
             1719                2   3.36367264E+01   3.95787354E+01   3.95787354E+01   4.60238028E+00   7.46454048E+00   3.95787354E+01   3.95787354E+01   7.46454048E+00   4.60238028E+00   3.49763527E+01  -1.72152176E+01   3.33611107E+01   7.48563290E+00   3.66954803E+01   7.46454048E+00   9.61938381E+00
             1719                3   3.36637497E+01   3.95960579E+01   3.95960579E+01   4.58505344E+00   7.46454048E+00   3.95960579E+01   3.95960579E+01   7.46454048E+00   4.58505344E+00   3.50110054E+01  -1.72152176E+01   3.33849907E+01   7.64422321E+00   3.65368881E+01   7.46454048E+00   9.88666058E+00
             1719                4   3.38942909E+01   3.97437210E+01   3.97437210E+01   4.43739033E+00   7.46454048E+00   3.97437210E+01   3.97437210E+01   7.46454048E+00   4.43739033E+00   3.53063316E+01  -1.72152176E+01   3.35881386E+01   7.42911625E+00   3.67519951E+01   7.46454048E+00   9.83241653E+00
             1720                1   1.03998993E+02   1.05088203E+02   1.05088203E+02   1.08192420E+00   1.09649217E+00   1.05088203E+02   1.05088203E+02   1.09649217E+00   1.08192420E+00   1.04006279E+02  -3.57555389E+01   1.03999001E+02   1.09103608E+00   1.05079094E+02   1.09649217E+00   9.73339438E-01
             1720                2   1.04030846E+02   1.05109436E+02   1.05109436E+02   1.06069779E+00   1.09649217E+00   1.05109436E+02   1.05109436E+02   1.09649217E+00   1.06069779E+00   1.04048737E+02  -3.57555428E+01   1.04030838E+02   1.07017410E+00   1.05099960E+02   1.09649217E+00   9.92984056E-01
             1720                3   1.03970123E+02   1.05068954E+02   1.05068954E+02   1.10117865E+00   1.09649217E+00   1.05068954E+02   1.05068954E+02   1.10117865E+00   1.09649217E+00   1.03972466E+02  -3.57555428E+01   1.03970123E+02   1.11068499E+00   1.05059448E+02   1.09649217E+00   9.94229734E-01
             1720                4   1.04001968E+02   1.05090187E+02   1.05090187E+02   1.07994425E+00   1.09649217E+00   1.05090187E+02   1.05090187E+02   1.09649217E+00   1.07994425E+00   1.04010239E+02  -3.57555389E+01   1.04001968E+02   1.08983123E+00   1.05080299E+02   1.09649217E+00   1.01388395E+00
             1721                1   6.51819611E+01   5.99969978E+01   5.99969978E+01  -4.64392138E+00  -5.71285486E+00   5.99969978E+01   5.99969978E+01  -4.64392138E+00  -5.71285486E+00   6.57098541E+01  -1.65467396E+01   6.51622391E+01  -3.09265685E+00   5.84457321E+01  -5.71285486E+00   9.89286804E+00
             1721                2   6.55978012E+01   6.02762337E+01   6.02762337E+01  -4.92315960E+00  -5.71285486E+00   6.02762337E+01   6.02762337E+01  -4.92315960E+00  -5.71285486E+00   6.59890900E+01  -1.65467396E+01   6.55871124E+01  -3.42548275E+00   5.87785568E+01  -5.71285486E+00   9.76752472E+00
             1721                3   6.55094604E+01   6.02169609E+01   6.02169609E+01  -4.86388493E+00  -5.71285486E+00   6.02169609E+01   6.02169609E+01  -4.86388493E+00  -5.71285486E+00   6.59298172E+01  -1.65467396E+01   6.54970779E+01  -3.21523023E+00   5.85683060E+01  -5.71285486E+00   1.02263317E+01
             1721                4   6.59232101E+01   6.04943047E+01   6.04943047E+01  -5.14123249E+00  -5.71285486E+00   6.04943047E+01   6.04943047E+01  -5.14123249E+00  -5.71285486E+00   6.62071609E+01  -1.65467396E+01   6.59176331E+01  -3.54807115E+00   5.89011459E+01  -5.71285486E+00   1.01009769E+01
             1722                1   3.52569313E+01   2.83292522E+01   2.83292522E+01  -2.19163370E+00  -1.02637386E+01   2.83292522E+01   2.83292522E+01  -2.19163370E+00  -1.02637386E+01   3.85929909E+01  -5.29129362E+00   3.30806007E+01   1.01209402E+00   2.51255245E+01  -1.02637386E+01   9.35503864E+00
             1722                2   3.46598854E+01   2.78663311E+01   2.78663311E+01  -1.72871161E+00  -1.02637386E+01   2.78663311E+01   2.78663311E+01  -1.72871161E+00  -1.02637386E+01   3.81300697E+01  -5.29129362E+00   3.21654930E+01   1.52885544E+00   2.46087627E+01  -1.02637386E+01   9.26261902E+00
             1722                3   3.49787216E+01   2.81143322E+01   2.81143322E+01  -1.97671342E+00  -1.02637386E+01   2.81143322E+01   2.81143322E+01  -1.97671342E+00  -1.02637386E+01   3.83780708E+01  -5.29129362E+00   3.26586189E+01   8.91038954E-01   2.52465801E+01  -1.02637386E+01   8.83570385E+00
             1722                4   3.43750839E+01   2.76432018E+01   2.76432018E+01  -1.50558197E+00  -1.02637386E+01   2.76432018E+01   2.76432018E+01  -1.50558197E+00  -1.02637386E+01   3.79069405E+01  -5.29129362E+00   3.17158375E+01   1.40754747E+00   2.47300720E+01  -1.02637386E+01   8.74230194E+00
             1723                1   9.08923264E+01   8.60480270E+01   8.60480270E+01  -4.90761709E+00  -4.78084898E+00   8.60480270E+01   8.60480270E+01  -4.78084898E+00  -4.90761709E+00   9.09556427E+01  -2.54531879E+01   9.08921280E+01  -3.47755265E+00   8.46179657E+01  -4.78084898E+00   1.13149109E+01
             1723                2   9.04052734E+01   8.57232590E+01   8.57232590E+01  -4.58284998E+00  -4.78084898E+00   8.57232590E+01   8.57232590E+01  -4.58284998E+00  -4.78084898E+00   9.05041122E+01  -2.54531879E+01   9.04047852E+01  -3.12016749E+00   8.42605820E+01  -4.78084898E+00   1.13995380E+01
             1723                3   9.06470032E+01   8.58845215E+01   8.58845215E+01  -4.74410868E+00  -4.78084898E+00   8.58845215E+01   8.58845215E+01  -4.74410868E+00  -4.78084898E+00   9.06653671E+01  -2.54531879E+01   9.06469803E+01  -3.40079570E+00   8.45412064E+01  -4.78084898E+00   1.09516287E+01
             1723                4   9.01578674E+01   8.55580673E+01   8.55580673E+01  -4.41765547E+00  -4.78084898E+00   8.55580673E+01   8.55580673E+01  -4.41765547E+00  -4.78084898E+00   9.03389130E+01  -2.54531879E+01   9.01562195E+01  -3.04331899E+00   8.41837311E+01  -4.78084898E+00   1.10348558E+01
             1724                1   2.20000000E+02   1.84578552E+02   1.84578552E+02  -4.86606750E+01  -1.92167130E+01   1.84578552E+02   1.84578552E+02  -1.92167130E+01  -4.86606750E+01   2.33239227E+02  -3.89003868E+01   2.15500214E+02  -4.82690201E+01   1.84186890E+02  -1.92167130E+01   9.54974365E+00
             1724                2   2.20000000E+02   1.84942764E+02   1.84942764E+02  -4.58276367E+01  -2.24139729E+01   1.84942764E+02   1.84942764E+02  -2.24139729E+01  -4.58276367E+01   2.30770401E+02  -3.89003868E+01   2.17170410E+02  -4.57825317E+01   1.84897659E+02  -2.24139729E+01   3.22600698E+00
             1724                3   2.20000000E+02   1.84197281E+02   1.84197281E+02  -5.10669632E+01  -1.64291553E+01   1.84197281E+02   1.84197281E+02  -1.64291553E+01  -5.10669632E+01   2.35264236E+02  -3.89003868E+01   2.13735840E+02  -5.10279617E+01   1.84158279E+02  -1.64291553E+01   3.02862811E+00
             1724                4   2.20000000E+02   1.84593292E+02   1.84593292E+02  -4.85582848E+01  -1.93338432E+01   1.84593292E+02   1.84593292E+02  -1.93338432E+01  -4.85582848E+01   2.33151566E+02  -3.89003868E+01   2.15568085E+02  -4.85140839E+01   1.84549088E+02  -1.93338432E+01  -3.20987368E+00
             1725                1   6.33898239E+01   6.01910858E+01   6.01910858E+01  -3.22494030E+00  -3.17250204E+00   6.01910858E+01   6.01910858E+01  -3.17250204E+00  -3.22494030E+00   6.34160271E+01  -1.79312153E+01   6.33897705E+01  -2.94568753E+00   5.99118309E+01  -3.17250204E+00   4.19895172E+00
             1725                2   6.32432861E+01   6.00933952E+01   6.00933952E+01  -3.12725353E+00  -3.17250204E+00   6.00933952E+01   6.00933952E+01  -3.12725353E+00  -3.17250204E+00   6.32658958E+01  -1.79312134E+01   6.32432442E+01  -2.82093120E+00   5.97870712E+01  -3.17250204E+00   4.39000130E+00
             1725                3   6.30811577E+01   5.99852257E+01   5.99852257E+01  -3.01908302E+00  -3.17250204E+00   5.99852257E+01   5.99852257E+01  -3.01908302E+00  -3.17250204E+00   6.31577263E+01  -1.79312134E+01   6.30807343E+01  -2.75461626E+00   5.97207565E+01  -3.17250204E+00   4.07340574E+00
             1725                4   6.29337463E+01   5.98867912E+01   5.98867912E+01  -2.92065024E+00  -3.17250204E+00   5.98867912E+01   5.98867912E+01  -2.92065024E+00  -3.17250204E+00   6.30592918E+01  -1.79312134E+01   6.29326096E+01  -2.62976193E+00   5.95959015E+01  -3.17250204E+00   4.26443577E+00
             1726                1   8.03804779E+01   7.41187820E+01   7.41187820E+01  -6.21588993E+00  -6.30741930E+00   7.41187820E+01   7.41187820E+01  -6.21588993E+00  -6.30741930E+00   8.04262009E+01  -2.05318241E+01   8.03803558E+01  -5.12835646E+00   7.30312500E+01  -6.30741930E+00   9.28352833E+00
             1726                2   7.99834442E+01   7.38537216E+01   7.38537216E+01  -5.95083809E+00  -6.30741930E+00   7.38537216E+01   7.38537216E+01  -5.95083809E+00  -6.30741930E+00   8.01611404E+01  -2.05318222E+01   7.99816589E+01  -4.82498837E+00   7.27278748E+01  -6.30741930E+00   9.41171169E+00
             1726                3   8.00948868E+01   7.39281693E+01   7.39281693E+01  -6.02527380E+00  -6.30741930E+00   7.39281693E+01   7.39281693E+01  -6.02527380E+00  -6.30741930E+00   8.02355881E+01  -2.05318241E+01   8.00937653E+01  -5.00434065E+00   7.29072342E+01  -6.30741930E+00   8.97690296E+00
             1726                4   7.96953201E+01   7.36610870E+01   7.36610870E+01  -5.75820255E+00  -6.30741930E+00   7.36610870E+01   7.36610870E+01  -5.75820255E+00  -6.30741930E+00   7.99685059E+01  -2.05318222E+01   7.96910629E+01  -4.70053053E+00   7.26034164E+01  -6.30741930E+00   9.10389137E+00
             1727                1   1.97122269E+02   1.82563995E+02   1.82563995E+02  -1.69718323E+01  -1.20526333E+01   1.82563995E+02   1.82563995E+02  -1.20526333E+01  -1.69718323E+01   1.99535828E+02  -5.11798439E+01   1.96984085E+02  -1.68897648E+01   1.82481934E+02  -1.20526333E+01  -4.04568720E+00
             1727                2   1.98500351E+02   1.83431808E+02   1.83431808E+02  -1.89702759E+01  -1.09220066E+01   1.83431808E+02   1.83431808E+02  -1.09220066E+01  -1.89702759E+01   2.02402084E+02  -5.11798401E+01   1.98132767E+02  -1.87499485E+01   1.83211487E+02  -1.09220066E+01  -6.67421961E+00
             1727                3   1.98322922E+02   1.83326508E+02   1.83326508E+02  -1.85818062E+01  -1.12051773E+01   1.83326508E+02   1.83326508E+02  -1.12051773E+01  -1.85818062E+01   2.01908325E+02  -5.11798401E+01   1.98013916E+02  -1.85765839E+01   1.83321289E+02  -1.12051773E+01  -1.02692807E+00
             1727                4   1.99593201E+02   1.84106644E+02   1.84106644E+02  -2.04795513E+01  -1.00875635E+01   1.84106644E+02   1.84106644E+02  -1.00875635E+01  -2.04795513E+01   2.04586197E+02  -5.11798401E+01   1.98983170E+02  -2.04138317E+01   1.84040924E+02  -1.00875635E+01  -3.66614628E+00
             1728                1   2.01952164E+02   1.88144058E+02   1.88144058E+02  -1.72446423E+01  -1.01865234E+01   1.88144058E+02   1.88144058E+02  -1.01865234E+01  -1.72446423E+01   2.05388702E+02  -5.35709648E+01   2.01674377E+02  -1.70972424E+01   1.87996658E+02  -1.01865234E+01   5.50019741E+00
             1728                2   2.01260910E+02   1.87709747E+02   1.87709747E+02  -1.61581421E+01  -1.08387127E+01   1.87709747E+02   1.87709747E+02  -1.08387127E+01  -1.61581421E+01   2.03867889E+02  -5.35709648E+01   2.01102646E+02  -1.59169226E+01   1.87468521E+02  -1.08387127E+01   7.00856781E+00
             1728                3   2.01508560E+02   1.87872498E+02   1.87872498E+02  -1.63287525E+01  -1.08308554E+01   1.87872498E+02   1.87872498E+02  -1.08308554E+01  -1.63287525E+01   2.04201248E+02  -5.35709648E+01   2.01339706E+02  -1.62642860E+01   1.87808029E+02  -1.08308554E+01   3.62777257E+00
             1728                4   2.00802399E+02   1.87422043E+02   1.87422043E+02  -1.52117205E+01  -1.14974298E+01   1.87422043E+02   1.87422043E+02  -1.14974298E+01  -1.52117205E+01   2.02633774E+02  -5.35709648E+01   2.00725082E+02  -1.50816574E+01   1.87291977E+02  -1.14974298E+01   5.13222551E+00
             1729                1   3.78670311E+01   3.71038780E+01   3.71038780E+01   1.32987276E-01  -1.59980130E+00   3.71038780E+01   3.71038780E+01   1.32987276E-01  -1.59980130E+00   3.87036781E+01  -1.18790216E+01   3.77776756E+01   1.35609651E+00   3.58807678E+01  -1.59980130E+00   6.61237478E+00
             1729                2   3.81207237E+01   3.72768745E+01   3.72768745E+01  -4.00098227E-02  -1.59980130E+00   3.72768745E+01   3.72768745E+01  -4.00098227E-02  -1.59980130E+00   3.88766785E+01  -1.18790216E+01   3.80488243E+01   1.17315185E+00   3.60637131E+01  -1.59980130E+00   6.61813354E+00
             1729                3   3.79520226E+01   3.71618843E+01   3.71618843E+01   7.49760270E-02  -1.59980130E+00   3.71618843E+01   3.71618843E+01   7.49760270E-02  -1.59980130E+00   3.87616882E+01  -1.18790207E+01   3.78687477E+01   1.36526465E+00   3.58715973E+01  -1.59980130E+00   6.79617405E+00
             1729                4   3.82050629E+01   3.73342896E+01   3.73342896E+01  -9.74266455E-02  -1.59980130E+00   3.73342896E+01   3.73342896E+01  -9.74266455E-02  -1.59980130E+00   3.89340897E+01  -1.18790207E+01   3.81385155E+01   1.18241107E+00   3.60544510E+01  -1.59980130E+00   6.80209827E+00
             1730                1   2.93004513E+01   2.36323185E+01   2.36323185E+01  -4.93592352E-01  -8.97259045E+00   2.36323185E+01   2.36323185E+01  -4.93592352E-01  -8.97259045E+00   3.26049080E+01  -4.72204494E+00   2.63206425E+01   3.96660209E-01   2.27420654E+01  -8.97259045E+00   4.54814196E+00
             1730                2   2.88392029E+01   2.32559338E+01   2.32559338E+01  -1.17207848E-01  -8.97259045E+00   2.32559338E+01   2.32559338E+01  -1.17207848E-01  -8.97259045E+00   3.22285233E+01  -4.72204494E+00   2.55001678E+01   7.59736180E-01   2.23789883E+01  -8.97259045E+00   4.44161272E+00
             1730                3   2.92664356E+01   2.36047611E+01   2.36047611E+01  -4.66037452E-01  -8.97259045E+00   2.36047611E+01   2.36047611E+01  -4.66037452E-01  -8.97259045E+00   3.25773506E+01  -4.72204447E+00   2.62614384E+01   2.85357386E-01   2.28533669E+01  -8.97259045E+00   4.18593597E+00
             1730                4   2.88044910E+01   2.32273617E+01   2.32273617E+01  -8.86367261E-02  -8.97259045E+00   2.32273617E+01   2.32273617E+01  -8.86367261E-02  -8.97259045E+00   3.21999512E+01  -4.72204494E+00   2.54368000E+01   6.47793889E-01   2.24909306E+01  -8.97259045E+00   4.07778168E+00
             1731                1   8.58594742E+01   8.02206116E+01   8.02206116E+01  -5.47850895E+00  -5.79831457E+00   8.02206116E+01   8.02206116E+01  -5.47850895E+00  -5.79831457E+00   8.60189285E+01  -2.29812622E+01   8.58581314E+01  -4.77886295E+00   7.95209656E+01  -5.79831457E+00   7.71165514E+00
             1731                2   8.61893311E+01   8.04407883E+01   8.04407883E+01  -5.69868422E+00  -5.79831457E+00   8.04407883E+01   8.04407883E+01  -5.69868422E+00  -5.79831457E+00   8.62391052E+01  -2.29812622E+01   8.61892014E+01  -5.02327728E+00   7.97653809E+01  -5.79831457E+00   7.59756804E+00
             1731                3   8.60927887E+01   8.03763809E+01   8.03763809E+01  -5.63427496E+00  -5.79831457E+00   8.03763809E+01   8.03763809E+01  -5.63427496E+00  -5.79831457E+00   8.61746902E+01  -2.29812622E+01   8.60924454E+01  -4.89173079E+00   7.96338348E+01  -5.79831457E+00   7.95709181E+00
             1731                4   8.64217529E+01   8.05957565E+01   8.05957565E+01  -5.85365105E+00  -5.79831457E+00   8.05957565E+01   8.05957565E+01  -5.79831457E+00  -5.85365105E+00   8.64494019E+01  -2.29812622E+01   8.64217148E+01  -5.13614655E+00   7.98782501E+01  -5.79831457E+00   7.84302282E+00
             1732                1   2.20000000E+02   2.31112534E+02   2.31112534E+02  -1.10333576E+01   4.35262337E+01   2.31112534E+02   2.31112534E+02   4.35262337E+01  -1.10333576E+01   2.42145889E+02  -8.78684692E+01   2.03928284E+02  -1.10320549E+01   2.31111237E+02   4.35262337E+01   5.60897827E-01
             1732                2   2.20000000E+02   2.30446884E+02   2.30446884E+02  -1.32012911E+01   4.63598175E+01   2.30446884E+02   2.30446884E+02   4.63598175E+01  -1.32012911E+01   2.43648178E+02  -8.78684692E+01   2.00623810E+02  -1.29496098E+01   2.30195206E+02   4.63598175E+01  -7.82668829E+00
             1732                3   2.20000000E+02   2.30345520E+02   2.30345520E+02  -1.35122318E+01   4.67721291E+01   2.30345520E+02   2.30345520E+02   4.67721291E+01  -1.35122318E+01   2.43857742E+02  -8.78684692E+01   2.00114716E+02  -1.32844286E+01   2.30117706E+02   4.67721291E+01   7.44989395E+00
             1732                4   2.20000000E+02   2.29716827E+02   2.29716827E+02  -1.53453026E+01   4.92338943E+01   2.29716827E+02   2.29716827E+02   4.92338943E+01  -1.53453026E+01   2.45062134E+02  -8.78684692E+01   1.96920380E+02  -1.53418560E+01   2.29713379E+02   4.92338943E+01  -9.18811738E-01
             1733                1   9.10184479E+01   8.69269562E+01   8.69269562E+01  -4.19838810E+00  -3.98421240E+00   8.69269562E+01   8.69269562E+01  -3.98421240E+00  -4.19838810E+00   9.11253433E+01  -2.62481174E+01   9.10178833E+01  -1.23245025E+00   8.39610214E+01  -3.98421240E+00   1.61701927E+01
             1733                2   9.02785416E+01   8.64336014E+01   8.64336014E+01  -3.70503116E+00  -3.98421240E+00   8.64336014E+01   8.64336014E+01  -3.70503116E+00  -3.98421240E+00   9.04178162E+01  -2.62481174E+01   9.02775803E+01  -6.88054740E-01   8.34166260E+01  -3.98421240E+00   1.62124577E+01
             1733                3   9.06761856E+01   8.66989059E+01   8.66989059E+01  -3.97034073E+00  -3.98421240E+00   8.66989059E+01   8.66989059E+01  -3.97034073E+00  -3.98421240E+00   9.06831207E+01  -2.62481174E+01   9.06761856E+01  -1.19814861E+00   8.39267197E+01  -3.98421240E+00   1.56098480E+01
             1733                4   8.99375000E+01   8.62057343E+01   8.62057343E+01  -3.47716689E+00  -3.98421240E+00   8.62057343E+01   8.62057343E+01  -3.47716689E+00  -3.98421240E+00   9.01899490E+01  -2.62481174E+01   8.99342804E+01  -6.56963289E-01   8.33855286E+01  -3.98421240E+00   1.56515436E+01
             1734                1   6.74702988E+01   6.23314018E+01   6.23314018E+01  -4.75262594E+00  -5.51864862E+00   6.23314018E+01   6.23314018E+01  -4.75262594E+00  -5.51864862E+00   6.78500519E+01  -1.73533764E+01   6.74605179E+01  -3.59208345E+00   6.11708603E+01  -5.51864862E+00   8.74682236E+00
             1734                2   6.78286285E+01   6.25714417E+01   6.25714417E+01  -4.99266434E+00  -5.51864862E+00   6.25714417E+01   6.25714417E+01  -4.99266434E+00  -5.51864862E+00   6.80900879E+01  -1.73533764E+01   6.78240356E+01  -3.87862039E+00   6.14573975E+01  -5.51864862E+00   8.60396385E+00
             1734                3   6.77867203E+01   6.25433922E+01   6.25433922E+01  -4.96461344E+00  -5.51864862E+00   6.25433922E+01   6.25433922E+01  -4.96461344E+00  -5.51864862E+00   6.80620422E+01  -1.73533764E+01   6.77816238E+01  -3.73314428E+00   6.13119202E+01  -5.51864862E+00   9.03423882E+00
             1734                4   6.81432419E+01   6.27818413E+01   6.27818413E+01  -5.20306206E+00  -5.51864862E+00   6.27818413E+01   6.27818413E+01  -5.20306206E+00  -5.51864862E+00   6.83004913E+01  -1.73533764E+01   6.81415939E+01  -4.01963949E+00   6.15984154E+01  -5.51864862E+00   8.89125156E+00
             1735                1   4.17500839E+01   3.88402710E+01   3.88402710E+01  -1.19168580E+00  -4.43836594E+00   3.88402710E+01   3.88402710E+01  -1.19168580E+00  -4.43836594E+00   4.32786369E+01  -1.10700731E+01   4.14646378E+01   4.93740499E-01   3.71548462E+01  -4.43836594E+00   8.03929329E+00
             1735                2   4.21474380E+01   3.91159592E+01   3.91159592E+01  -1.46737468E+00  -4.43836594E+00   3.91159592E+01   3.91159592E+01  -1.46737468E+00  -4.43836594E+00   4.35543251E+01  -1.10700731E+01   4.19108772E+01   1.93749622E-01   3.74548378E+01  -4.43836594E+00   8.04080772E+00
             1735                3   4.19258347E+01   3.89623528E+01   3.89623528E+01  -1.31376421E+00  -4.43836594E+00   3.89623528E+01   3.89623528E+01  -1.31376421E+00  -4.43836594E+00   4.34007187E+01  -1.10700750E+01   4.16626663E+01   5.02012312E-01   3.71465759E+01  -4.43836594E+00   8.35676098E+00
             1735                4   4.23191299E+01   3.92347260E+01   3.92347260E+01  -1.58614016E+00  -4.43836594E+00   3.92347260E+01   3.92347260E+01  -1.58614016E+00  -4.43836594E+00   4.36730919E+01  -1.10700731E+01   4.21020622E+01   2.00108245E-01   3.74484787E+01  -4.43836594E+00   8.35017967E+00
             1736                1   2.18907104E+02   2.14832047E+02   2.14832047E+02  -1.95593796E+01   1.56862764E+01   2.14832047E+02   2.14832047E+02   1.56862764E+01  -1.95593796E+01   2.34391434E+02  -7.03196487E+01   2.12382355E+02  -1.95498695E+01   2.14822540E+02   1.56862764E+01  -1.49322593E+00
             1736                2   2.18947678E+02   2.14585907E+02   2.14585907E+02  -2.10436325E+01   1.74166832E+01   2.14585907E+02   2.14585907E+02   1.74166832E+01  -2.10436325E+01   2.35629532E+02  -7.03196487E+01   2.11146255E+02  -2.09057674E+01   2.14448029E+02   1.74166832E+01  -5.69803238E+00
             1736                3   2.19031494E+02   2.14551453E+02   2.14551453E+02  -2.15317478E+01   1.79392452E+01   2.14551453E+02   2.14551453E+02   1.79392452E+01  -2.15317478E+01   2.36083191E+02  -7.03196487E+01   2.10806076E+02  -2.15265846E+01   2.14546280E+02   1.79392452E+01   1.10437596E+00
             1736                4   2.19071579E+02   2.14285492E+02   2.14285492E+02  -2.29430733E+01   1.96165257E+01   2.14285492E+02   2.14285492E+02   1.96165257E+01  -2.29430733E+01   2.37228561E+02  -7.03196487E+01   2.09465256E+02  -2.28997478E+01   2.14242172E+02   1.96165257E+01  -3.20554066E+00
             1737                1   3.00084438E+01   2.84910221E+01   2.84910221E+01  -1.36824042E-01  -2.72974825E+00   2.84910221E+01   2.84910221E+01  -1.36824042E-01  -2.72974825E+00   3.12207699E+01  -8.54148388E+00   2.97548428E+01  -1.33696437E-01   2.84878941E+01  -2.72974825E+00   2.99250096E-01
             1737                2   2.98791752E+01   2.84005947E+01   2.84005947E+01  -4.63986583E-02  -2.72974825E+00   2.84005947E+01   2.84005947E+01  -4.63986583E-02  -2.72974825E+00   3.11303444E+01  -8.54148293E+00   2.96062679E+01  -3.55949439E-02   2.83897915E+01  -2.72974825E+00   5.54271221E-01
             1737                3   2.96423836E+01   2.82344742E+01   2.82344742E+01   1.19722478E-01  -2.72974825E+00   2.82344742E+01   2.82344742E+01   1.19722478E-01  -2.72974825E+00   3.09642220E+01  -8.54148293E+00   2.93318787E+01   1.21170007E-01   2.82330265E+01  -2.72974825E+00   2.01732263E-01
             1737                4   2.95115833E+01   2.81424389E+01   2.81424389E+01   2.11758509E-01  -2.72974825E+00   2.81424389E+01   2.81424389E+01   2.11758509E-01  -2.72974825E+00   3.08721867E+01  -8.54148293E+00   2.91790390E+01   2.19229668E-01   2.81349678E+01  -2.72974825E+00   4.56719905E-01
             1738                1   6.85054855E+01   6.43652344E+01   6.43652344E+01  -4.08174086E+00  -4.19859314E+00   6.43652344E+01   6.43652344E+01  -4.08174086E+00  -4.19859314E+00   6.85638275E+01  -1.86949673E+01   6.85052567E+01  -4.05352259E+00   6.43370209E+01  -4.19859314E+00   1.38949883E+00
             1738                2   6.85547180E+01   6.43980865E+01   6.43980865E+01  -4.11459255E+00  -4.19859314E+00   6.43980865E+01   6.43980865E+01  -4.11459255E+00  -4.19859314E+00   6.85966797E+01  -1.86949673E+01   6.85546036E+01  -4.09360266E+00   6.43770981E+01  -4.19859314E+00   1.19899905E+00
             1738                3   6.87934418E+01   6.45572433E+01   6.45572433E+01  -4.27374172E+00  -4.19859314E+00   6.45572433E+01   6.45572433E+01  -4.19859314E+00  -4.27374172E+00   6.88309860E+01  -1.86949692E+01   6.87933502E+01  -4.24402809E+00   6.45275269E+01  -4.19859314E+00   1.42984629E+00
             1738                4   6.88424911E+01   6.45899200E+01   6.45899200E+01  -4.30642653E+00  -4.19859314E+00   6.45899200E+01   6.45899200E+01  -4.19859314E+00  -4.30642653E+00   6.88963470E+01  -1.86949673E+01   6.88423004E+01  -4.28412342E+00   6.45676193E+01  -4.19859314E+00   1.23936987E+00
             1739                1   2.40762691E+01   1.61191330E+01   1.61191330E+01  -5.64627886E-01  -1.14816628E+01   1.61191330E+01   1.61191330E+01  -5.64627886E-01  -1.14816628E+01   2.76007957E+01  -1.35761392E+00   1.70060902E+01   6.00140393E-01   1.49543638E+01  -1.14816628E+01   4.25159168E+00
             1739                2   2.36273918E+01   1.56797380E+01   1.56797380E+01  -1.25233844E-01  -1.14816628E+01   1.56797380E+01   1.56797380E+01  -1.25233844E-01  -1.14816628E+01   2.71614017E+01  -1.35761392E+00   1.54404316E+01   1.04078960E+00   1.45137148E+01  -1.14816628E+01   4.13150787E+00
             1739                3   2.39718075E+01   1.60182438E+01   1.60182438E+01  -4.63739574E-01  -1.14816628E+01   1.60182438E+01   1.60182438E+01  -4.63739574E-01  -1.14816628E+01   2.74999065E+01  -1.35761356E+00   1.66650658E+01   4.71263319E-01   1.50832405E+01  -1.14816628E+01   3.81267166E+00
             1739                4   2.35204811E+01   1.55727034E+01   1.55727034E+01  -1.82003919E-02  -1.14816628E+01   1.55727034E+01   1.55727034E+01  -1.82003919E-02  -1.14816628E+01   2.70543671E+01  -1.35761356E+00   1.50220041E+01   9.11939085E-01   1.46425648E+01  -1.14816628E+01   3.69277000E+00
             1740                1   6.58715210E+01   6.14716148E+01   6.14716148E+01  -4.34411144E+00  -4.45556831E+00   6.14716148E+01   6.14716148E+01  -4.34411144E+00  -4.45556831E+00   6.59271851E+01  -1.75573120E+01   6.58713074E+01  -3.62719607E+00   6.07546997E+01  -4.45556831E+00   6.83156347E+00
             1740                2   6.56160431E+01   6.13010368E+01   6.13010368E+01  -4.17353535E+00  -4.45556831E+00   6.13010368E+01   6.13010368E+01  -4.17353535E+00  -4.45556831E+00   6.57566071E+01  -1.75573120E+01   6.56146774E+01  -3.41665626E+00   6.05441589E+01  -4.45556831E+00   6.99881792E+00
             1740                3   6.55629349E+01   6.12655525E+01   6.12655525E+01  -4.13804483E+00  -4.45556831E+00   6.12655525E+01   6.12655525E+01  -4.13804483E+00  -4.45556831E+00   6.57211227E+01  -1.75573120E+01   6.55612030E+01  -3.46094966E+00   6.05884552E+01  -4.45556831E+00   6.62011623E+00
             1740                4   6.53060684E+01   6.10937729E+01   6.10937729E+01  -3.96627045E+00  -4.45556831E+00   6.10937729E+01   6.10937729E+01  -3.96627045E+00  -4.45556831E+00   6.55493393E+01  -1.75573120E+01   6.53019409E+01  -3.25032306E+00   6.03778267E+01  -4.45556831E+00   6.78726149E+00
             1741                1   1.08240288E+02   1.14160309E+02   1.14160309E+02   5.89675474E+00   5.94330263E+00   1.14160309E+02   1.14160309E+02   5.94330263E+00   5.89675474E+00   1.08263550E+02  -4.20001221E+01   1.08240257E+02   5.90578461E+00   1.14151276E+02   5.94330263E+00   9.88710642E-01
             1741                2   1.08263535E+02   1.14175804E+02   1.14175804E+02   5.88125563E+00   5.94330263E+00   1.14175804E+02   1.14175804E+02   5.94330263E+00   5.88125563E+00   1.08294548E+02  -4.20001221E+01   1.08263496E+02   5.89181805E+00   1.14165245E+02   5.94330263E+00   1.06931984E+00
             1741                3   1.08119728E+02   1.14079933E+02   1.14079933E+02   5.97712517E+00   5.94330263E+00   1.14079933E+02   1.14079933E+02   5.97712517E+00   5.94330263E+00   1.08136635E+02  -4.20001221E+01   1.08119713E+02   5.98642778E+00   1.14070633E+02   5.94330263E+00   1.00275636E+00
             1741                4   1.08143028E+02   1.14095474E+02   1.14095474E+02   5.96158743E+00   5.94330263E+00   1.14095474E+02   1.14095474E+02   5.96158743E+00   5.94330263E+00   1.08152168E+02  -4.20001221E+01   1.08143021E+02   5.97244406E+00   1.14084618E+02   5.94330263E+00   1.08336473E+00
             1742                1   3.58785362E+01   3.84911003E+01   3.84911003E+01   1.37593746E+00   3.99244308E+00   3.84911003E+01   3.84911003E+01   3.99244308E+00   1.37593746E+00   3.71151657E+01  -1.46198273E+01   3.56629372E+01   2.76161647E+00   3.71054230E+01   3.99244308E+00   7.03630400E+00
             1742                2   3.58055077E+01   3.84440269E+01   3.84440269E+01   1.42301250E+00   3.99244308E+00   3.84440269E+01   3.84440269E+01   3.99244308E+00   1.42301250E+00   3.70210152E+01  -1.46198273E+01   3.55972023E+01   2.80487156E+00   3.70621681E+01   3.99244308E+00   7.01771021E+00
             1742                3   3.58791809E+01   3.84915161E+01   3.84915161E+01   1.37552619E+00   3.99244308E+00   3.84915161E+01   3.84915161E+01   3.99244308E+00   1.37552619E+00   3.71159897E+01  -1.46198282E+01   3.56635132E+01   2.74242091E+00   3.71246223E+01   3.99244308E+00   6.99036646E+00
             1742                4   3.58066254E+01   3.84447479E+01   3.84447479E+01   1.42229605E+00   3.99244308E+00   3.84447479E+01   3.84447479E+01   3.99244308E+00   1.42229605E+00   3.70224495E+01  -1.46198282E+01   3.55982056E+01   2.78555584E+00   3.70814857E+01   3.99244308E+00   6.97228622E+00
             1743                1   5.78947678E+01   5.68373451E+01   5.68373451E+01  -1.11533749E+00  -9.99329090E-01   5.68373451E+01   5.68373451E+01  -9.99329090E-01  -1.11533749E+00   5.79526825E+01  -1.82408924E+01   5.78945045E+01  -1.09873271E+00   5.68207397E+01  -9.99329090E-01   9.80845392E-01
             1743                2   5.78617020E+01   5.68153229E+01   5.68153229E+01  -1.09331107E+00  -9.99329090E-01   5.68153229E+01   5.68153229E+01  -9.99329090E-01  -1.09331107E+00   5.79086342E+01  -1.82408943E+01   5.78615265E+01  -1.06868827E+00   5.67906990E+01  -9.99329090E-01   1.19386613E+00
             1743                3   5.75736160E+01   5.66232643E+01   5.66232643E+01  -9.01255071E-01  -9.99329090E-01   5.66232643E+01   5.66232643E+01  -9.01255071E-01  -9.99329090E-01   5.76225929E+01  -1.82408924E+01   5.75734291E+01  -8.85547459E-01   5.66075554E+01  -9.99329090E-01   9.50428486E-01
             1743                4   5.75402489E+01   5.66009979E+01   5.66009979E+01  -8.78986120E-01  -9.99329090E-01   5.66009979E+01   5.66009979E+01  -8.78986120E-01  -9.99329090E-01   5.76003265E+01  -1.82408943E+01   5.75399666E+01  -8.55427682E-01   5.65774384E+01  -9.99329090E-01   1.16345763E+00
             1744                1   2.70386829E+01   2.27871914E+01   2.27871914E+01  -8.23663920E-02  -7.05486488E+00   2.27871914E+01   2.27871914E+01  -8.23663920E-02  -7.05486488E+00   2.98420563E+01  -5.21665335E+00   2.48926353E+01  -7.40794837E-02   2.27789040E+01  -7.05486488E+00   4.35256869E-01
             1744                2   2.69198380E+01   2.26933384E+01   2.26933384E+01   1.14858393E-02  -7.05486488E+00   2.26933384E+01   2.26933384E+01   1.14858393E-02  -7.05486488E+00   2.97482033E+01  -5.21665335E+00   2.47006626E+01   3.00814807E-02   2.26747437E+01  -7.05486488E+00   6.49170458E-01
             1744                3   2.67641354E+01   2.25698261E+01   2.25698261E+01   1.35000125E-01  -7.05486488E+00   2.25698261E+01   2.25698261E+01   1.35000125E-01  -7.05486488E+00   2.96246910E+01  -5.21665382E+00   2.44458618E+01   1.39894098E-01   2.25649319E+01  -7.05486488E+00   3.31331074E-01
             1744                4   2.66441154E+01   2.24741783E+01   2.24741783E+01   2.30645820E-01  -7.05486488E+00   2.24741783E+01   2.24741783E+01   2.30645820E-01  -7.05486488E+00   2.95290432E+01  -5.21665335E+00   2.42468033E+01   2.44019464E-01   2.24608059E+01  -7.05486488E+00   5.45231998E-01
             1745                1   1.94448944E+02   1.69643997E+02   1.69643997E+02  -2.65742931E+01  -2.29859390E+01   1.69643997E+02   1.69643997E+02  -2.29859390E+01  -2.65742931E+01   1.96218292E+02  -4.00279198E+01   1.94374420E+02  -2.65557480E+01   1.69625443E+02  -2.29859390E+01  -1.90789819E+00
             1745                2   1.93226013E+02   1.68845001E+02   1.68845001E+02  -2.46081009E+01  -2.41531448E+01   1.68845001E+02   1.68845001E+02  -2.41531448E+01  -2.46081009E+01   1.93453094E+02  -4.00279160E+01   1.93224808E+02  -2.46057281E+01   1.68842621E+02  -2.41531448E+01  -6.77571535E-01
             1745                3   1.93906845E+02   1.69290939E+02   1.69290939E+02  -2.58654575E+01  -2.33417168E+01   1.69290939E+02   1.69290939E+02  -2.33417168E+01  -2.58654575E+01   1.95156387E+02  -4.00279198E+01   1.93869888E+02  -2.57359028E+01   1.69161377E+02  -2.33417168E+01  -5.02664423E+00
             1745                4   1.92662689E+02   1.68469147E+02   1.68469147E+02  -2.38618412E+01  -2.45235424E+01   1.68469147E+02   1.68469147E+02  -2.38618412E+01  -2.45235424E+01   1.92992691E+02  -4.00279198E+01   1.92660126E+02  -2.37858505E+01   1.68393143E+02  -2.45235424E+01  -3.82246161E+00
             1746                1   6.80881119E+01   6.34262848E+01   6.34262848E+01  -4.44899845E+00  -4.87267017E+00   6.34262848E+01   6.34262848E+01  -4.44899845E+00  -4.87267017E+00   6.82989578E+01  -1.80348721E+01   6.80851440E+01  -3.84913516E+00   6.28264236E+01  -4.87267017E+00   6.35263634E+00
             1746                2   6.83342056E+01   6.35907631E+01   6.35907631E+01  -4.61347580E+00  -4.87267017E+00   6.35907631E+01   6.35907631E+01  -4.61347580E+00  -4.87267017E+00   6.84634323E+01  -1.80348721E+01   6.83330994E+01  -4.04791975E+00   6.30252075E+01  -4.87267017E+00   6.18493700E+00
             1746                3   6.83898697E+01   6.36279373E+01   6.36279373E+01  -4.65064907E+00  -4.87267017E+00   6.36279373E+01   6.36279373E+01  -4.65064907E+00  -4.87267017E+00   6.85006104E+01  -1.80348721E+01   6.83890533E+01  -4.01592255E+00   6.29932098E+01  -4.87267017E+00   6.55250788E+00
             1746                4   6.86347122E+01   6.37913399E+01   6.37913399E+01  -4.81404734E+00  -4.87267017E+00   6.37913399E+01   6.37913399E+01  -4.81404734E+00  -4.87267017E+00   6.86640091E+01  -1.80348740E+01   6.86346512E+01  -4.21462011E+00   6.31919098E+01  -4.87267017E+00   6.38471413E+00
             1747                1   1.06838860E+02   1.10909889E+02   1.10909889E+02   4.00655174E+00   4.13562632E+00   1.10909889E+02   1.10909889E+02   4.13562632E+00   4.00655174E+00   1.06903336E+02  -3.96840248E+01   1.06838684E+02   4.14606094E+00   1.10770378E+02   4.13562632E+00   3.85939360E+00
             1747                2   1.06763565E+02   1.10859718E+02   1.10859718E+02   4.05672503E+00   4.13562632E+00   1.10859718E+02   1.10859718E+02   4.13562632E+00   4.05672503E+00   1.06802994E+02  -3.96840248E+01   1.06763496E+02   4.20123959E+00   1.10715202E+02   4.13562632E+00   3.92604089E+00
             1747                3   1.06733696E+02   1.10839813E+02   1.10839813E+02   4.07662201E+00   4.13562632E+00   1.10839813E+02   1.10839813E+02   4.13562632E+00   4.07662201E+00   1.06763191E+02  -3.96840210E+01   1.06733665E+02   4.21232939E+00   1.10704109E+02   4.13562632E+00   3.80391526E+00
             1747                4   1.06658295E+02   1.10789551E+02   1.10789551E+02   4.12689018E+00   4.13562632E+00   1.10789551E+02   1.10789551E+02   4.13562632E+00   4.12689018E+00   1.06662659E+02  -3.96840248E+01   1.06658287E+02   4.26752901E+00   1.10648911E+02   4.13562632E+00   3.87059212E+00
             1748                1   7.22524643E+01   6.68483810E+01   6.68483810E+01  -5.17874193E+00  -5.62734079E+00   6.68483810E+01   6.68483810E+01  -5.17874193E+00  -5.62734079E+00   7.24757156E+01  -1.86807652E+01   7.22493362E+01  -4.51073742E+00   6.61803741E+01  -5.62734079E+00   6.90422297E+00
             1748                2   7.25334320E+01   6.70361557E+01   6.70361557E+01  -5.36651611E+00  -5.62734079E+00   6.70361557E+01   6.70361557E+01  -5.36651611E+00  -5.62734079E+00   7.26634903E+01  -1.86807652E+01   7.25323715E+01  -4.73213673E+00   6.64017715E+01  -5.62734079E+00   6.74746323E+00
             1748                3   7.25452576E+01   6.70440521E+01   6.70440521E+01  -5.37441111E+00  -5.62734079E+00   6.70440521E+01   6.70440521E+01  -5.37441111E+00  -5.62734079E+00   7.26713943E+01  -1.86807652E+01   7.25442657E+01  -4.66614437E+00   6.63357849E+01  -5.62734079E+00   7.12670088E+00
             1748                4   7.28250732E+01   6.72307968E+01   6.72307968E+01  -5.56116486E+00  -5.62734079E+00   6.72307968E+01   6.72307968E+01  -5.56116486E+00  -5.62734079E+00   7.28581390E+01  -1.86807632E+01   7.28250046E+01  -4.88754177E+00   6.65571747E+01  -5.62734079E+00   6.96997213E+00
             1749                1   1.83587036E+02   1.66838226E+02   1.66838226E+02  -1.60003662E+01  -1.74881992E+01   1.66838226E+02   1.66838226E+02  -1.60003662E+01  -1.74881992E+01   1.84326431E+02  -4.44498863E+01   1.83573471E+02  -1.59996777E+01   1.66837540E+02  -1.74881992E+01   3.54375809E-01
             1749                2   1.83395645E+02   1.66709427E+02   1.66709427E+02  -1.57991409E+01  -1.75606136E+01   1.66709427E+02   1.66709427E+02  -1.57991409E+01  -1.75606136E+01   1.84270035E+02  -4.44498901E+01   1.83376602E+02  -1.57578993E+01   1.66668182E+02  -1.75606136E+01  -2.74306560E+00
             1749                3   1.85434769E+02   1.68069626E+02   1.68069626E+02  -1.81588783E+01  -1.65610828E+01   1.68069626E+02   1.68069626E+02  -1.65610828E+01  -1.81588783E+01   1.86228500E+02  -4.44498901E+01   1.85419281E+02  -1.81588707E+01   1.68069626E+02  -1.65610828E+01   2.32148897E-02
             1749                4   1.85253174E+02   1.67949585E+02   1.67949585E+02  -1.79684048E+01  -1.66315231E+01   1.67949585E+02   1.67949585E+02  -1.66315231E+01  -1.79684048E+01   1.85917999E+02  -4.44498901E+01   1.85242310E+02  -1.79183331E+01   1.67899521E+02  -1.66315231E+01  -3.05065203E+00
             1750                1   1.96349899E+02   1.75851685E+02   1.75851685E+02  -2.17137756E+01  -1.92596340E+01   1.75851685E+02   1.75851685E+02  -1.92596340E+01  -2.17137756E+01   1.97565460E+02  -4.49594269E+01   1.96315369E+02  -2.16790638E+01   1.75816971E+02  -1.92596340E+01   2.61861134E+00
             1750                2   1.95836411E+02   1.75513779E+02   1.75513779E+02  -2.11154919E+01  -1.95200233E+01   1.75513779E+02   1.75513779E+02  -1.95200233E+01  -2.11154919E+01   1.96629272E+02  -4.49594231E+01   1.95821777E+02  -2.10279045E+01   1.75426193E+02  -1.95200233E+01   4.14896154E+00
             1750                3   1.95878036E+02   1.75543732E+02   1.75543732E+02  -2.07854328E+01  -1.98800278E+01   1.75543732E+02   1.75543732E+02  -1.98800278E+01  -2.07854328E+01   1.96329163E+02  -4.49594231E+01   1.95873337E+02  -2.07707863E+01   1.75529083E+02  -1.98800278E+01   1.69589126E+00
             1750                4   1.95355240E+02   1.75196259E+02   1.75196259E+02  -2.01725254E+01  -2.01454525E+01   1.75196259E+02   1.75196259E+02  -2.01454525E+01  -2.01725254E+01   1.95368774E+02  -4.49594269E+01   1.95355225E+02  -2.01190529E+01   1.75142776E+02  -2.01454525E+01   3.23182416E+00
             1751                1   1.97167084E+02   1.73211166E+02   1.73211166E+02  -2.65840321E+01  -2.12182446E+01   1.73211166E+02   1.73211166E+02  -2.12182446E+01  -2.65840321E+01   1.99795197E+02  -4.18029633E+01   1.97002686E+02  -2.65419235E+01   1.73169052E+02  -2.12182446E+01  -2.90046024E+00
             1751                2   1.95829102E+02   1.72349777E+02   1.72349777E+02  -2.45463791E+01  -2.23945293E+01   1.72349777E+02   1.72349777E+02  -2.23945293E+01  -2.45463791E+01   1.96896164E+02  -4.18029594E+01   1.95802505E+02  -2.45394745E+01   1.72342880E+02  -2.23945293E+01  -1.16588926E+00
             1751                3   1.96405563E+02   1.72721130E+02   1.72721130E+02  -2.55807724E+01  -2.17314816E+01   1.72721130E+02   1.72721130E+02  -2.17314816E+01  -2.55807724E+01   1.98301910E+02  -4.18029594E+01   1.96320663E+02  -2.53932858E+01   1.72533646E+02  -2.17314816E+01  -6.09465981E+00
             1751                4   1.95036636E+02   1.71826981E+02   1.71826981E+02  -2.34890804E+01  -2.29290161E+01   1.71826981E+02   1.71826981E+02  -2.29290161E+01  -2.34890804E+01   1.95316071E+02  -4.18029633E+01   1.95034821E+02  -2.33906612E+01   1.71728561E+02  -2.29290161E+01  -4.38341665E+00
             1752                1   9.23947525E+01   8.77511292E+01   8.77511292E+01  -4.59646654E+00  -4.69071436E+00   8.77511292E+01   8.77511292E+01  -4.59646654E+00  -4.69071436E+00   9.24418411E+01  -2.61546497E+01   9.23946457E+01  -4.47985077E+00   8.76345139E+01  -4.69071436E+00   3.27956915E+00
             1752                2   9.25285187E+01   8.78403320E+01   8.78403320E+01  -4.68566751E+00  -4.69071436E+00   8.78403320E+01   8.78403320E+01  -4.68566751E+00  -4.69071436E+00   9.25310440E+01  -2.61546497E+01   9.25285187E+01  -4.57563400E+00   8.77303009E+01  -4.69071436E+00   3.18880939E+00
             1752                3   9.25408478E+01   8.78485489E+01   8.78485489E+01  -4.69388676E+00  -4.69071436E+00   8.78485489E+01   8.78485489E+01  -4.69071436E+00  -4.69388676E+00   9.25424347E+01  -2.61546497E+01   9.25408478E+01  -4.57057667E+00   8.77252426E+01  -4.69071436E+00   3.37578678E+00
             1752                4   9.26744003E+01   8.79375610E+01   8.79375610E+01  -4.78289747E+00  -4.69071436E+00   8.79375610E+01   8.79375610E+01  -4.69071436E+00  -4.78289747E+00   9.27204590E+01  -2.61546497E+01   9.26742935E+01  -4.66636467E+00   8.78210297E+01  -4.69071436E+00   3.28500223E+00
             1753                1   2.19055817E+02   2.32878220E+02   2.32878220E+02  -3.32223320E+00   3.64041100E+01   2.32878220E+02   2.32878220E+02   3.64041100E+01  -3.32223320E+00   2.36200455E+02  -8.86533585E+01   2.10721527E+02  -3.31806254E+00   2.32874054E+02   3.64041100E+01  -9.91704583E-01
             1753                2   2.19206345E+02   2.32597137E+02   2.32597137E+02  -5.16533232E+00   3.85282784E+01   2.32597137E+02   2.32597137E+02   3.85282784E+01  -5.16533232E+00   2.37762466E+02  -8.86533585E+01   2.09069366E+02  -4.94739676E+00   2.32379211E+02   3.85282784E+01  -7.19499111E+00
             1753                3   2.19266464E+02   2.32537521E+02   2.32537521E+02  -5.62567234E+00   3.90482407E+01   2.32537521E+02   2.32537521E+02   3.90482407E+01  -5.62567234E+00   2.38163193E+02  -8.86533585E+01   2.08655334E+02  -5.56803370E+00   2.32479889E+02   3.90482407E+01   3.70442748E+00
             1753                4   2.19403259E+02   2.32247726E+02   2.32247726E+02  -7.25656080E+00   4.09689331E+01   2.32247726E+02   2.32247726E+02   4.09689331E+01  -7.25656080E+00   2.39504288E+02  -8.86533585E+01   2.06968292E+02  -7.23185730E+00   2.32223022E+02   4.09689331E+01  -2.43228793E+00
             1754                1   6.19048233E+01   5.88264961E+01   5.88264961E+01  -2.89569354E+00  -3.25936413E+00   5.88264961E+01   5.88264961E+01  -2.89569354E+00  -3.25936413E+00   6.20858574E+01  -1.75571461E+01   6.19024239E+01  -2.37773156E+00   5.83085327E+01  -3.25936413E+00   5.63040686E+00
             1754                2   6.21008797E+01   5.89575157E+01   5.89575157E+01  -3.02671361E+00  -3.25936413E+00   5.89575157E+01   5.89575157E+01  -3.02671361E+00  -3.25936413E+00   6.22168808E+01  -1.75571461E+01   6.20999031E+01  -2.54410124E+00   5.84749031E+01  -3.25936413E+00   5.44806528E+00
             1754                3   6.22189445E+01   5.90363464E+01   5.90363464E+01  -3.10554528E+00  -3.25936413E+00   5.90363464E+01   5.90363464E+01  -3.10554528E+00  -3.25936413E+00   6.22957115E+01  -1.75571461E+01   6.22185173E+01  -2.55993223E+00   5.84907341E+01  -3.25936413E+00   5.79721498E+00
             1754                4   6.24138603E+01   5.91663818E+01   5.91663818E+01  -3.23558116E+00  -3.25936413E+00   5.91663818E+01   5.91663818E+01  -3.23558116E+00  -3.25936413E+00   6.24257469E+01  -1.75571461E+01   6.24138489E+01  -2.72620583E+00   5.86570053E+01  -3.25936413E+00   5.61486197E+00
             1755                1   3.39002953E+01   3.32056084E+01   3.32056084E+01   2.81575441E-01  -1.59315121E+00   3.32056084E+01   3.32056084E+01   2.81575441E-01  -1.59315121E+00   3.47987595E+01  -1.06313438E+01   3.37833710E+01   7.11288214E-01   3.27758942E+01  -1.59315121E+00   3.73674083E+00
             1755                2   3.41894798E+01   3.34037666E+01   3.34037666E+01   8.34155604E-02  -1.59315121E+00   3.34037666E+01   3.34037666E+01   8.34155604E-02  -1.59315121E+00   3.49969177E+01  -1.06313438E+01   3.40968056E+01   5.26058316E-01   3.29611244E+01  -1.59315121E+00   3.81484938E+00
             1755                3   3.38492241E+01   3.31705399E+01   3.31705399E+01   3.16644460E-01  -1.59315121E+00   3.31705399E+01   3.31705399E+01   3.16644460E-01  -1.59315121E+00   3.47636909E+01  -1.06313438E+01   3.37276878E+01   7.91638076E-01   3.26955452E+01  -1.59315121E+00   3.92170238E+00
             1755                4   3.41386986E+01   3.33690186E+01   3.33690186E+01   1.18164279E-01  -1.59315121E+00   3.33690186E+01   3.33690186E+01   1.18164279E-01  -1.59315121E+00   3.49621696E+01  -1.06313438E+01   3.40419884E+01   6.06486678E-01   3.28806953E+01  -1.59315121E+00   3.99983716E+00
             1756                1   7.56654587E+01   6.98457489E+01   6.98457489E+01  -5.81616974E+00  -5.82324553E+00   6.98457489E+01   6.98457489E+01  -5.81616974E+00  -5.82324553E+00   7.56689911E+01  -1.94021111E+01   7.56654587E+01  -5.27426291E+00   6.93038406E+01  -5.82324553E+00   6.38029480E+00
             1756                2   7.54046478E+01   6.96717682E+01   6.96717682E+01  -5.64218807E+00  -5.82324553E+00   6.96717682E+01   6.96717682E+01  -5.64218807E+00  -5.82324553E+00   7.54950104E+01  -1.94021111E+01   7.54041595E+01  -5.07058716E+00   6.91001663E+01  -5.82324553E+00   6.53626823E+00
             1756                3   7.53856583E+01   6.96590958E+01   6.96590958E+01  -5.62951279E+00  -5.82324553E+00   6.96590958E+01   6.96590958E+01  -5.62951279E+00  -5.82324553E+00   7.54823380E+01  -1.94021111E+01   7.53851013E+01  -5.11970472E+00   6.91492844E+01  -5.82324553E+00   6.17436743E+00
             1756                4   7.51234283E+01   6.94839401E+01   6.94839401E+01  -5.45436287E+00  -5.82324553E+00   6.94839401E+01   6.94839401E+01  -5.45436287E+00  -5.82324553E+00   7.53071899E+01  -1.94021111E+01   7.51213837E+01  -4.91579771E+00   6.89453735E+01  -5.82324553E+00   6.33003473E+00
             1757                1   5.48861084E+01   5.46924858E+01   5.46924858E+01  -1.35017157E-01  -2.52040237E-01   5.46924858E+01   5.46924858E+01  -1.35017157E-01  -2.52040237E-01   5.49445267E+01  -1.81018085E+01   5.48858261E+01   1.41870622E-02   5.45432816E+01  -2.52040237E-01   2.85626006E+00
             1757                2   5.52142830E+01   5.49112854E+01   5.49112854E+01  -3.53816360E-01  -2.52040237E-01   5.49112854E+01   5.49112854E+01  -2.52040237E-01  -3.53816360E-01   5.52651024E+01  -1.81018085E+01   5.52140732E+01  -1.97333917E-01   5.47548027E+01  -2.52040237E-01   2.93658137E+00
             1757                3   5.48006172E+01   5.46354179E+01   5.46354179E+01  -7.79477283E-02  -2.52040237E-01   5.46354179E+01   5.46354179E+01  -7.79477283E-02  -2.52040237E-01   5.48874550E+01  -1.81018085E+01   5.47999954E+01   9.45714042E-02   5.44628983E+01  -2.52040237E-01   3.06745362E+00
             1757                4   5.51295967E+01   5.48548660E+01   5.48548660E+01  -2.97396719E-01  -2.52040237E-01   5.48548660E+01   5.48548660E+01  -2.52040237E-01  -2.97396719E-01   5.51522636E+01  -1.81018085E+01   5.51295586E+01  -1.17151454E-01   5.46746216E+01  -2.52040237E-01   3.14775348E+00
             1758                1   8.76875839E+01   8.20240555E+01   8.20240555E+01  -5.70934153E+00  -5.61764860E+00   8.20240555E+01   8.20240555E+01  -5.61764860E+00  -5.70934153E+00   8.77333984E+01  -2.35656891E+01   8.76874771E+01  -5.36542273E+00   8.16801376E+01  -5.61764860E+00   5.48221540E+00
             1758                2   8.74602737E+01   8.18725281E+01   8.18725281E+01  -5.55781555E+00  -5.61764860E+00   8.18725281E+01   8.18725281E+01  -5.55781555E+00  -5.61764860E+00   8.74901733E+01  -2.35656891E+01   8.74602280E+01  -5.19779301E+00   8.15125046E+01  -5.61764860E+00   5.59887028E+00
             1758                3   8.74837646E+01   8.18881912E+01   8.18881912E+01  -5.57348061E+00  -5.61764860E+00   8.18881912E+01   8.18881912E+01  -5.57348061E+00  -5.61764860E+00   8.75058441E+01  -2.35656891E+01   8.74837418E+01  -5.24942446E+00   8.15641403E+01  -5.61764860E+00   5.31386614E+00
             1758                4   8.72558746E+01   8.17361603E+01   8.17361603E+01  -5.42144632E+00  -5.61764860E+00   8.17361603E+01   8.17361603E+01  -5.42144632E+00  -5.61764860E+00   8.73538055E+01  -2.35656891E+01   8.72553711E+01  -5.08177423E+00   8.13964844E+01  -5.61764860E+00   5.43045425E+00
             1759                1   2.20000000E+02   2.11416672E+02   2.11416672E+02  -2.62701607E+01   1.49283800E+01   2.11416672E+02   2.11416672E+02   1.49283800E+01  -2.62701607E+01   2.37686829E+02  -6.66916275E+01   2.11057678E+02  -2.60894337E+01   2.11235947E+02   1.49283800E+01   6.55164480E+00
             1759                2   2.20000000E+02   2.11261505E+02   2.11261505E+02  -2.69942150E+01   1.58076048E+01   2.11261505E+02   2.11261505E+02   1.58076048E+01  -2.69942150E+01   2.38255722E+02  -6.66916275E+01   2.10324097E+02  -2.67517509E+01   2.11019043E+02   1.58076048E+01   7.59661627E+00
             1759                3   2.20000000E+02   2.11524719E+02   2.11524719E+02  -2.57465076E+01   1.42966661E+01   2.11524719E+02   2.11524719E+02   1.42966661E+01  -2.57465076E+01   2.37271225E+02  -6.66916275E+01   2.11566757E+02  -2.54883976E+01   2.11266617E+02   1.42966661E+01   7.82139683E+00
             1759                4   2.20000000E+02   2.11369507E+02   2.11369507E+02  -2.64936142E+01   1.51990042E+01   2.11369507E+02   2.11369507E+02   1.51990042E+01  -2.64936142E+01   2.37863113E+02  -6.66916275E+01   2.10834991E+02  -2.61631927E+01   2.11039078E+02   1.51990042E+01   8.85922909E+00
             1760                1   9.28850479E+01   8.81910477E+01   8.81910477E+01  -4.73287106E+00  -4.65508556E+00   8.81910477E+01   8.81910477E+01  -4.65508556E+00  -4.73287106E+00   9.29239197E+01  -2.62676983E+01   9.28849716E+01  -4.68996096E+00   8.81481400E+01  -4.65508556E+00   1.99630022E+00
             1760                2   9.28033981E+01   8.81366272E+01   8.81366272E+01  -4.67845106E+00  -4.65508556E+00   8.81366272E+01   8.81366272E+01  -4.65508556E+00  -4.67845106E+00   9.28150787E+01  -2.62676983E+01   9.28033905E+01  -4.63151503E+00   8.80896912E+01  -4.65508556E+00   2.08665323E+00
             1760                3   9.27457504E+01   8.80981979E+01   8.80981979E+01  -4.64002180E+00  -4.65508556E+00   8.80981979E+01   8.80981979E+01  -4.64002180E+00  -4.65508556E+00   9.27532806E+01  -2.62676983E+01   9.27457504E+01  -4.59951639E+00   8.80576935E+01  -4.65508556E+00   1.93768251E+00
             1760                4   9.26640244E+01   8.80437012E+01   8.80437012E+01  -4.58552313E+00  -4.65508556E+00   8.80437012E+01   8.80437012E+01  -4.58552313E+00  -4.65508556E+00   9.26987839E+01  -2.62676983E+01   9.26639633E+01  -4.54109573E+00   8.79992752E+01  -4.65508556E+00   2.02804255E+00
             1761                1   7.04629669E+01   6.50038757E+01   6.50038757E+01  -5.12582636E+00  -5.78770351E+00   6.50038757E+01   6.50038757E+01  -5.12582636E+00  -5.78770351E+00   7.07915802E+01  -1.80301151E+01   7.04559708E+01  -4.09493351E+00   6.39729805E+01  -5.78770351E+00   8.43998909E+00
             1761                2   7.08135376E+01   6.52384949E+01   6.52384949E+01  -5.36044502E+00  -5.78770351E+00   6.52384949E+01   6.52384949E+01  -5.36044502E+00  -5.78770351E+00   7.10261993E+01  -1.80301151E+01   7.08106384E+01  -4.37204790E+00   6.42500992E+01  -5.78770351E+00   8.29475021E+00
             1761                3   7.07716599E+01   6.52104950E+01   6.52104950E+01  -5.33244371E+00  -5.78770351E+00   6.52104950E+01   6.52104950E+01  -5.33244371E+00  -5.78770351E+00   7.09981918E+01  -1.80301151E+01   7.07683640E+01  -4.23795795E+00   6.41160049E+01  -5.78770351E+00   8.71838665E+00
             1761                4   7.11206436E+01   6.54437027E+01   6.54437027E+01  -5.56565762E+00  -5.78770351E+00   6.54437027E+01   6.54437027E+01  -5.56565762E+00  -5.78770351E+00   7.12314072E+01  -1.80301151E+01   7.11198654E+01  -4.51507998E+00   6.43931274E+01  -5.78770351E+00   8.57304096E+00
             1762                1   3.77651100E+01   3.48045616E+01   3.48045616E+01  -3.55925635E-02  -5.32732439E+00   3.48045616E+01   3.48045616E+01  -3.55925635E-02  -5.32732439E+00   4.01318893E+01  -9.81388187E+00   3.69171753E+01   1.86896610E+01   1.60793095E+01  -5.32732439E+00   1.73711147E+01
             1762                2   3.79161644E+01   3.49135971E+01   3.49135971E+01  -1.44626215E-01  -5.32732439E+00   3.49135971E+01   3.49135971E+01  -1.44626215E-01  -5.32732439E+00   4.02409210E+01  -9.81388187E+00   3.71067085E+01   1.89523315E+01   1.58166389E+01  -5.32732439E+00   1.74588547E+01
             1762                3   3.74472771E+01   3.45743294E+01   3.45743294E+01   1.94640085E-01  -5.32732439E+00   3.45743294E+01   3.45743294E+01   1.94640085E-01  -5.32732439E+00   3.99016533E+01  -9.81388187E+00   3.65144310E+01   1.87568054E+01   1.60121651E+01  -5.32732439E+00   1.71349792E+01
             1762                4   3.76033020E+01   3.46874886E+01   3.46874886E+01   8.14801976E-02  -5.32732439E+00   3.46874886E+01   3.46874886E+01   8.14801976E-02  -5.32732439E+00   4.00148163E+01  -9.81388187E+00   3.67128143E+01   1.90213165E+01   1.57476530E+01  -5.32732439E+00   1.72254105E+01
             1763                1   2.11131119E+02   1.75616531E+02   1.75616531E+02  -3.92533951E+01  -3.15657978E+01   1.75616531E+02   1.75616531E+02  -3.15657978E+01  -3.92533951E+01   2.14869919E+02  -3.49324455E+01   2.10815872E+02  -3.91679382E+01   1.75531067E+02  -3.15657978E+01  -4.28428078E+00
             1763                2   2.11989151E+02   1.76066437E+02   1.76066437E+02  -4.20140076E+01  -2.92550812E+01   1.76066437E+02   1.76066437E+02  -2.92550812E+01  -4.20140076E+01   2.18080444E+02  -3.49324493E+01   2.11122681E+02  -4.16992531E+01   1.75751678E+02  -2.92550812E+01  -8.27911854E+00
             1763                3   2.11829010E+02   1.75995132E+02   1.75995132E+02  -4.13578796E+01  -2.98399200E+01   1.75995132E+02   1.75995132E+02  -2.98399200E+01  -4.13578796E+01   2.17353012E+02  -3.49324455E+01   2.11122757E+02  -4.13561668E+01   1.75993423E+02  -2.98399200E+01   6.09360337E-01
             1763                4   2.12448792E+02   1.76253250E+02   1.76253250E+02  -4.38613739E+01  -2.75945358E+01   1.76253250E+02   1.76253250E+02  -2.75945358E+01  -4.38613739E+01   2.20114624E+02  -3.49324455E+01   2.11040833E+02  -4.38081779E+01   1.76200058E+02  -2.75945358E+01  -3.42130375E+00
             1764                1   4.75912743E+01   4.47050438E+01   4.47050438E+01  -1.77643359E+00  -3.92335534E+00   4.47050438E+01   4.47050438E+01  -1.77643359E+00  -3.92335534E+00   4.86283989E+01  -1.30017519E+01   4.74821358E+01   1.81388274E-01   4.27472229E+01  -3.92335534E+00   9.33645630E+00
             1764                2   4.80221863E+01   4.49986572E+01   4.49986572E+01  -2.07004452E+00  -3.92335534E+00   4.49986572E+01   4.49986572E+01  -2.07004452E+00  -3.92335534E+00   4.89220123E+01  -1.30017519E+01   4.79416237E+01  -1.48180947E-01   4.30767937E+01  -3.92335534E+00   9.31482792E+00
             1764                3   4.78966255E+01   4.49132118E+01   4.49132118E+01  -1.98459852E+00  -3.92335534E+00   4.49132118E+01   4.49132118E+01  -1.98459852E+00  -3.92335534E+00   4.88365669E+01  -1.30017519E+01   4.78082199E+01   1.08276799E-01   4.28203354E+01  -3.92335534E+00   9.68354893E+00
             1764                4   4.83437805E+01   4.52171135E+01   4.52171135E+01  -2.28850222E+00  -3.92335534E+00   4.52171135E+01   4.52171135E+01  -2.28850222E+00  -3.92335534E+00   4.91404686E+01  -1.30017519E+01   4.82815247E+01  -2.39006698E-01   4.31676178E+01  -3.92335534E+00   9.65205383E+00
             1765                1   2.93547993E+01   2.53184872E+01   2.53184872E+01  -3.86542939E-02  -6.83996391E+00   2.53184872E+01   2.53184872E+01  -3.86542939E-02  -6.83996391E+00   3.21584511E+01  -6.14662313E+00   2.74969234E+01   2.39848569E-01   2.50399837E+01  -6.83996391E+00   2.64281774E+00
             1765                2   2.89841194E+01   2.50309544E+01   2.50309544E+01   2.48877436E-01  -6.83996391E+00   2.50309544E+01   2.50309544E+01   2.48877436E-01  -6.83996391E+00   3.18709183E+01  -6.14662218E+00   2.69280834E+01   5.12150288E-01   2.47676811E+01  -6.83996391E+00   2.54069352E+00
             1765                3   2.94165821E+01   2.53661289E+01   2.53661289E+01  -8.62967595E-02  -6.83996391E+00   2.53661289E+01   2.53661289E+01  -8.62967595E-02  -6.83996391E+00   3.22060928E+01  -6.14662313E+00   2.75901585E+01   1.36487663E-01   2.51433449E+01  -6.83996391E+00   2.37081814E+00
             1765                4   2.90465813E+01   2.50796127E+01   2.50796127E+01   2.00220689E-01  -6.83996391E+00   2.50796127E+01   2.50796127E+01   2.00220689E-01  -6.83996391E+00   3.19195766E+01  -6.14662313E+00   2.70251064E+01   4.08849299E-01   2.48709831E+01  -6.83996391E+00   2.26870823E+00
             1766                1   2.81580124E+01   4.08703041E+01   4.08703041E+01   1.26326103E+01   1.27926579E+01   4.08703041E+01   4.08703041E+01   1.27926579E+01   1.26326103E+01   2.82376938E+01  -2.20985241E+01   2.81569901E+01   1.30463781E+01   4.04565353E+01   1.27926579E+01   3.39303303E+00
             1766                2   2.81353378E+01   4.08552284E+01   4.08552284E+01   1.26476851E+01   1.27926579E+01   4.08552284E+01   4.08552284E+01   1.27926579E+01   1.26476851E+01   2.82075443E+01  -2.20985241E+01   2.81344986E+01   1.29988089E+01   4.05041046E+01   1.27926579E+01   3.12746978E+00
             1766                3   2.85689487E+01   4.11428528E+01   4.11428528E+01   1.23600616E+01   1.27926579E+01   4.11428528E+01   4.11428528E+01   1.27926579E+01   1.23600616E+01   2.87827911E+01  -2.20985241E+01   2.85615788E+01   1.27776318E+01   4.07252808E+01   1.27926579E+01   3.44158220E+00
             1766                4   2.85461063E+01   4.11277351E+01   4.11277351E+01   1.23751783E+01   1.27926579E+01   4.11277351E+01   4.11277351E+01   1.27926579E+01   1.23751783E+01   2.87525578E+01  -2.20985241E+01   2.85392399E+01   1.27304420E+01   4.07724724E+01   1.27926579E+01   3.17624235E+00
             1767                1   6.02445946E+01   5.51831055E+01   5.51831055E+01  -4.52644777E+00  -5.58264017E+00   5.51831055E+01   5.51831055E+01  -4.52644777E+00  -5.58264017E+00   6.07657471E+01  -1.50246725E+01   6.02237587E+01  -2.47883534E+00   5.31354942E+01  -5.58264017E+00   1.08659687E+01
             1767                2   5.97953186E+01   5.48805008E+01   5.48805008E+01  -4.22384119E+00  -5.58264017E+00   5.48805008E+01   5.48805008E+01  -4.22384119E+00  -5.58264017E+00   6.04631386E+01  -1.50246725E+01   5.97605705E+01  -2.11244082E+00   5.27691002E+01  -5.58264017E+00   1.09697237E+01
             1767                3   5.99131775E+01   5.49599609E+01   5.49599609E+01  -4.30329895E+00  -5.58264017E+00   5.49599609E+01   5.49599609E+01  -4.30329895E+00  -5.58264017E+00   6.05426025E+01  -1.50246735E+01   5.98824310E+01  -2.38201952E+00   5.30386810E+01  -5.58264017E+00   1.04961901E+01
             1767                4   5.94626389E+01   5.46558914E+01   5.46558914E+01  -3.99922776E+00  -5.58264017E+00   5.46558914E+01   5.46558914E+01  -3.99922776E+00  -5.58264017E+00   6.02385292E+01  -1.50246735E+01   5.94151764E+01  -2.01589274E+00   5.26725540E+01  -5.58264017E+00   1.06018476E+01
             1768                1   2.15652222E+02   2.21028870E+02   2.21028870E+02  -3.40516949E+00   1.53886118E+01   2.21028870E+02   2.21028870E+02   1.53886118E+01  -3.40516949E+00   2.24434036E+02  -7.76707687E+01   2.13798126E+02  -3.35467339E+00   2.20978378E+02   1.53886118E+01   3.36601520E+00
             1768                2   2.16065063E+02   2.21172958E+02   2.21172958E+02  -4.88373709E+00   1.67231064E+01   2.21172958E+02   2.21172958E+02   1.67231064E+01  -4.88373709E+00   2.26056686E+02  -7.76707764E+01   2.13614151E+02  -4.87506485E+00   2.21164276E+02   1.67231064E+01   1.40043938E+00
             1768                3   2.15880035E+02   2.21092804E+02   2.21092804E+02  -4.39988089E+00   1.63193932E+01   2.21092804E+02   2.21092804E+02   1.63193932E+01  -4.39988089E+00   2.25492676E+02  -7.76707687E+01   2.13625916E+02  -4.21591377E+00   2.20908829E+02   1.63193932E+01   6.43815660E+00
             1768                4   2.16236710E+02   2.21193817E+02   2.21193817E+02  -5.79350710E+00   1.76119957E+01   2.21193817E+02   2.21193817E+02   1.76119957E+01  -5.79350710E+00   2.26987335E+02  -7.76707687E+01   2.13358932E+02  -5.70778322E+00   2.21108093E+02   1.76119957E+01   4.41043186E+00
             1769                1   8.91578827E+01   8.41480865E+01   8.41480865E+01  -4.84339380E+00  -5.17525816E+00   8.41480865E+01   8.41480865E+01  -4.84339380E+00  -5.17525816E+00   8.93233490E+01  -2.47098141E+01   8.91564865E+01  -3.82258105E+00   8.31272736E+01  -5.17525816E+00   9.47638130E+00
             1769                2   8.95699463E+01   8.44230957E+01   8.44230957E+01  -5.11840963E+00  -5.17525816E+00   8.44230957E+01   8.44230957E+01  -5.11840963E+00  -5.17525816E+00   8.95983582E+01  -2.47098103E+01   8.95699005E+01  -4.12341976E+00   8.34281082E+01  -5.17525816E+00   9.38630867E+00
             1769                3   8.93855438E+01   8.43000793E+01   8.43000793E+01  -4.99539280E+00  -5.17525816E+00   8.43000793E+01   8.43000793E+01  -4.99539280E+00  -5.17525816E+00   8.94753418E+01  -2.47098103E+01   8.93851318E+01  -3.91104889E+00   8.32157364E+01  -5.17525816E+00   9.78014278E+00
             1769                4   8.97966766E+01   8.45742340E+01   8.45742340E+01  -5.26954937E+00  -5.17525816E+00   8.45742340E+01   8.45742340E+01  -5.17525816E+00  -5.26954937E+00   8.98437881E+01  -2.47098103E+01   8.97965622E+01  -4.21199894E+00   8.35166855E+01  -5.17525816E+00   9.68999481E+00
             1770                1   4.72069054E+01   4.94028664E+01   4.94028664E+01   2.17749786E+00   2.21444130E+00   4.94028664E+01   4.94028664E+01   2.21444130E+00   2.17749786E+00   4.72253685E+01  -1.79316025E+01   4.72068748E+01   2.84606290E+00   4.87343025E+01   2.21444130E+00   5.57908535E+00
             1770                2   4.68516121E+01   4.91657982E+01   4.91657982E+01   2.41457057E+00   2.21444130E+00   4.91657982E+01   4.91657982E+01   2.41457057E+00   2.21444130E+00   4.69513550E+01  -1.79316025E+01   4.68506508E+01   3.05856681E+00   4.85218010E+01   2.21444130E+00   5.44911909E+00
             1770                3   4.73252983E+01   4.94817314E+01   4.94817314E+01   2.09863782E+00   2.21444130E+00   4.94817314E+01   4.94817314E+01   2.21444130E+00   2.09863782E+00   4.73830910E+01  -1.79316025E+01   4.73249817E+01   2.71645045E+00   4.88639183E+01   2.21444130E+00   5.37514114E+00
             1770                4   4.69650536E+01   4.92415581E+01   4.92415581E+01   2.33881044E+00   2.21444130E+00   4.92415581E+01   4.92415581E+01   2.33881044E+00   2.21444130E+00   4.70271149E+01  -1.79316025E+01   4.69646873E+01   2.93162966E+00   4.86487389E+01   2.21444130E+00   5.23959875E+00
             1771                1   2.07705612E+02   1.57594452E+02   1.57594452E+02  -5.30877380E+01  -4.70007935E+01   1.57594452E+02   1.57594452E+02  -4.70007935E+01  -5.30877380E+01   2.10682190E+02  -1.91686401E+01   2.07504807E+02  -5.30840416E+01   1.57590759E+02  -4.70007935E+01  -8.81906509E-01
             1771                2   2.06829193E+02   1.57053268E+02   1.57053268E+02  -5.03313141E+01  -4.92160378E+01   1.57053268E+02   1.57053268E+02  -4.92160378E+01  -5.03313141E+01   2.07384583E+02  -1.91686420E+01   2.06822433E+02  -5.03244858E+01   1.57046448E+02  -4.92160378E+01   1.18958116E+00
             1771                3   2.07330261E+02   1.57366760E+02   1.57366760E+02  -5.20689774E+01  -4.77918549E+01   1.57366760E+02   1.57366760E+02  -4.77918549E+01  -5.20689774E+01   2.09435730E+02  -1.91686401E+01   2.07230957E+02  -5.19049034E+01   1.57202682E+02  -4.77918549E+01  -5.85962725E+00
             1771                4   2.06421600E+02   1.56782150E+02   1.56782150E+02  -4.92123299E+01  -5.00639114E+01   1.56782150E+02   1.56782150E+02  -4.92123299E+01  -5.00639114E+01   2.06846069E+02  -1.91686382E+01   2.06417648E+02  -4.91397400E+01   1.56709564E+02  -5.00639114E+01  -3.86627626E+00
             1772                1   5.16175995E+01   5.20777550E+01   5.20777550E+01   4.78373826E-01   4.41958219E-01   5.20777550E+01   5.20777550E+01   4.78373826E-01   4.41958219E-01   5.16357956E+01  -1.76660290E+01   5.16175690E+01   1.04786456E+00   5.15082664E+01   4.41958219E-01   5.39082289E+00
             1772                2   5.12810020E+01   5.18530312E+01   5.18530312E+01   7.03101993E-01   4.41958219E-01   5.18530312E+01   5.18530312E+01   7.03101993E-01   4.41958219E-01   5.14110718E+01  -1.76660309E+01   5.12795029E+01   1.24940419E+00   5.13067284E+01   4.41958219E-01   5.25784254E+00
             1772                3   5.17517242E+01   5.21671677E+01   5.21671677E+01   3.88966799E-01   4.41958219E-01   5.21671677E+01   5.21671677E+01   4.41958219E-01   3.88966799E-01   5.17781982E+01  -1.76660309E+01   5.17516632E+01   9.14484382E-01   5.16416473E+01   4.41958219E-01   5.18982315E+00
             1772                4   5.14161644E+01   5.19433327E+01   5.19433327E+01   6.12797976E-01   4.41958219E-01   5.19433327E+01   5.19433327E+01   6.12797976E-01   4.41958219E-01   5.15013733E+01  -1.76660290E+01   5.14155273E+01   1.11590314E+00   5.14402275E+01   4.41958219E-01   5.05682516E+00
             1773                1   4.86274605E+01   4.21167984E+01   4.21167984E+01  -3.69223499E+00  -8.90851498E+00   4.21167984E+01   4.21167984E+01  -3.69223499E+00  -8.90851498E+00   5.10253143E+01  -9.83868313E+00   4.79919662E+01   5.58538973E-01   3.78660240E+01  -8.90851498E+00   1.32911558E+01
             1773                2   4.82328606E+01   4.18369713E+01   4.18369713E+01  -3.41240740E+00  -8.90851498E+00   4.18369713E+01   4.18369713E+01  -3.41240740E+00  -8.90851498E+00   5.07454872E+01  -9.83868313E+00   4.75207024E+01   4.99924719E-01   3.79246407E+01  -8.90851498E+00   1.27170839E+01
             1773                3   4.93190193E+01   4.26044922E+01   4.26044922E+01  -4.17992687E+00  -8.90851498E+00   4.26044922E+01   4.26044922E+01  -4.17992687E+00  -8.90851498E+00   5.15130081E+01  -9.83868313E+00   4.88051147E+01  -1.75499097E-02   3.84421158E+01  -8.90851498E+00   1.33194952E+01
             1773                4   4.89409561E+01   4.23382988E+01   4.23382988E+01  -3.91373634E+00  -8.90851498E+00   4.23382988E+01   4.23382988E+01  -3.91373634E+00  -8.90851498E+00   5.12468147E+01  -9.83868313E+00   4.83625488E+01  -7.51668885E-02   3.84997330E+01  -8.90851498E+00   1.27595835E+01
             1774                1   3.80066071E+01   3.86857414E+01   3.86857414E+01   8.77414584E-01   4.83909607E-01   3.86857414E+01   3.86857414E+01   8.77414584E-01   4.83909607E-01   3.82018318E+01  -1.33490219E+01   3.80020256E+01   2.39690113E+00   3.71662560E+01   4.83909607E-01   7.42565632E+00
             1774                2   3.81588097E+01   3.87876701E+01   3.87876701E+01   7.75485754E-01   4.83909607E-01   3.87876701E+01   3.87876701E+01   7.75485754E-01   4.83909607E-01   3.83037605E+01  -1.33490219E+01   3.81562996E+01   2.27644300E+00   3.72867126E+01   4.83909607E-01   7.40282440E+00
             1774                3   3.81188393E+01   3.87609177E+01   3.87609177E+01   8.02243412E-01   4.83909607E-01   3.87609177E+01   3.87609177E+01   8.02243412E-01   4.83909607E-01   3.82770081E+01  -1.33490229E+01   3.81158447E+01   2.36955476E+00   3.71936035E+01   4.83909607E-01   7.55226135E+00
             1774                4   3.82687569E+01   3.88612175E+01   3.88612175E+01   7.01940358E-01   4.83909607E-01   3.88612175E+01   3.88612175E+01   7.01940358E-01   4.83909607E-01   3.83773079E+01  -1.33490219E+01   3.82673607E+01   2.25020552E+00   3.73129501E+01   4.83909607E-01   7.52884912E+00
             1775                1   2.02188919E+02   1.74739990E+02   1.74739990E+02  -2.87576218E+01  -2.61143436E+01   1.74739990E+02   1.74739990E+02  -2.61143436E+01  -2.87576218E+01   2.03497604E+02  -3.99560051E+01   2.02150040E+02  -2.86177902E+01   1.74600159E+02  -2.61143436E+01  -5.33239746E+00
             1775                2   2.02995529E+02   1.75237686E+02   1.75237686E+02  -3.08276691E+01  -2.45420036E+01   1.75237686E+02   1.75237686E+02  -2.45420036E+01  -3.08276691E+01   2.06065353E+02  -3.99560051E+01   2.02776398E+02  -3.05322380E+01   1.74942261E+02  -2.45420036E+01  -7.79680300E+00
             1775                3   2.02811432E+02   1.75133347E+02   1.75133347E+02  -3.01102676E+01  -2.51550674E+01   1.75133347E+02   1.75133347E+02  -2.51550674E+01  -3.01102676E+01   2.05243622E+02  -3.99560051E+01   2.02675156E+02  -3.00943813E+01   1.75117462E+02  -2.51550674E+01  -1.80593646E+00
             1775                4   2.03584183E+02   1.75590652E+02   1.75590652E+02  -3.20967369E+01  -2.36258965E+01   1.75590652E+02   1.75590652E+02  -2.36258965E+01  -3.20967369E+01   2.07687393E+02  -3.99560051E+01   2.03187119E+02  -3.20077324E+01   1.75501648E+02  -2.36258965E+01  -4.29845333E+00
             1776                1   7.96148682E+01   7.38873672E+01   7.38873672E+01  -5.67458200E+00  -5.78031731E+00   7.38873672E+01   7.38873672E+01  -5.67458200E+00  -5.78031731E+00   7.96676865E+01  -2.08108215E+01   7.96147156E+01  -5.63936472E+00   7.38521500E+01  -5.78031731E+00   1.67349660E+00
             1776                2   7.96808777E+01   7.39313965E+01   7.39313965E+01  -5.71861172E+00  -5.78031731E+00   7.39313965E+01   7.39313965E+01  -5.71861172E+00  -5.78031731E+00   7.97117157E+01  -2.08108215E+01   7.96808243E+01  -5.68976355E+00   7.39025497E+01  -5.78031731E+00   1.51549613E+00
             1776                3   7.98548508E+01   7.40473862E+01   7.40473862E+01  -5.83459854E+00  -5.78031731E+00   7.40473862E+01   7.40473862E+01  -5.78031731E+00  -5.83459854E+00   7.98819809E+01  -2.08108215E+01   7.98548126E+01  -5.79736853E+00   7.40101547E+01  -5.78031731E+00   1.72407842E+00
             1776                4   7.99206619E+01   7.40912323E+01   7.40912323E+01  -5.87845135E+00  -5.78031731E+00   7.40912323E+01   7.40912323E+01  -5.78031731E+00  -5.87845135E+00   7.99696884E+01  -2.08108215E+01   7.99205322E+01  -5.84776926E+00   7.40605545E+01  -5.78031731E+00   1.56606996E+00
             1777                1   2.16906448E+02   2.18930222E+02   2.18930222E+02  -1.04743824E+01   1.71730289E+01   2.18930222E+02   2.18930222E+02   1.71730289E+01  -1.04743824E+01   2.29404602E+02  -7.52096252E+01   2.12888153E+02  -1.04739809E+01   2.18929825E+02   1.71730289E+01   3.02316993E-01
             1777                2   2.17186691E+02   2.18902710E+02   2.18902710E+02  -1.20503550E+01   1.87765141E+01   2.18902710E+02   2.18902710E+02   1.87765141E+01  -1.20503550E+01   2.30953064E+02  -7.52096252E+01   2.12180862E+02  -1.19379759E+01   2.18790329E+02   1.87765141E+01   5.09336901E+00
             1777                3   2.16492264E+02   2.18888428E+02   2.18888428E+02  -8.47325611E+00   1.52136927E+01   2.18888428E+02   2.18888428E+02   1.52136927E+01  -8.47325611E+00   2.27361694E+02  -7.52096252E+01   2.13547729E+02  -8.38535786E+00   2.18800537E+02   1.52136927E+01   4.46947670E+00
             1777                4   2.16912689E+02   2.18963013E+02   2.18963013E+02  -1.02658577E+01   1.69317150E+01   2.18963013E+02   2.18963013E+02   1.69317150E+01  -1.02658577E+01   2.29228867E+02  -7.52096252E+01   2.13025925E+02  -9.88487911E+00   2.18582031E+02   1.69317150E+01   9.33742905E+00
             1778                1   2.16295654E+02   1.66380524E+02   1.66380524E+02  -5.30988045E+01  -4.65842705E+01   1.66380524E+02   1.66380524E+02  -4.65842705E+01  -5.30988045E+01   2.19479324E+02  -2.22324829E+01   2.16074768E+02  -5.30830345E+01   1.66364761E+02  -4.65842705E+01  -1.86008489E+00
             1778                2   2.17127426E+02   1.66798889E+02   1.66798889E+02  -5.63902359E+01  -4.37111931E+01   1.66798889E+02   1.66798889E+02  -4.37111931E+01  -5.63902359E+01   2.23189117E+02  -2.22324829E+01   2.16292160E+02  -5.62086182E+01   1.66617264E+02  -4.37111931E+01  -6.36413002E+00
             1778                3   2.16992798E+02   1.66756454E+02   1.66756454E+02  -5.54981346E+01  -4.45608635E+01   1.66756454E+02   1.66756454E+02  -4.45608635E+01  -5.54981346E+01   2.22254593E+02  -2.22324886E+01   2.16371307E+02  -5.54169235E+01   1.66675247E+02  -4.45608635E+01   4.24783754E+00
             1778                4   2.17429840E+02   1.66867111E+02   1.66867111E+02  -5.84033241E+01  -4.17663422E+01   1.66867111E+02   1.66867111E+02  -4.17663422E+01  -5.84033241E+01   2.25270432E+02  -2.22324829E+01   2.15990845E+02  -5.84028130E+01   1.66866608E+02  -4.17663422E+01  -3.37675095E-01
             1779                1   2.19893005E+02   2.40545105E+02   2.40545105E+02   1.62463672E-02   4.98368454E+01   2.40545105E+02   2.40545105E+02   4.98368454E+01   1.62463672E-02   2.40528870E+02  -9.67994003E+01   2.06614151E+02   1.71507131E-02   2.40544205E+02   4.98368454E+01   4.66433793E-01
             1779                2   2.19888580E+02   2.40032776E+02   2.40032776E+02  -1.83848941E+00   5.22039032E+01   2.40032776E+02   2.40032776E+02   5.22039032E+01  -1.83848941E+00   2.41871262E+02  -9.67994003E+01   2.04128784E+02  -1.65267694E+00   2.39846970E+02   5.22039032E+01  -6.70131111E+00
             1779                3   2.20003693E+02   2.39981720E+02   2.39981720E+02  -2.32337093E+00   5.27398491E+01   2.39981720E+02   2.39981720E+02   5.27398491E+01  -2.32337093E+00   2.42305099E+02  -9.67994003E+01   2.03616165E+02  -2.17290401E+00   2.39831253E+02   5.27398491E+01   6.03638077E+00
             1779                4   2.19996780E+02   2.39487152E+02   2.39487152E+02  -3.92162347E+00   5.48326836E+01   2.39487152E+02   2.39487152E+02   5.48326836E+01  -3.92162347E+00   2.43408768E+02  -9.67994003E+01   2.01178650E+02  -3.91717577E+00   2.39482697E+02   5.48326836E+01  -1.04053354E+00
             1780                1   4.34916115E+01   4.76975212E+01   4.76975212E+01   4.13891411E+00   4.27321243E+00   4.76975212E+01   4.76975212E+01   4.27321243E+00   4.13891411E+00   4.35586052E+01  -1.87032146E+01   4.34911461E+01   4.67577791E+00   4.71606560E+01   4.27321243E+00   4.80591345E+00
             1780                2   4.31142769E+01   4.74459877E+01   4.74459877E+01   4.39044333E+00   4.27321243E+00   4.74459877E+01   4.74459877E+01   4.39044333E+00   4.27321243E+00   4.31727753E+01  -1.87032146E+01   4.31139183E+01   4.90906286E+00   4.69273682E+01   4.27321243E+00   4.69685173E+00
             1780                3   4.35791130E+01   4.77557449E+01   4.77557449E+01   4.08068943E+00   4.27321243E+00   4.77557449E+01   4.77557449E+01   4.27321243E+00   4.08068943E+00   4.36750565E+01  -1.87032146E+01   4.35781555E+01   4.56892633E+00   4.72675056E+01   4.27321243E+00   4.59189129E+00
             1780                4   4.32020149E+01   4.75045357E+01   4.75045357E+01   4.33189201E+00   4.27321243E+00   4.75045357E+01   4.75045357E+01   4.33189201E+00   4.27321243E+00   4.32313232E+01  -1.87032146E+01   4.32019272E+01   4.80192327E+00   4.70345078E+01   4.27321243E+00   4.48012209E+00
             1781                1   2.15756866E+02   2.17955383E+02   2.17955383E+02  -7.96159840E+00   1.40454578E+01   2.17955383E+02   2.17955383E+02   1.40454578E+01  -7.96159840E+00   2.25916992E+02  -7.46797485E+01   2.13209854E+02  -7.65894079E+00   2.17652725E+02   1.40454578E+01   8.26347542E+00
             1781                2   2.15500580E+02   2.17904999E+02   2.17904999E+02  -6.68284369E+00   1.28170938E+01   2.17904999E+02   2.17904999E+02   1.28170938E+01  -6.68284369E+00   2.24587845E+02  -7.46797485E+01   2.13502136E+02  -6.58678198E+00   2.17808929E+02   1.28170938E+01   4.64394712E+00
             1781                3   2.16082382E+02   2.18005188E+02   2.18005188E+02  -9.52206421E+00   1.55561152E+01   2.18005188E+02   2.18005188E+02   1.55561152E+01  -9.52206421E+00   2.27527252E+02  -7.46797485E+01   2.12771362E+02  -9.39191914E+00   2.17875046E+02   1.55561152E+01   5.44002771E+00
             1781                4   2.15849686E+02   2.17978287E+02   2.17978287E+02  -8.34974003E+00   1.44107065E+01   2.17978287E+02   2.17978287E+02   1.44107065E+01  -8.34974003E+00   2.26328018E+02  -7.46797485E+01   2.13124832E+02  -8.33390045E+00   2.17962433E+02   1.44107065E+01   1.89378405E+00
             1782                1   3.98131142E+01   3.92469330E+01   3.92469330E+01   1.35717824E-01  -1.23278546E+00   3.92469330E+01   3.92469330E+01   1.35717824E-01  -1.23278546E+00   4.04797211E+01  -1.27166224E+01   3.97601395E+01   1.67816734E+00   3.77044830E+01  -1.23278546E+00   7.61235809E+00
             1782                2   4.00537682E+01   3.94100647E+01   3.94100647E+01  -2.74145212E-02  -1.23278546E+00   3.94100647E+01   3.94100647E+01  -2.74145212E-02  -1.23278546E+00   4.06428490E+01  -1.27166214E+01   4.00129280E+01   1.49378824E+00   3.78888588E+01  -1.23278546E+00   7.59462929E+00
             1782                3   3.99566002E+01   3.93442421E+01   3.93442421E+01   3.84059921E-02  -1.23278546E+00   3.93442421E+01   3.93442421E+01   3.84059921E-02  -1.23278546E+00   4.05770264E+01  -1.27166214E+01   3.99110641E+01   1.65466952E+00   3.77279778E+01  -1.23278546E+00   7.80489111E+00
             1782                4   4.01943932E+01   3.95052147E+01   3.95052147E+01  -1.22567691E-01  -1.23278546E+00   3.95052147E+01   3.95052147E+01  -1.22567691E-01  -1.23278546E+00   4.07380028E+01  -1.27166214E+01   4.01598740E+01   1.47100437E+00   3.79116440E+01  -1.23278546E+00   7.78525925E+00
             1783                1   6.51555328E+01   5.85799179E+01   5.85799179E+01  -4.97024107E+00  -8.07031155E+00   5.85799179E+01   5.85799179E+01  -4.97024107E+00  -8.07031155E+00   6.66502304E+01  -1.51797876E+01   6.49892883E+01   1.54151380E+00   5.20681610E+01  -8.07031155E+00   1.92722645E+01
             1783                2   6.45457458E+01   5.81623306E+01   5.81623306E+01  -4.55265379E+00  -8.07031155E+00   5.81623306E+01   5.81623306E+01  -4.55265379E+00  -8.07031155E+00   6.62326431E+01  -1.51797876E+01   6.43295517E+01   1.43339932E+00   5.21762772E+01  -8.07031155E+00   1.84277611E+01
             1783                3   6.62749786E+01   5.93424911E+01   5.93424911E+01  -5.73281384E+00  -8.07031155E+00   5.93424911E+01   5.93424911E+01  -5.73281384E+00  -8.07031155E+00   6.74128036E+01  -1.51797876E+01   6.61821365E+01   6.40323341E-01   5.29693527E+01  -8.07031155E+00   1.93421040E+01
             1783                4   6.56002121E+01   5.88834457E+01   5.88834457E+01  -5.27377129E+00  -8.07031155E+00   5.88834457E+01   5.88834457E+01  -5.27377129E+00  -8.07031155E+00   6.69537582E+01  -1.51797876E+01   6.54658966E+01   5.54204226E-01   5.30554733E+01  -8.07031155E+00   1.84374981E+01
             1784                1   3.73612022E+01   3.78634148E+01   3.78634148E+01   7.48351276E-01   2.60847867E-01   3.78634148E+01   3.78634148E+01   7.48351276E-01   2.60847867E-01   3.76025696E+01  -1.29575386E+01   3.73540421E+01   2.09358215E+00   3.65181847E+01   2.60847867E-01   6.93676329E+00
             1784                2   3.75199966E+01   3.79699020E+01   3.79699020E+01   6.41866028E-01   2.60847867E-01   3.79699020E+01   3.79699020E+01   6.41866028E-01   2.60847867E-01   3.77090530E+01  -1.29575386E+01   3.75156403E+01   1.97560906E+00   3.66361580E+01   2.60847867E-01   6.92871761E+00
             1784                3   3.74446945E+01   3.79194260E+01   3.79194260E+01   6.92341983E-01   2.60847867E-01   3.79194260E+01   3.79194260E+01   6.92341983E-01   2.60847867E-01   3.76585770E+01  -1.29575386E+01   3.74390984E+01   2.08296609E+00   3.65288010E+01   2.60847867E-01   7.05939341E+00
             1784                4   3.76009293E+01   3.80241127E+01   3.80241127E+01   5.87653458E-01   2.60847867E-01   3.80241127E+01   3.80241127E+01   5.87653458E-01   2.60847867E-01   3.77632637E+01  -1.29575386E+01   3.75977287E+01   1.96606314E+00   3.66457024E+01   2.60847867E-01   7.05002213E+00
             1785                1   2.09469818E+02   2.01888016E+02   2.01888016E+02  -1.33478193E+01  -1.29536664E+00   2.01888016E+02   2.01888016E+02  -1.29536664E+00  -1.33478193E+01   2.15235825E+02  -6.24149437E+01   2.08687546E+02  -1.29648132E+01   2.01505005E+02  -1.29536664E+00   9.07137871E+00
             1785                2   2.08988678E+02   2.01620438E+02   2.01620438E+02  -1.22006569E+01  -2.17494941E+00   2.01620438E+02   2.01620438E+02  -2.17494941E+00  -1.22006569E+01   2.13821091E+02  -6.24149475E+01   2.08446579E+02  -1.20089788E+01   2.01428757E+02  -2.17494941E+00   6.39917564E+00
             1785                3   2.10095840E+02   2.02227997E+02   2.02227997E+02  -1.47479076E+01  -2.35256627E-01   2.02227997E+02   2.02227997E+02  -2.35256627E-01  -1.47479076E+01   2.16975906E+02  -6.24149437E+01   2.08963654E+02  -1.45573845E+01   2.02037476E+02  -2.35256627E-01   6.42665339E+00
             1785                4   2.09617554E+02   2.01974106E+02   2.01974106E+02  -1.36046152E+01  -1.12465370E+00   2.01974106E+02   2.01974106E+02  -1.12465370E+00  -1.36046152E+01   2.15578720E+02  -6.24149475E+01   2.08779236E+02  -1.35434303E+01   2.01912918E+02  -1.12465370E+00   3.63141418E+00
             1786                1   5.99619827E+01   5.54001923E+01   5.54001923E+01  -4.16010809E+00  -4.95555449E+00   5.54001923E+01   5.54001923E+01  -4.16010809E+00  -4.95555449E+00   6.03557472E+01  -1.54281769E+01   5.99501114E+01  -2.40214396E+00   5.36422310E+01  -4.95555449E+00   1.00803947E+01
             1786                2   5.95647049E+01   5.51332436E+01   5.51332436E+01  -3.89315724E+00  -4.95555449E+00   5.51332436E+01   5.51332436E+01  -3.89315724E+00  -4.95555449E+00   6.00887985E+01  -1.54281769E+01   5.95433846E+01  -2.07524371E+00   5.33153305E+01  -4.95555449E+00   1.01980400E+01
             1786                3   5.96355782E+01   5.51809120E+01   5.51809120E+01  -3.94082451E+00  -4.95555449E+00   5.51809120E+01   5.51809120E+01  -3.94082451E+00  -4.95555449E+00   6.01364670E+01  -1.54281778E+01   5.96161499E+01  -2.28726006E+00   5.35273476E+01  -4.95555449E+00   9.74820137E+00
             1786                4   5.92387810E+01   5.49137611E+01   5.49137611E+01  -3.67367744E+00  -4.95555449E+00   5.49137611E+01   5.49137611E+01  -3.67367744E+00  -4.95555449E+00   5.98693161E+01  -1.54281769E+01   5.92075653E+01  -1.96142602E+00   5.32015114E+01  -4.95555449E+00   9.86836529E+00
             1787                1   7.62644196E+01   6.99986115E+01   6.99986115E+01  -5.67884874E+00  -6.83951283E+00   6.99986115E+01   6.99986115E+01  -5.67884874E+00  -6.83951283E+00   7.68381271E+01  -1.91600838E+01   7.62445374E+01  -3.38988304E+00   6.77096481E+01  -6.83951283E+00   1.29608488E+01
             1787                2   7.68712234E+01   7.04057236E+01   7.04057236E+01  -6.08595848E+00  -6.83951283E+00   7.04057236E+01   7.04057236E+01  -6.08595848E+00  -6.83951283E+00   7.72452316E+01  -1.91600838E+01   7.68629150E+01  -3.85590172E+00   6.81756668E+01  -6.83951283E+00   1.28688574E+01
             1787                3   7.66240158E+01   7.02400055E+01   7.02400055E+01  -5.92023659E+00  -6.83951283E+00   7.02400055E+01   7.02400055E+01  -5.92023659E+00  -6.83951283E+00   7.70795212E+01  -1.91600857E+01   7.66116028E+01  -3.47379637E+00   6.77935638E+01  -6.83951283E+00   1.34289484E+01
             1787                4   7.72282181E+01   7.06447067E+01   7.06447067E+01  -6.32493448E+00  -6.83951283E+00   7.06447067E+01   7.06447067E+01  -6.32493448E+00  -6.83951283E+00   7.74842148E+01  -1.91600857E+01   7.72243576E+01  -3.93999767E+00   6.82597656E+01  -6.83951283E+00   1.33371658E+01
             1788                1   2.19247086E+02   1.83013855E+02   1.83013855E+02  -4.48318367E+01  -2.64811478E+01   1.83013855E+02   1.83013855E+02  -2.64811478E+01  -4.48318367E+01   2.27845703E+02  -3.72336235E+01   2.17509216E+02  -4.48306313E+01   1.83012650E+02  -2.64811478E+01  -5.25004506E-01
             1788                2   2.19511215E+02   1.82903320E+02   1.82903320E+02  -4.77247047E+01  -2.34777470E+01   1.82903320E+02   1.82903320E+02  -2.34777470E+01  -4.77247047E+01   2.30628036E+02  -3.72336235E+01   2.16467636E+02  -4.75481796E+01   1.82726791E+02  -2.34777470E+01  -6.37826395E+00
             1788                3   2.19440216E+02   1.82875610E+02   1.82875610E+02  -4.75307732E+01  -2.36439705E+01   1.82875610E+02   1.82875610E+02  -2.36439705E+01  -4.75307732E+01   2.30406387E+02  -3.72336235E+01   2.16486298E+02  -4.74002190E+01   1.82745056E+02  -2.36439705E+01   5.48293877E+00
             1788                4   2.19583130E+02   1.82646606E+02   1.82646606E+02  -5.00861626E+01  -2.08595753E+01   1.82646606E+02   1.82646606E+02  -2.08595753E+01  -5.00861626E+01   2.32732773E+02  -3.72336235E+01   2.15141876E+02  -5.00853539E+01   1.82645798E+02  -2.08595753E+01  -4.33129191E-01
             1789                1   5.87086372E+01   5.69954147E+01   5.69954147E+01  -1.59960759E+00  -1.82618713E+00   5.69954147E+01   5.69954147E+01  -1.59960759E+00  -1.82618713E+00   5.88216019E+01  -1.78565388E+01   5.87076530E+01  -1.33127534E+00   5.67270813E+01  -1.82618713E+00   3.95612121E+00
             1789                2   5.88328514E+01   5.70783539E+01   5.70783539E+01  -1.68254793E+00  -1.82618713E+00   5.70783539E+01   5.70783539E+01  -1.68254793E+00  -1.82618713E+00   5.89045410E+01  -1.78565388E+01   5.88324585E+01  -1.44145107E+00   5.68372574E+01  -1.82618713E+00   3.75617933E+00
             1789                3   5.90280876E+01   5.72085991E+01   5.72085991E+01  -1.81279182E+00  -1.82618713E+00   5.72085991E+01   5.72085991E+01  -1.81279182E+00  -1.82618713E+00   5.90347862E+01  -1.78565388E+01   5.90280838E+01  -1.53126907E+00   5.69270744E+01  -1.82618713E+00   4.06652308E+00
             1789                4   5.91515007E+01   5.72908516E+01   5.72908516E+01  -1.89504719E+00  -1.82618713E+00   5.72908516E+01   5.72908516E+01  -1.82618713E+00  -1.89504719E+00   5.91859016E+01  -1.78565388E+01   5.91514091E+01  -1.64135146E+00   5.70371552E+01  -1.82618713E+00   3.86664557E+00
             1790                1   6.21131363E+01   5.96053314E+01   5.96053314E+01  -2.56230330E+00  -2.45315909E+00   5.96053314E+01   5.96053314E+01  -2.45315909E+00  -2.56230330E+00   6.21676369E+01  -1.81966228E+01   6.21129227E+01  -2.50848341E+00   5.95515137E+01  -2.45315909E+00   1.82836616E+00
             1790                2   6.20493622E+01   5.95628510E+01   5.95628510E+01  -2.51981544E+00  -2.45315909E+00   5.95628510E+01   5.95628510E+01  -2.45315909E+00  -2.51981544E+00   6.20826645E+01  -1.81966248E+01   6.20492821E+01  -2.45325994E+00   5.94962921E+01  -2.45315909E+00   2.03165030E+00
             1790                3   6.18036003E+01   5.93989868E+01   5.93989868E+01  -2.35595608E+00  -2.45315909E+00   5.93989868E+01   5.93989868E+01  -2.35595608E+00  -2.45315909E+00   6.18521461E+01  -1.81966228E+01   6.18034286E+01  -2.30504227E+00   5.93480721E+01  -2.45315909E+00   1.77245152E+00
             1790                4   6.17394142E+01   5.93561516E+01   5.93561516E+01  -2.31312323E+00  -2.45315909E+00   5.93561516E+01   5.93561516E+01  -2.31312323E+00  -2.45315909E+00   6.18093109E+01  -1.81966228E+01   6.17390556E+01  -2.24975801E+00   5.92927895E+01  -2.45315909E+00   1.97574675E+00
             1791                1   4.14030113E+01   4.02712059E+01   4.02712059E+01  -2.74005324E-01  -1.93935561E+00   4.02712059E+01   4.02712059E+01  -2.74005324E-01  -1.93935561E+00   4.22105598E+01  -1.26859484E+01   4.13275528E+01   1.37535238E+00   3.86218491E+01  -1.93935561E+00   8.00956440E+00
             1791                2   4.16843452E+01   4.04624748E+01   4.04624748E+01  -4.65276420E-01  -1.93935561E+00   4.04624748E+01   4.04624748E+01  -4.65276420E-01  -1.93935561E+00   4.24018326E+01  -1.26859484E+01   4.16256409E+01   1.15841424E+00   3.88387871E+01  -1.93935561E+00   7.98859119E+00
             1791                3   4.15734940E+01   4.03871727E+01   4.03871727E+01  -3.89967978E-01  -1.93935561E+00   4.03871727E+01   4.03871727E+01  -3.89967978E-01  -1.93935561E+00   4.23265266E+01  -1.26859503E+01   4.15084572E+01   1.34717417E+00   3.86500282E+01  -1.93935561E+00   8.23517323E+00
             1791                4   4.18500214E+01   4.05748825E+01   4.05748825E+01  -5.77683449E-01  -1.93935561E+00   4.05748825E+01   4.05748825E+01  -5.77683449E-01  -1.93935561E+00   4.25142403E+01  -1.26859484E+01   4.18001328E+01   1.13140213E+00   3.88657990E+01  -1.93935561E+00   8.21049595E+00
             1792                1   5.87658653E+01   5.49788857E+01   5.49788857E+01  -3.26697159E+00  -4.29353380E+00   5.49788857E+01   5.49788857E+01  -3.26697159E+00  -4.29353380E+00   5.92724190E+01  -1.58061266E+01   5.87456818E+01  -1.79926813E+00   5.35111809E+01  -4.29353380E+00   9.12872219E+00
             1792                2   5.91159782E+01   5.52141304E+01   5.52141304E+01  -3.50221634E+00  -4.29353380E+00   5.52141304E+01   5.52141304E+01  -3.50221634E+00  -4.29353380E+00   5.95076637E+01  -1.58061266E+01   5.91040611E+01  -2.08974695E+00   5.38016624E+01  -4.29353380E+00   8.99666023E+00
             1792                3   5.90867386E+01   5.51945038E+01   5.51945038E+01  -3.48259020E+00  -4.29353380E+00   5.51945038E+01   5.51945038E+01  -3.48259020E+00  -4.29353380E+00   5.94880371E+01  -1.58061266E+01   5.90742188E+01  -1.92926288E+00   5.36411781E+01  -4.29353380E+00   9.41975784E+00
             1792                4   5.94345856E+01   5.54277802E+01   5.54277802E+01  -3.71586585E+00  -4.29353380E+00   5.54277802E+01   5.54277802E+01  -3.71586585E+00  -4.29353380E+00   5.97213135E+01  -1.58061266E+01   5.94282684E+01  -2.21969175E+00   5.39316063E+01  -4.29353380E+00   9.28712177E+00
             1793                1   1.99176605E+02   1.67520233E+02   1.67520233E+02  -3.35724831E+01  -2.96833153E+01   1.67520233E+02   1.67520233E+02  -2.96833153E+01  -3.35724831E+01   2.01092712E+02  -3.47548103E+01   1.99091156E+02  -3.35509605E+01   1.67498718E+02  -2.96833153E+01  -2.08002901E+00
             1793                2   1.98101669E+02   1.66822372E+02   1.66822372E+02  -3.14900494E+01  -3.10678844E+01   1.66822372E+02   1.66822372E+02  -3.10678844E+01  -3.14900494E+01   1.98312424E+02  -3.47548103E+01   1.98100662E+02  -3.14875946E+01   1.66819916E+02  -3.10678844E+01  -6.97728753E-01
             1793                3   1.98789932E+02   1.67272354E+02   1.67272354E+02  -3.28476677E+01  -3.01602459E+01   1.67272354E+02   1.67272354E+02  -3.01602459E+01  -3.28476677E+01   2.00120026E+02  -3.47548103E+01   1.98749054E+02  -3.26946907E+01   1.67119370E+02  -3.01602459E+01  -5.53092813E+00
             1793                4   1.97594269E+02   1.66483414E+02   1.66483414E+02  -3.06861706E+01  -3.15328045E+01   1.66483414E+02   1.66483414E+02  -3.06861706E+01  -3.15328045E+01   1.98016220E+02  -3.47548103E+01   1.97590179E+02  -3.05974960E+01   1.66394730E+02  -3.15328045E+01  -4.18063402E+00
             1794                1   8.66217575E+01   8.10474548E+01   8.10474548E+01  -5.44796467E+00  -5.70009375E+00   8.10474548E+01   8.10474548E+01  -5.44796467E+00  -5.70009375E+00   8.67475433E+01  -2.32997971E+01   8.66209335E+01  -4.94415092E+00   8.05436401E+01  -5.70009375E+00   6.58206606E+00
             1794                2   8.69008942E+01   8.12337189E+01   8.12337189E+01  -5.63422966E+00  -5.70009375E+00   8.12337189E+01   8.12337189E+01  -5.63422966E+00  -5.70009375E+00   8.69338074E+01  -2.32997971E+01   8.69008408E+01  -5.15016222E+00   8.07496490E+01  -5.70009375E+00   6.46650314E+00
             1794                3   8.68393936E+01   8.11926956E+01   8.11926956E+01  -5.59320974E+00  -5.70009375E+00   8.11926956E+01   8.11926956E+01  -5.59320974E+00  -5.70009375E+00   8.68927917E+01  -2.32997971E+01   8.68392563E+01  -5.05883551E+00   8.06583252E+01  -5.70009375E+00   6.78899193E+00
             1794                4   8.71178207E+01   8.13783264E+01   8.13783264E+01  -5.77883768E+00  -5.70009375E+00   8.13783264E+01   8.13783264E+01  -5.70009375E+00  -5.77883768E+00   8.71571655E+01  -2.32997971E+01   8.71177368E+01  -5.26484871E+00   8.08643341E+01  -5.70009375E+00   6.67336607E+00
             1795                1   3.72787514E+01   3.57626305E+01   3.57626305E+01  -3.04947108E-01  -2.61944008E+00   3.57626305E+01   3.57626305E+01  -3.04947108E-01  -2.61944008E+00   3.83820724E+01  -1.09460802E+01   3.71165810E+01   7.84092605E-01   3.46735916E+01  -2.61944008E+00   6.17195225E+00
             1795                2   3.69696884E+01   3.55492897E+01   3.55492897E+01  -9.16078165E-02  -2.61944008E+00   3.55492897E+01   3.55492897E+01  -9.16078165E-02  -2.61944008E+00   3.81687317E+01  -1.09460802E+01   3.67744980E+01   9.98479486E-01   3.44592056E+01  -2.61944008E+00   6.13704729E+00
             1795                3   3.72262611E+01   3.57264519E+01   3.57264519E+01  -2.68768936E-01  -2.61944008E+00   3.57264519E+01   3.57264519E+01  -2.68768936E-01  -2.61944008E+00   3.83458939E+01  -1.09460802E+01   3.70587311E+01   7.45605350E-01   3.47120781E+01  -2.61944008E+00   5.95681763E+00
             1795                4   3.69165268E+01   3.55125198E+01   3.55125198E+01  -5.48348166E-02  -2.61944008E+00   3.55125198E+01   3.55125198E+01  -5.48348166E-02  -2.61944008E+00   3.81319580E+01  -1.09460802E+01   3.67153015E+01   9.60087121E-01   3.44975967E+01  -2.61944008E+00   5.92182493E+00
             1796                1   6.64824371E+01   6.17781181E+01   6.17781181E+01  -4.39455080E+00  -5.00981665E+00   6.17781181E+01   6.17781181E+01  -4.39455080E+00  -5.00981665E+00   6.67879333E+01  -1.74579182E+01   6.64760284E+01  -3.47368908E+00   6.08572578E+01  -5.00981665E+00   7.75163364E+00
             1796                2   6.67878494E+01   6.19825172E+01   6.19825172E+01  -4.59894991E+00  -5.00981665E+00   6.19825172E+01   6.19825172E+01  -4.59894991E+00  -5.00981665E+00   6.69923325E+01  -1.74579182E+01   6.67850037E+01  -3.72077823E+00   6.11043472E+01  -5.00981665E+00   7.59596491E+00
             1796                3   6.67942047E+01   6.19867706E+01   6.19867706E+01  -4.60320282E+00  -5.00981665E+00   6.19867706E+01   6.19867706E+01  -4.60320282E+00  -5.00981665E+00   6.69965897E+01  -1.74579182E+01   6.67914200E+01  -3.62791300E+00   6.10114822E+01  -5.00981665E+00   7.99957705E+00
             1796                4   6.70980072E+01   6.21897697E+01   6.21897697E+01  -4.80620050E+00  -5.00981665E+00   6.21897697E+01   6.21897697E+01  -4.80620050E+00  -5.00981665E+00   6.71995850E+01  -1.74579182E+01   6.70973129E+01  -3.87491226E+00   6.12584801E+01  -5.00981665E+00   7.84380341E+00
             1797                1   5.19357071E+01   5.14735985E+01   5.14735985E+01  -3.59642327E-01  -5.63969433E-01   5.14735985E+01   5.14735985E+01  -3.59642327E-01  -5.63969433E-01   5.20375671E+01  -1.68499966E+01   5.19347992E+01   6.25572205E-01   5.04883842E+01  -5.63969433E-01   7.07786798E+00
             1797                2   5.16043930E+01   5.12520485E+01   5.12520485E+01  -1.38087690E-01  -5.63969433E-01   5.12520485E+01   5.12520485E+01  -1.38087690E-01  -5.63969433E-01   5.18160172E+01  -1.68499966E+01   5.16004410E+01   8.04931223E-01   5.03090286E+01  -5.63969433E-01   6.89728975E+00
             1797                3   5.21216087E+01   5.15977058E+01   5.15977058E+01  -4.83744323E-01  -5.63969433E-01   5.15977058E+01   5.15977058E+01  -4.83744323E-01  -5.63969433E-01   5.21616745E+01  -1.68499966E+01   5.21214676E+01   4.46093023E-01   5.06678658E+01  -5.63969433E-01   6.89657545E+00
             1797                4   5.17935982E+01   5.13786278E+01   5.13786278E+01  -2.64672577E-01  -5.63969433E-01   5.13786278E+01   5.13786278E+01  -2.64672577E-01  -5.63969433E-01   5.19426003E+01  -1.68499966E+01   5.17916527E+01   6.24118984E-01   5.04898376E+01  -5.63969433E-01   6.71641064E+00
             1798                1   7.19566040E+01   6.67685928E+01   6.67685928E+01  -5.20497751E+00  -5.17103672E+00   6.67685928E+01   6.67685928E+01  -5.17103672E+00  -5.20497751E+00   7.19735718E+01  -1.87975273E+01   7.19565887E+01  -4.85715961E+00   6.64207764E+01  -5.17103672E+00   4.99125767E+00
             1798                2   7.17609329E+01   6.66381149E+01   6.66381149E+01  -5.07449961E+00  -5.17103672E+00   6.66381149E+01   6.66381149E+01  -5.07449961E+00  -5.17103672E+00   7.18091507E+01  -1.87975254E+01   7.17607880E+01  -4.70090294E+00   6.62645187E+01  -5.17103672E+00   5.16254711E+00
             1798                3   7.16708603E+01   6.65780182E+01   6.65780182E+01  -5.01439714E+00  -5.17103672E+00   6.65780182E+01   6.65780182E+01  -5.01439714E+00  -5.17103672E+00   7.17490540E+01  -1.87975273E+01   7.16704712E+01  -4.68660402E+00   6.62502213E+01  -5.17103672E+00   4.83321428E+00
             1798                4   7.14736938E+01   6.64463577E+01   6.64463577E+01  -4.88274908E+00  -5.17103672E+00   6.64463577E+01   6.64463577E+01  -4.88274908E+00  -5.17103672E+00   7.16173935E+01  -1.87975254E+01   7.14723816E+01  -4.52994013E+00   6.60935516E+01  -5.17103672E+00   5.00410891E+00
             1799                1   8.62454071E+01   8.05851974E+01   8.05851974E+01  -5.61435127E+00  -5.70598745E+00   8.05851974E+01   8.05851974E+01  -5.61435127E+00  -5.70598745E+00   8.62911835E+01  -2.30882874E+01   8.62452927E+01  -5.57438898E+00   8.05452347E+01  -5.70598745E+00   1.85562384E+00
             1799                2   8.63204193E+01   8.06352234E+01   8.06352234E+01  -5.66437817E+00  -5.70598745E+00   8.06352234E+01   8.06352234E+01  -5.66437817E+00  -5.70598745E+00   8.63412170E+01  -2.30882874E+01   8.63203964E+01  -5.62982702E+00   8.06006775E+01  -5.70598745E+00   1.72637188E+00
             1799                3   8.64427338E+01   8.07167664E+01   8.07167664E+01  -5.74592066E+00  -5.70598745E+00   8.07167664E+01   8.07167664E+01  -5.70598745E+00  -5.74592066E+00   8.64626923E+01  -2.30882874E+01   8.64427032E+01  -5.70365286E+00   8.06744995E+01  -5.70598745E+00   1.91125870E+00
             1799                4   8.65175552E+01   8.07666321E+01   8.07666321E+01  -5.79577875E+00  -5.70598745E+00   8.07666321E+01   8.07666321E+01  -5.70598745E+00  -5.79577875E+00   8.65624161E+01  -2.30882893E+01   8.65174408E+01  -5.75908279E+00   8.07299347E+01  -5.70598745E+00   1.78198683E+00
             1800                1   2.20000000E+02   1.93761505E+02   1.93761505E+02  -4.22353630E+01  -5.65626860E+00   1.93761505E+02   1.93761505E+02  -5.65626860E+00  -4.22353630E+01   2.35996857E+02  -4.86232910E+01   2.12996613E+02  -4.18002510E+01   1.93326385E+02  -5.65626860E+00   1.01240540E+01
             1800                2   2.20000000E+02   1.94188843E+02   1.94188843E+02  -3.96944389E+01  -8.62454128E+00   1.94188843E+02   1.94188843E+02  -8.62454128E+00  -3.96944389E+01   2.33883286E+02  -4.86232872E+01   2.14980835E+02  -3.95918427E+01   1.94086243E+02  -8.62454128E+00   4.89747334E+00
             1800                3   2.20000000E+02   1.93365463E+02   1.93365463E+02  -4.42566071E+01  -3.23899031E+00   1.93365463E+02   1.93365463E+02  -3.23899031E+00  -4.42566071E+01   2.37622070E+02  -4.86232910E+01   2.11138474E+02  -4.41885338E+01   1.93297394E+02  -3.23899031E+00   4.02124739E+00
             1800                4   2.20000000E+02   1.93805450E+02   1.93805450E+02  -4.19938774E+01  -5.94170570E+00   1.93805450E+02   1.93805450E+02  -5.94170570E+00  -4.19938774E+01   2.35799332E+02  -4.86232872E+01   2.13201645E+02  -4.19877739E+01   1.93799347E+02  -5.94170570E+00  -1.19931221E+00
             1801                1   9.57605972E+01   9.42977524E+01   9.42977524E+01  -1.39817166E+00  -1.52737951E+00   9.42977524E+01   9.42977524E+01  -1.39817166E+00  -1.52737951E+00   9.58251343E+01  -3.04573994E+01   9.57603989E+01   1.18583155E+00   9.17137527E+01  -1.52737951E+00   1.55113277E+01
             1801                2   9.64475403E+01   9.47554855E+01   9.47554855E+01  -1.85589993E+00  -1.52737951E+00   9.47554855E+01   9.47554855E+01  -1.52737951E+00  -1.85589993E+00   9.66113815E+01  -3.04573994E+01   9.64462891E+01   6.97138369E-01   9.22024460E+01  -1.52737951E+00   1.54962683E+01
             1801                3   9.60236511E+01   9.44731674E+01   9.44731674E+01  -1.57357669E+00  -1.52737951E+00   9.44731674E+01   9.44731674E+01  -1.52737951E+00  -1.57357669E+00   9.60467453E+01  -3.04574032E+01   9.60236282E+01   1.17817426E+00   9.17214127E+01  -1.52737951E+00   1.60226345E+01
             1801                4   9.67088242E+01   9.49292984E+01   9.49292984E+01  -2.02971411E+00  -1.52737951E+00   9.49292984E+01   9.49292984E+01  -1.52737951E+00  -2.02971411E+00   9.69590073E+01  -3.04573994E+01   9.67058868E+01   6.88194871E-01   9.22113876E+01  -1.52737951E+00   1.60043335E+01
             1802                1   9.13356171E+01   8.63542786E+01   8.63542786E+01  -5.03964043E+00  -4.92292023E+00   8.63542786E+01   8.63542786E+01  -4.92292023E+00  -5.03964043E+00   9.13939133E+01  -2.54639053E+01   9.13354416E+01  -4.47421455E+00   8.57888489E+01  -4.92292023E+00   7.16637611E+00
             1802                2   9.10379791E+01   8.61558685E+01   8.61558685E+01  -4.84124279E+00  -4.92292023E+00   8.61558685E+01   8.61558685E+01  -4.84124279E+00  -4.92292023E+00   9.10787888E+01  -2.54639034E+01   9.10378952E+01  -4.25853634E+00   8.55731659E+01  -4.92292023E+00   7.25844002E+00
             1802                3   9.11495590E+01   8.62302780E+01   8.62302780E+01  -4.91564941E+00  -4.92292023E+00   8.62302780E+01   8.62302780E+01  -4.91564941E+00  -4.92292023E+00   9.11531982E+01  -2.54639034E+01   9.11495667E+01  -4.38268805E+00   8.56973190E+01  -4.92292023E+00   6.94931555E+00
             1802                4   9.08516769E+01   8.60315704E+01   8.60315704E+01  -4.71694088E+00  -4.92292023E+00   8.60315704E+01   8.60315704E+01  -4.71694088E+00  -4.92292023E+00   9.09544907E+01  -2.54639034E+01   9.08511505E+01  -4.16721106E+00   8.54818420E+01  -4.92292023E+00   7.04164219E+00
             1803                1   1.90357834E+02   1.65215302E+02   1.65215302E+02  -2.43694916E+01  -2.59062519E+01   1.65215302E+02   1.65215302E+02  -2.43694916E+01  -2.59062519E+01   1.91121552E+02  -3.83131866E+01   1.90343857E+02  -2.43694649E+01   1.65215271E+02  -2.59062519E+01   7.60982931E-02
             1803                2   1.90228500E+02   1.65127960E+02   1.65127960E+02  -2.41971817E+01  -2.59912224E+01   1.65127960E+02   1.65127960E+02  -2.41971817E+01  -2.59912224E+01   1.91119171E+02  -3.83131828E+01   1.90209473E+02  -2.41458397E+01   1.65076614E+02  -2.59912224E+01  -3.11721921E+00
             1803                3   1.91521378E+02   1.65990585E+02   1.65990585E+02  -2.63466587E+01  -2.47043667E+01   1.65990585E+02   1.65990585E+02  -2.47043667E+01  -2.63466587E+01   1.92337234E+02  -3.83131828E+01   1.91505524E+02  -2.63463459E+01   1.65990265E+02  -2.47043667E+01  -2.46031910E-01
             1803                4   1.91393860E+02   1.65906540E+02   1.65906540E+02  -2.61823692E+01  -2.47846088E+01   1.65906540E+02   1.65906540E+02  -2.47846088E+01  -2.61823692E+01   1.92088913E+02  -3.83131866E+01   1.91382370E+02  -2.61218624E+01   1.65846024E+02  -2.47846088E+01  -3.40883684E+00
             1804                1   2.87689552E+01   2.61270981E+01   2.61270981E+01  -1.43870525E-02  -4.69525814E+00   2.61270981E+01   2.61270981E+01  -1.43870525E-02  -4.69525814E+00   3.08223553E+01  -7.13915110E+00   2.78928604E+01  -3.09441285E-03   2.61158047E+01  -4.69525814E+00   5.43228269E-01
             1804                2   2.84663105E+01   2.59043255E+01   2.59043255E+01   2.08385244E-01  -4.69525814E+00   2.59043255E+01   2.59043255E+01   2.08385244E-01  -4.69525814E+00   3.05995846E+01  -7.13915110E+00   2.74918976E+01   2.16272727E-01   2.58964386E+01  -4.69525814E+00   4.50115979E-01
             1804                3   2.88865891E+01   2.62132950E+01   2.62132950E+01  -1.00584388E-01  -4.69525814E+00   2.62132950E+01   2.62132950E+01  -1.00584388E-01  -4.69525814E+00   3.09085541E+01  -7.13915110E+00   2.80467587E+01  -9.65998173E-02   2.62093105E+01  -4.69525814E+00   3.23789775E-01
             1804                4   2.85851116E+01   2.59919510E+01   2.59919510E+01   1.20762654E-01  -4.69525814E+00   2.59919510E+01   2.59919510E+01   1.20762654E-01  -4.69525814E+00   3.06872082E+01  -7.13915110E+00   2.76501751E+01   1.22818992E-01   2.59898930E+01  -4.69525814E+00   2.30692759E-01
             1805                1   9.29367676E+01   8.86849289E+01   8.86849289E+01  -4.16467094E+00  -4.33876944E+00   8.86849289E+01   8.86849289E+01  -4.16467094E+00  -4.33876944E+00   9.30236969E+01  -2.67271633E+01   9.29364014E+01  -3.59265661E+00   8.81129150E+01  -4.33876944E+00   7.26525068E+00
             1805                2   9.32348480E+01   8.88837280E+01   8.88837280E+01  -4.36347103E+00  -4.33876944E+00   8.88837280E+01   8.88837280E+01  -4.33876944E+00  -4.36347103E+00   9.32472000E+01  -2.67271633E+01   9.32348404E+01  -3.80585384E+00   8.83261108E+01  -4.33876944E+00   7.18924379E+00
             1805                3   9.31015015E+01   8.87948151E+01   8.87948151E+01  -4.27456045E+00  -4.33876944E+00   8.87948151E+01   8.87948151E+01  -4.27456045E+00  -4.33876944E+00   9.31335831E+01  -2.67271633E+01   9.31014481E+01  -3.66928339E+00   8.81895370E+01  -4.33876944E+00   7.48108530E+00
             1805                4   9.34004745E+01   8.89940948E+01   8.89940948E+01  -4.47384071E+00  -4.33876944E+00   8.89940948E+01   8.89940948E+01  -4.33876944E+00  -4.47384071E+00   9.34679413E+01  -2.67271633E+01   9.34002533E+01  -3.88316941E+00   8.84034271E+01  -4.33876944E+00   7.40673923E+00
             1806                1   9.95397491E+01   9.79199905E+01   9.79199905E+01  -1.62298870E+00  -1.61651766E+00   9.79199905E+01   9.79199905E+01  -1.61651766E+00  -1.62298870E+00   9.95429840E+01  -3.15601635E+01   9.95397415E+01  -1.18100309E+00   9.74780045E+01  -1.61651766E+00   6.61827374E+00
             1806                2   9.94663467E+01   9.78710556E+01   9.78710556E+01  -1.57405853E+00  -1.61651766E+00   9.78710556E+01   9.78710556E+01  -1.57405853E+00  -1.61651766E+00   9.94875717E+01  -3.15601597E+01   9.94663315E+01  -1.15410399E+00   9.74511032E+01  -1.61651766E+00   6.44870901E+00
             1806                3   9.97843094E+01   9.80829620E+01   9.80829620E+01  -1.78595984E+00  -1.61651766E+00   9.80829620E+01   9.80829620E+01  -1.61651766E+00  -1.78595984E+00   9.98689270E+01  -3.15601635E+01   9.97839890E+01  -1.34886253E+00   9.76458664E+01  -1.61651766E+00   6.59253073E+00
             1806                4   9.97109985E+01   9.80341263E+01   9.80341263E+01  -1.73712695E+00  -1.61651766E+00   9.80341263E+01   9.80341263E+01  -1.61651766E+00  -1.73712695E+00   9.97712479E+01  -3.15601597E+01   9.97108383E+01  -1.32192230E+00   9.76189194E+01  -1.61651766E+00   6.42285728E+00
             1807                1   9.42833252E+01   9.11688156E+01   9.11688156E+01  -3.00123024E+00  -3.22737455E+00   9.11688156E+01   9.11688156E+01  -3.00123024E+00  -3.22737455E+00   9.43961945E+01  -2.83134060E+01   9.42827072E+01  -1.49493253E+00   8.96625214E+01  -3.22737455E+00   1.18143578E+01
             1807                2   9.48060455E+01   9.15174026E+01   9.15174026E+01  -3.34980440E+00  -3.22737455E+00   9.15174026E+01   9.15174026E+01  -3.22737455E+00  -3.34980440E+00   9.48672028E+01  -2.83134079E+01   9.48058624E+01  -1.87005758E+00   9.00376511E+01  -3.22737455E+00   1.17554207E+01
             1807                3   9.45037537E+01   9.13158875E+01   9.13158875E+01  -3.14830399E+00  -3.22737455E+00   9.13158875E+01   9.13158875E+01  -3.14830399E+00  -3.22737455E+00   9.45432663E+01  -2.83134060E+01   9.45036774E+01  -1.54586446E+00   8.97134552E+01  -3.22737455E+00   1.21985664E+01
             1807                4   9.50268402E+01   9.16644363E+01   9.16644363E+01  -3.49685287E+00  -3.22737455E+00   9.16644363E+01   9.16644363E+01  -3.22737455E+00  -3.49685287E+00   9.51612930E+01  -2.83134060E+01   9.50259781E+01  -1.92140675E+00   9.00889969E+01  -3.22737455E+00   1.21424541E+01
             1808                1   5.87656784E+01   6.12157898E+01   6.12157898E+01   1.47777414E+00   3.47328329E+00   6.12157898E+01   6.12157898E+01   3.47328329E+00   1.47777414E+00   5.97380180E+01  -2.20556164E+01   5.86893768E+01   3.70035248E+01   2.56900406E+01   3.47328329E+00   2.93284664E+01
             1808                2   5.92150764E+01   6.15101891E+01   6.15101891E+01   1.18337572E+00   3.47328329E+00   6.15101891E+01   6.15101891E+01   3.47328329E+00   1.18337572E+00   6.03268127E+01  -2.20556164E+01   5.91153336E+01   3.60902748E+01   2.66032906E+01   3.47328329E+00   2.97880917E+01
             1808                3   6.01830597E+01   6.21421776E+01   6.21421776E+01   5.51388681E-01   3.47328329E+00   6.21421776E+01   6.21421776E+01   3.47328329E+00   5.51388681E-01   6.15907898E+01  -2.20556164E+01   6.00231628E+01   3.76479568E+01   2.50456066E+01   3.47328329E+00   3.01438465E+01
             1808                4   6.06086617E+01   6.24191628E+01   6.24191628E+01   2.74404109E-01   3.47328329E+00   6.24191628E+01   6.24191628E+01   3.47328329E+00   2.74404109E-01   6.21447563E+01  -2.20556164E+01   6.04182930E+01   3.67159309E+01   2.59776325E+01   3.47328329E+00   3.06049824E+01
             1809                1   3.89502411E+01   3.64016685E+01   3.64016685E+01  -9.13705766E-01  -3.99982929E+00   3.64016685E+01   3.64016685E+01  -9.13705766E-01  -3.99982929E+00   4.04015007E+01  -1.04960451E+01   3.86737366E+01   4.56046015E-01   3.50319176E+01  -3.99982929E+00   7.01688099E+00
             1809                2   3.85724030E+01   3.61381569E+01   3.61381569E+01  -6.50191426E-01  -3.99982929E+00   3.61381569E+01   3.61381569E+01  -6.50191426E-01  -3.99982929E+00   4.01379852E+01  -1.04960451E+01   3.82431259E+01   7.27503359E-01   3.47604599E+01  -3.99982929E+00   6.98463440E+00
             1809                3   3.88554039E+01   3.63356361E+01   3.63356361E+01  -8.47672701E-01  -3.99982929E+00   3.63356361E+01   3.63356361E+01  -8.47672701E-01  -3.99982929E+00   4.03354683E+01  -1.04960451E+01   3.85661583E+01   4.19268042E-01   3.50686951E+01  -3.99982929E+00   6.74566269E+00
             1809                4   3.84761581E+01   3.60708427E+01   3.60708427E+01  -5.82877278E-01  -3.99982929E+00   3.60708427E+01   3.60708427E+01  -5.82877278E-01  -3.99982929E+00   4.00706711E+01  -1.04960451E+01   3.81325607E+01   6.91002309E-01   3.47969627E+01  -3.99982929E+00   6.71339273E+00
             1810                1   3.60542717E+01   3.39648590E+01   3.39648590E+01  -3.84443402E-01  -3.58145499E+00   3.39648590E+01   3.39648590E+01  -3.84443402E-01  -3.58145499E+00   3.75463104E+01  -9.99965286E+00   3.57332840E+01   5.25128901E-01   3.30552864E+01  -3.58145499E+00   5.51505232E+00
             1810                2   3.57014694E+01   3.37174072E+01   3.37174072E+01  -1.36993334E-01  -3.58145499E+00   3.37174072E+01   3.37174072E+01  -1.36993334E-01  -3.58145499E+00   3.72988625E+01  -9.99965286E+00   3.53247375E+01   7.67279744E-01   3.28131332E+01  -3.58145499E+00   5.45856571E+00
             1810                3   3.60275421E+01   3.39461517E+01   3.39461517E+01  -3.65736067E-01  -3.58145499E+00   3.39461517E+01   3.39461517E+01  -3.65736067E-01  -3.58145499E+00   3.75276031E+01  -9.99965286E+00   3.57025185E+01   4.64383304E-01   3.31160316E+01  -3.58145499E+00   5.27198505E+00
             1810                4   3.56742973E+01   3.36982994E+01   3.36982994E+01  -1.17886968E-01  -3.58145499E+00   3.36982994E+01   3.36982994E+01  -1.17886968E-01  -3.58145499E+00   3.72797546E+01  -9.99965286E+00   3.52930489E+01   7.06609428E-01   3.28738060E+01  -3.58145499E+00   5.21550369E+00
             1811                1   2.11377792E+02   2.09067810E+02   2.09067810E+02  -8.79701424E+00   4.83714676E+00   2.09067810E+02   2.09067810E+02   4.83714676E+00  -8.79701424E+00   2.17864822E+02  -6.83693161E+01   2.10385071E+02  -8.66911411E+00   2.08939911E+02   4.83714676E+00   5.27720451E+00
             1811                2   2.11046646E+02   2.08890976E+02   2.08890976E+02  -7.98597956E+00   4.20293617E+00   2.08890976E+02   2.08890976E+02   4.20293617E+00  -7.98597956E+00   2.16876953E+02  -6.83693161E+01   2.10252533E+02  -7.61042404E+00   2.08515427E+02   4.20293617E+00   9.01706505E+00
             1811                3   2.10883133E+02   2.08809708E+02   2.08809708E+02  -7.44284439E+00   3.74107528E+00   2.08809708E+02   2.08809708E+02   3.74107528E+00  -7.44284439E+00   2.16252563E+02  -6.83693161E+01   2.10214340E+02  -7.41757488E+00   2.08784439E+02   3.74107528E+00   2.33765268E+00
             1811                4   2.10383133E+02   2.08510880E+02   2.08510880E+02  -6.59469223E+00   3.19175887E+00   2.08510880E+02   2.08510880E+02   3.19175887E+00  -6.59469223E+00   2.15105576E+02  -6.83693161E+01   2.09870087E+02  -6.41871881E+00   2.08334900E+02   3.19175887E+00   6.14999437E+00
             1812                1   7.29384842E+01   6.79410324E+01   6.79410324E+01  -4.94047451E+00  -5.05430317E+00   6.79410324E+01   6.79410324E+01  -4.94047451E+00  -5.05430317E+00   7.29953308E+01  -1.93154182E+01   7.29382858E+01  -4.90968418E+00   6.79102402E+01  -5.05430317E+00   1.49771845E+00
             1812                2   7.29944382E+01   6.79783554E+01   6.79783554E+01  -4.97779799E+00  -5.05430317E+00   6.79783554E+01   6.79783554E+01  -4.97779799E+00  -5.05430317E+00   7.30326614E+01  -1.93154202E+01   7.29943466E+01  -4.95396090E+00   6.79545212E+01  -5.05430317E+00   1.31847978E+00
             1812                3   7.32099075E+01   6.81220093E+01   6.81220093E+01  -5.12144566E+00  -5.05430317E+00   6.81220093E+01   6.81220093E+01  -5.05430317E+00  -5.12144566E+00   7.32434540E+01  -1.93154202E+01   7.32098389E+01  -5.08896208E+00   6.80895233E+01  -5.05430317E+00   1.54216599E+00
             1812                4   7.32657089E+01   6.81591873E+01   6.81591873E+01  -5.15863132E+00  -5.05430317E+00   6.81591873E+01   6.81591873E+01  -5.05430317E+00  -5.15863132E+00   7.33178177E+01  -1.93154182E+01   7.32655411E+01  -5.13328600E+00   6.81338425E+01  -5.05430317E+00   1.36296344E+00
             1813                1   2.17096901E+01   1.62773266E+01   1.62773266E+01  -2.18682408E-01  -8.31760120E+00   1.62773266E+01   1.62773266E+01  -2.18682408E-01  -8.31760120E+00   2.45949268E+01  -2.58034730E+00   1.78006954E+01   1.16909504E+01   4.36769390E+00  -8.31760120E+00   7.39067316E+00
             1813                2   2.17698746E+01   1.63300343E+01   1.63300343E+01  -2.71391392E-01  -8.31760120E+00   1.63300343E+01   1.63300343E+01  -2.71391392E-01  -8.31760120E+00   2.46476364E+01  -2.58034730E+00   1.79346828E+01   1.25229082E+01   3.53573561E+00  -8.31760120E+00   6.97922039E+00
             1813                3   2.07300529E+01   1.53894205E+01   1.53894205E+01   6.69223070E-01  -8.31760120E+00   1.53894205E+01   1.53894205E+01   6.69223070E-01  -8.31760120E+00   2.37070217E+01  -2.58034730E+00   1.53283386E+01   1.12434692E+01   4.81517506E+00  -8.31760120E+00   6.62120152E+00
             1813                4   2.07845783E+01   1.54405031E+01   1.54405031E+01   6.18140221E-01  -8.31760120E+00   1.54405031E+01   1.54405031E+01   6.18140221E-01  -8.31760120E+00   2.37581043E+01  -2.58034730E+00   1.54842396E+01   1.20923977E+01   3.96624613E+00  -8.31760120E+00   6.19814682E+00
             1814                1   1.97536743E+02   1.64984100E+02   1.64984100E+02  -3.38109932E+01  -3.12697449E+01   1.64984100E+02   1.64984100E+02  -3.12697449E+01  -3.38109932E+01   1.98795105E+02  -3.33011208E+01   1.97499954E+02  -3.38070107E+01   1.64980118E+02  -3.12697449E+01  -8.90357435E-01
             1814                2   1.96414108E+02   1.64242859E+02   1.64242859E+02  -3.17273560E+01  -3.26121368E+01   1.64242859E+02   1.64242859E+02  -3.17273560E+01  -3.26121368E+01   1.96854996E+02  -3.33011208E+01   1.96409622E+02  -3.17273140E+01   1.64242813E+02  -3.26121368E+01  -9.54700559E-02
             1814                3   1.97244766E+02   1.64793213E+02   1.64793213E+02  -3.33780212E+01  -3.15118389E+01   1.64793213E+02   1.64793213E+02  -3.15118389E+01  -3.33780212E+01   1.98171234E+02  -3.33011169E+01   1.97224899E+02  -3.32845993E+01   1.64699799E+02  -3.15118389E+01  -4.30153942E+00
             1814                4   1.96111252E+02   1.64038712E+02   1.64038712E+02  -3.12696667E+01  -3.28656883E+01   1.64038712E+02   1.64038712E+02  -3.12696667E+01  -3.28656883E+01   1.96904404E+02  -3.33011169E+01   1.96096649E+02  -3.12054672E+01   1.63974518E+02  -3.28656883E+01  -3.54018307E+00
             1815                1   5.87067413E+01   5.36547470E+01   5.36547470E+01  -4.40968132E+00  -5.67388487E+00   5.36547470E+01   5.36547470E+01  -4.40968132E+00  -5.67388487E+00   5.93286324E+01  -1.45237274E+01   5.86761055E+01  -2.21074152E+00   5.14558105E+01  -5.67388487E+00   1.10835361E+01
             1815                2   5.82338219E+01   5.33355103E+01   5.33355103E+01  -4.09044361E+00  -5.67388487E+00   5.33355103E+01   5.33355103E+01  -4.09044361E+00  -5.67388487E+00   5.90093956E+01  -1.45237274E+01   5.81853600E+01  -1.81162143E+00   5.10566902E+01  -5.67388487E+00   1.12102833E+01
             1815                3   5.83568611E+01   5.34186592E+01   5.34186592E+01  -4.17358637E+00  -5.67388487E+00   5.34186592E+01   5.34186592E+01  -4.17358637E+00  -5.67388487E+00   5.90925446E+01  -1.45237284E+01   5.83134422E+01  -2.12029648E+00   5.13653679E+01  -5.67388487E+00   1.06788378E+01
             1815                4   5.78801613E+01   5.30961494E+01   5.30961494E+01  -3.85107851E+00  -5.67388487E+00   5.30961494E+01   5.30961494E+01  -3.85107851E+00  -5.67388487E+00   5.87700348E+01  -1.45237284E+01   5.78155289E+01  -1.71984947E+00   5.09649200E+01  -5.67388487E+00   1.08085842E+01
             1816                1   2.00932327E+02   1.60174866E+02   1.60174866E+02  -4.23392830E+01  -3.91373672E+01   1.60174866E+02   1.60174866E+02  -3.91373672E+01  -4.23392830E+01   2.02514160E+02  -2.62327404E+01   2.00874924E+02  -4.23369713E+01   1.60172562E+02  -3.91373672E+01  -6.83919311E-01
             1816                2   2.00354370E+02   1.59801437E+02   1.59801437E+02  -4.01291656E+01  -4.09740448E+01   1.59801437E+02   1.59801437E+02  -4.01291656E+01  -4.09740448E+01   2.00775482E+02  -2.62327423E+01   2.00350372E+02  -4.01283836E+01   1.59800659E+02  -4.09740448E+01   3.93994153E-01
             1816                3   2.00725708E+02   1.60043442E+02   1.60043442E+02  -4.18085251E+01  -3.95367012E+01   1.60043442E+02   1.60043442E+02  -3.95367012E+01  -4.18085251E+01   2.01851974E+02  -2.62327423E+01   2.00696777E+02  -4.16983948E+01   1.59933319E+02  -3.95367012E+01  -4.71356726E+00
             1816                4   2.00091553E+02   1.59622879E+02   1.59622879E+02  -3.95430946E+01  -4.13815651E+01   1.59622879E+02   1.59622879E+02  -3.95430946E+01  -4.13815651E+01   2.01004456E+02  -2.62327423E+01   2.00072540E+02  -3.94747772E+01   1.59554565E+02  -4.13815651E+01  -3.68810606E+00
             1817                1   1.04932732E+02   1.07187149E+02   1.07187149E+02   2.13529420E+00   2.37394595E+00   1.07187149E+02   1.07187149E+02   2.37394595E+00   2.13529420E+00   1.05051849E+02  -3.72321281E+01   1.04932121E+02   2.58396697E+00   1.06738472E+02   2.37394595E+00   6.85075426E+00
             1817                2   1.04919571E+02   1.07178383E+02   1.07178383E+02   2.14405823E+00   2.37394595E+00   1.07178383E+02   1.07178383E+02   2.37394595E+00   2.14405823E+00   1.05034325E+02  -3.72321281E+01   1.04918999E+02   2.61203623E+00   1.06710403E+02   2.37394595E+00   6.99534845E+00
             1817                3   1.04712784E+02   1.07040627E+02   1.07040627E+02   2.28180599E+00   2.37394595E+00   1.07040627E+02   1.07040627E+02   2.37394595E+00   2.28180599E+00   1.04758820E+02  -3.72321281E+01   1.04712692E+02   2.72781682E+00   1.06594620E+02   2.37394595E+00   6.82087326E+00
             1817                4   1.04699593E+02   1.07031837E+02   1.07031837E+02   2.29060054E+00   2.37394595E+00   1.07031837E+02   1.07031837E+02   2.37394595E+00   2.29060054E+00   1.04741241E+02  -3.72321281E+01   1.04699516E+02   2.75589967E+00   1.06566544E+02   2.37394595E+00   6.96557856E+00
             1818                1   9.02907028E+01   8.51846085E+01   8.51846085E+01  -5.05349731E+00  -5.15860128E+00   8.51846085E+01   8.51846085E+01  -5.05349731E+00  -5.15860128E+00   9.03432083E+01  -2.49908371E+01   9.02905655E+01  -4.94095564E+00   8.50720673E+01  -5.15860128E+00   3.18478370E+00
             1818                2   9.04214859E+01   8.52718277E+01   8.52718277E+01  -5.14071321E+00  -5.15860128E+00   8.52718277E+01   8.52718277E+01  -5.14071321E+00  -5.15860128E+00   9.04304276E+01  -2.49908371E+01   9.04214783E+01  -5.03566217E+00   8.51667709E+01  -5.15860128E+00   3.08011317E+00
             1818                3   9.04573975E+01   8.52957687E+01   8.52957687E+01  -5.16465521E+00  -5.15860128E+00   8.52957687E+01   8.52957687E+01  -5.15860128E+00  -5.16465521E+00   9.04604187E+01  -2.49908371E+01   9.04573898E+01  -5.04558086E+00   8.51766891E+01  -5.15860128E+00   3.27987528E+00
             1818                4   9.05879517E+01   8.53827820E+01   8.53827820E+01  -5.25166321E+00  -5.15860128E+00   8.53827820E+01   8.53827820E+01  -5.15860128E+00  -5.25166321E+00   9.06344452E+01  -2.49908390E+01   9.05878372E+01  -5.14029264E+00   8.52714081E+01  -5.15860128E+00   3.17519879E+00
             1819                1   2.19927338E+02   2.29950409E+02   2.29950409E+02  -9.77916241E+00   3.75230103E+01   2.29950409E+02   2.29950409E+02   3.75230103E+01  -9.77916241E+00   2.39729568E+02  -8.58980942E+01   2.08015060E+02  -9.77790260E+00   2.29949158E+02   3.75230103E+01  -5.48351288E-01
             1819                2   2.20000000E+02   2.29426193E+02   2.29426193E+02  -1.20020514E+01   4.02701149E+01   2.29426193E+02   2.29426193E+02   4.02701149E+01  -1.20020514E+01   2.41428253E+02  -8.58980942E+01   2.05318649E+02  -1.17173872E+01   2.29141541E+02   4.02701149E+01  -8.28514767E+00
             1819                3   2.20000000E+02   2.29335785E+02   2.29335785E+02  -1.23264971E+01   4.06849785E+01   2.29335785E+02   2.29335785E+02   4.06849785E+01  -1.23264971E+01   2.41662292E+02  -8.58980942E+01   2.04877319E+02  -1.21900787E+01   2.29199371E+02   4.06849785E+01   5.74007988E+00
             1819                4   2.20000000E+02   2.28778412E+02   2.28778412E+02  -1.42168274E+01   4.31326828E+01   2.28778412E+02   2.28778412E+02   4.31326828E+01  -1.42168274E+01   2.42995239E+02  -8.58980942E+01   2.02130798E+02  -1.42005081E+01   2.28762085E+02   4.31326828E+01  -1.99177504E+00
             1820                1   7.29909744E+01   6.76115494E+01   6.76115494E+01  -5.19672775E+00  -5.56075335E+00   6.76115494E+01   6.76115494E+01  -5.19672775E+00  -5.56075335E+00   7.31723022E+01  -1.89513569E+01   7.29889297E+01  -4.68631983E+00   6.71011429E+01  -5.56075335E+00   6.07465601E+00
             1820                2   7.32364426E+01   6.77755127E+01   6.77755127E+01  -5.36068726E+00  -5.56075335E+00   6.77755127E+01   6.77755127E+01  -5.36068726E+00  -5.56075335E+00   7.33362656E+01  -1.89513569E+01   7.32358246E+01  -4.87943411E+00   6.72942581E+01  -5.56075335E+00   5.91316605E+00
             1820                3   7.32767715E+01   6.78024368E+01   6.78024368E+01  -5.38761616E+00  -5.56075335E+00   6.78024368E+01   6.78024368E+01  -5.38761616E+00  -5.56075335E+00   7.33631897E+01  -1.89513569E+01   7.32763138E+01  -4.84662342E+00   6.72614441E+01  -5.56075335E+00   6.26917315E+00
             1820                4   7.35210800E+01   6.79654083E+01   6.79654083E+01  -5.55058193E+00  -5.56075335E+00   6.79654083E+01   6.79654083E+01  -5.55058193E+00  -5.56075335E+00   7.35261612E+01  -1.89513569E+01   7.35210724E+01  -5.03962898E+00   6.74544525E+01  -5.56075335E+00   6.10755968E+00
             1821                1   5.98270569E+01   5.60594559E+01   5.60594559E+01  -3.31983304E+00  -4.20553255E+00   5.60594559E+01   5.60594559E+01  -3.31983304E+00  -4.20553255E+00   6.02649879E+01  -1.61780300E+01   5.98123016E+01  -2.01145029E+00   5.47510757E+01  -4.20553255E+00   8.71658707E+00
             1821                2   6.01559906E+01   5.62801857E+01   5.62801857E+01  -3.54055834E+00  -4.20553255E+00   5.62801857E+01   5.62801857E+01  -3.54055834E+00  -4.20553255E+00   6.04857178E+01  -1.61780319E+01   6.01477165E+01  -2.28503895E+00   5.50246658E+01  -4.20553255E+00   8.57495403E+00
             1821                3   6.01481094E+01   5.62749023E+01   5.62749023E+01  -3.53527522E+00  -4.20553255E+00   5.62749023E+01   5.62749023E+01  -3.53527522E+00  -4.20553255E+00   6.04804344E+01  -1.61780319E+01   6.01397057E+01  -2.15177560E+00   5.48914032E+01  -4.20553255E+00   8.99073410E+00
             1821                4   6.04752388E+01   5.64940147E+01   5.64940147E+01  -3.75438738E+00  -4.20553255E+00   5.64940147E+01   5.64940147E+01  -3.75438738E+00  -4.20553255E+00   6.06995468E+01  -1.61780319E+01   6.04714508E+01  -2.42535067E+00   5.51649780E+01  -4.20553255E+00   8.84906960E+00
             1822                1   2.12494537E+02   1.91710022E+02   1.91710022E+02  -2.72081776E+01  -1.37180729E+01   1.91710022E+02   1.91710022E+02  -1.37180729E+01  -2.72081776E+01   2.18918198E+02  -5.02612572E+01   2.11527908E+02  -2.70936546E+01   1.91595505E+02  -1.37180729E+01   5.00571775E+00
             1822                2   2.13336105E+02   1.92132477E+02   1.92132477E+02  -2.93452415E+01  -1.20034399E+01   1.92132477E+02   1.92132477E+02  -1.20034399E+01  -2.93452415E+01   2.21477722E+02  -5.02612648E+01   2.11741577E+02  -2.93421822E+01   1.92129410E+02  -1.20034399E+01   8.23675573E-01
             1822                3   2.13426178E+02   1.92185287E+02   1.92185287E+02  -2.94617920E+01  -1.19397230E+01   1.92185287E+02   1.92185287E+02  -1.19397230E+01  -2.94617920E+01   2.21647079E+02  -5.02612572E+01   2.11798859E+02  -2.90811138E+01   1.91804611E+02  -1.19397230E+01   9.17772865E+00
             1822                4   2.14018723E+02   1.92417068E+02   1.92417068E+02  -3.13902664E+01  -1.02430182E+01   1.92417068E+02   1.92417068E+02  -1.02430182E+01  -3.13902664E+01   2.23807327E+02  -5.02612610E+01   2.11649002E+02  -3.12762127E+01   1.92303009E+02  -1.02430182E+01   5.05101061E+00
             1823                1   7.46172562E+01   6.91271896E+01   6.91271896E+01  -5.52287245E+00  -5.45721149E+00   6.91271896E+01   6.91271896E+01  -5.45721149E+00  -5.52287245E+00   7.46500626E+01  -1.93823681E+01   7.46171875E+01  -5.27520895E+00   6.88795242E+01  -5.45721149E+00   4.29265356E+00
             1823                2   7.44448700E+01   6.90122681E+01   6.90122681E+01  -5.40795565E+00  -5.45721149E+00   6.90122681E+01   6.90122681E+01  -5.40795565E+00  -5.45721149E+00   7.44694824E+01  -1.93823681E+01   7.44448318E+01  -5.13957548E+00   6.87438889E+01  -5.45721149E+00   4.46105289E+00
             1823                3   7.43441544E+01   6.89450912E+01   6.89450912E+01  -5.34078074E+00  -5.45721149E+00   6.89450912E+01   6.89450912E+01  -5.34078074E+00  -5.45721149E+00   7.44023056E+01  -1.93823681E+01   7.43439484E+01  -5.10760117E+00   6.87119141E+01  -5.45721149E+00   4.15541029E+00
             1823                4   7.41711884E+01   6.88296432E+01   6.88296432E+01  -5.22533369E+00  -5.45721149E+00   6.88296432E+01   6.88296432E+01  -5.22533369E+00  -5.45721149E+00   7.42868576E+01  -1.93823681E+01   7.41703720E+01  -4.97200489E+00   6.85763168E+01  -5.45721149E+00   4.32388735E+00
             1824                1   3.18058815E+01   3.07825165E+01   3.07825165E+01   2.22842380E-01  -2.13800645E+00   3.07825165E+01   3.07825165E+01   2.22842380E-01  -2.13800645E+00   3.29205246E+01  -9.62245083E+00   3.16078472E+01   3.42488825E-01   3.06628704E+01  -2.13800645E+00   1.90841663E+00
             1824                2   3.21451416E+01   3.10173626E+01   3.10173626E+01  -1.20051568E-02  -2.13800645E+00   3.10173626E+01   3.10173626E+01  -1.20051568E-02  -2.13800645E+00   3.31553688E+01  -9.62245083E+00   3.19863892E+01   1.18791685E-01   3.08865662E+01  -2.13800645E+00   2.01033139E+00
             1824                3   3.17007065E+01   3.07094860E+01   3.07094860E+01   2.95870960E-01  -2.13800645E+00   3.07094860E+01   3.07094860E+01   2.95870960E-01  -2.13800645E+00   3.28474922E+01  -9.62245083E+00   3.14894657E+01   4.46061879E-01   3.05592957E+01  -2.13800645E+00   2.13197041E+00
             1824                4   3.20410118E+01   3.09453964E+01   3.09453964E+01   5.99612072E-02  -2.13800645E+00   3.09453964E+01   3.09453964E+01   5.99612072E-02  -2.13800645E+00   3.30834045E+01  -9.62245083E+00   3.18707314E+01   2.22392932E-01   3.07829647E+01  -2.13800645E+00   2.23391891E+00
             1825                1   7.50084915E+01   6.95453186E+01   6.95453186E+01  -5.50642824E+00  -5.41984510E+00   6.95453186E+01   6.95453186E+01  -5.41984510E+00  -5.50642824E+00   7.50517426E+01  -1.95396805E+01   7.50083771E+01  -5.35672188E+00   6.93956070E+01  -5.41984510E+00   3.34864950E+00
             1825                2   7.48745270E+01   6.94560318E+01   6.94560318E+01  -5.41714668E+00  -5.41984510E+00   6.94560318E+01   6.94560318E+01  -5.41714668E+00  -5.41984510E+00   7.48758774E+01  -1.95396805E+01   7.48745270E+01  -5.25140333E+00   6.92902908E+01  -5.41984510E+00   3.51883817E+00
             1825                3   7.47408066E+01   6.93668518E+01   6.93668518E+01  -5.32797384E+00  -5.41984510E+00   6.93668518E+01   6.93668518E+01  -5.32797384E+00  -5.41984510E+00   7.47866974E+01  -1.95396786E+01   7.47406769E+01  -5.18694115E+00   6.92258224E+01  -5.41984510E+00   3.24258780E+00
             1825                4   7.46063995E+01   6.92771683E+01   6.92771683E+01  -5.23829174E+00  -5.41984510E+00   6.92771683E+01   6.92771683E+01  -5.23829174E+00  -5.41984510E+00   7.46970139E+01  -1.95396786E+01   7.46059113E+01  -5.08165359E+00   6.91205368E+01  -5.41984510E+00   3.41279101E+00
             1826                1   4.11162529E+01   4.05345535E+01   4.05345535E+01  -1.06099501E-01  -1.04134285E+00   4.05345535E+01   4.05345535E+01  -1.06099501E-01  -1.04134285E+00   4.15758972E+01  -1.31290369E+01   4.10923119E+01   1.59636724E+00   3.88320885E+01  -1.04134285E+00   8.14192581E+00
             1826                2   4.08835869E+01   4.03774643E+01   4.03774643E+01   5.09873144E-02  -1.04134285E+00   4.03774643E+01   4.03774643E+01   5.09873144E-02  -1.04134285E+00   4.14188080E+01  -1.31290359E+01   4.08507385E+01   1.78118312E+00   3.86472702E+01  -1.04134285E+00   8.17184544E+00
             1826                3   4.09513321E+01   4.04232368E+01   4.04232368E+01   5.21816406E-03  -1.04134285E+00   4.04232368E+01   4.04232368E+01   5.21816406E-03  -1.04134285E+00   4.14645805E+01  -1.31290369E+01   4.09212265E+01   1.63296711E+00   3.87954865E+01  -1.04134285E+00   7.94612408E+00
             1826                4   4.07150955E+01   4.02634964E+01   4.02634964E+01   1.64955363E-01  -1.04134285E+00   4.02634964E+01   4.02634964E+01   1.64955363E-01  -1.04134285E+00   4.13048401E+01  -1.31290359E+01   4.06748619E+01   1.81943667E+00   3.86090164E+01  -1.04134285E+00   7.97526932E+00
             1827                1   9.63407288E+01   9.58824615E+01   9.58824615E+01  -4.56650198E-01  -4.59879488E-01   9.58824615E+01   9.58824615E+01  -4.56650198E-01  -4.59879488E-01   9.63423386E+01  -3.16553116E+01   9.63407211E+01   2.88114738E+00   9.25446625E+01  -4.59879488E-01   1.76187325E+01
             1827                2   9.70869827E+01   9.63793335E+01   9.63793335E+01  -9.53524888E-01  -4.59879488E-01   9.63793335E+01   9.63793335E+01  -4.59879488E-01  -9.53524888E-01   9.73328629E+01  -3.16553116E+01   9.70841522E+01   2.35038829E+00   9.30754242E+01  -4.59879488E-01   1.76256466E+01
             1827                3   9.66439514E+01   9.60845108E+01   9.60845108E+01  -6.58697903E-01  -4.59879488E-01   9.60845108E+01   9.60845108E+01  -4.59879488E-01  -6.58697903E-01   9.67432098E+01  -3.16553116E+01   9.66434860E+01   2.88504696E+00   9.25407639E+01  -4.59879488E-01   1.81734753E+01
             1827                4   9.73890915E+01   9.65801315E+01   9.65801315E+01  -1.15432215E+00  -4.59879488E-01   9.65801315E+01   9.65801315E+01  -4.59879488E-01  -1.15432215E+00   9.77344589E+01  -3.16553116E+01   9.73835220E+01   2.35275435E+00   9.30730591E+01  -4.59879488E-01   1.81786270E+01
             1828                1   9.65911407E+01   9.32193222E+01   9.32193222E+01  -3.38372183E+00  -3.35991740E+00   9.32193222E+01   9.32193222E+01  -3.35991740E+00  -3.38372183E+00   9.66030426E+01  -2.88252277E+01   9.65911407E+01  -3.26413488E+00   9.30997391E+01  -3.35991740E+00   3.39675164E+00
             1828                2   9.66906815E+01   9.32856598E+01   9.32856598E+01  -3.45005822E+00  -3.35991740E+00   9.32856598E+01   9.32856598E+01  -3.35991740E+00  -3.45005822E+00   9.67357178E+01  -2.88252277E+01   9.66905823E+01  -3.32377505E+00   9.31593781E+01  -3.35991740E+00   3.49285388E+00
             1828                3   9.64544067E+01   9.31281509E+01   9.31281509E+01  -3.29255152E+00  -3.35991740E+00   9.31281509E+01   9.31281509E+01  -3.29255152E+00  -3.35991740E+00   9.64880676E+01  -2.88252277E+01   9.64543533E+01  -3.16850567E+00   9.30041046E+01  -3.35991740E+00   3.45622253E+00
             1828                4   9.65539398E+01   9.31945190E+01   9.31945190E+01  -3.35892010E+00  -3.35991740E+00   9.31945190E+01   9.31945190E+01  -3.35892010E+00  -3.35991740E+00   9.65544357E+01  -2.88252277E+01   9.65539398E+01  -3.22805738E+00   9.30636597E+01  -3.35991740E+00   3.55219340E+00
             1829                1   6.17150040E+01   5.79898796E+01   5.79898796E+01  -3.39839649E+00  -4.04674673E+00   5.79898796E+01   5.79898796E+01  -3.39839649E+00  -4.04674673E+00   6.20366287E+01  -1.68482456E+01   6.17073441E+01  -2.41250849E+00   5.70039940E+01  -4.04674673E+00   7.71685839E+00
             1829                2   6.20008354E+01   5.81812935E+01   5.81812935E+01  -3.58981037E+00  -4.04674673E+00   5.81812935E+01   5.81812935E+01  -3.58981037E+00  -4.04674673E+00   6.22280426E+01  -1.68482456E+01   6.19970474E+01  -2.65068626E+00   5.72421722E+01  -4.04674673E+00   7.55835104E+00
             1829                3   6.20334435E+01   5.82031136E+01   5.82031136E+01  -3.61162400E+00  -4.04674673E+00   5.82031136E+01   5.82031136E+01  -3.61162400E+00  -4.04674673E+00   6.22498589E+01  -1.68482475E+01   6.20300064E+01  -2.57017922E+00   5.71616669E+01  -4.04674673E+00   7.95562935E+00
             1829                4   6.23176537E+01   5.83931084E+01   5.83931084E+01  -3.80162406E+00  -4.04674673E+00   5.83931084E+01   5.83931084E+01  -3.80162406E+00  -4.04674673E+00   6.24398537E+01  -1.68482456E+01   6.23165703E+01  -2.80825710E+00   5.73997421E+01  -4.04674673E+00   7.79713726E+00
             1830                1   8.32656174E+01   7.74585648E+01   7.74585648E+01  -5.66988897E+00  -5.94354916E+00   7.74585648E+01   7.74585648E+01  -5.66988897E+00  -5.94354916E+00   8.34021149E+01  -2.19483738E+01   8.32646103E+01  -1.99242318E+00   7.37810974E+01  -5.94354916E+00   1.70932217E+01
             1830                2   8.23366318E+01   7.68370285E+01   7.68370285E+01  -5.04835606E+00  -5.94354916E+00   7.68370285E+01   7.68370285E+01  -5.04835606E+00  -5.94354916E+00   8.27805786E+01  -2.19483738E+01   8.23256836E+01  -1.31600809E+00   7.31046829E+01  -5.94354916E+00   1.70790577E+01
             1830                3   8.28095474E+01   7.71537323E+01   7.71537323E+01  -5.36505890E+00  -5.94354916E+00   7.71537323E+01   7.71537323E+01  -5.36505890E+00  -5.94354916E+00   8.30972824E+01  -2.19483738E+01   8.28050079E+01  -1.95868576E+00   7.37473602E+01  -5.94354916E+00   1.64160385E+01
             1830                4   8.18548126E+01   7.65137177E+01   7.65137177E+01  -4.72504234E+00  -5.94354916E+00   7.65137177E+01   7.65137177E+01  -4.72504234E+00  -5.94354916E+00   8.24572678E+01  -2.19483738E+01   8.18344040E+01  -1.26039517E+00   7.30490723E+01  -5.94354916E+00   1.64152241E+01
             1831                1   2.77970867E+01   2.37297630E+01   2.37297630E+01   2.27813229E-01  -6.95324135E+00   2.37297630E+01   2.37297630E+01   2.27813229E-01  -6.95324135E+00   3.06830044E+01  -5.66811180E+00   2.55823231E+01   3.00028533E-01   2.36575489E+01  -6.95324135E+00   1.30075729E+00
             1831                2   2.81238937E+01   2.39861698E+01   2.39861698E+01  -2.85931658E-02  -6.95324135E+00   2.39861698E+01   2.39861698E+01  -2.85931658E-02  -6.95324135E+00   3.09394112E+01  -5.66811180E+00   2.61004276E+01   5.38846329E-02   2.39036922E+01  -6.95324135E+00   1.40494812E+00
             1831                3   2.77031631E+01   2.36555958E+01   2.36555958E+01   3.01981241E-01  -6.95324135E+00   2.36555958E+01   2.36555958E+01   3.01981241E-01  -6.95324135E+00   3.06088371E+01  -5.66811180E+00   2.54306297E+01   4.04865801E-01   2.35527115E+01  -6.95324135E+00   1.54665077E+00
             1831                4   2.80309887E+01   2.39135342E+01   2.39135342E+01   4.40398976E-02  -6.95324135E+00   2.39135342E+01   2.39135342E+01   4.40398976E-02  -6.95324135E+00   3.08667755E+01  -5.66811132E+00   2.59546280E+01   1.58768564E-01   2.37988071E+01  -6.95324135E+00   1.65085804E+00
             1832                1   5.48826141E+01   5.11431847E+01   5.11431847E+01  -2.95004225E+00  -4.49614477E+00   5.11431847E+01   5.11431847E+01  -2.95004225E+00  -4.49614477E+00   5.56393280E+01  -1.45656662E+01   5.48335800E+01  -1.07228470E+00   4.92654266E+01  -4.49614477E+00   9.90191841E+00
             1832                2   5.52738152E+01   5.14074402E+01   5.14074402E+01  -3.21429992E+00  -4.49614477E+00   5.14074402E+01   5.14074402E+01  -3.21429992E+00  -4.49614477E+00   5.59035873E+01  -1.45656662E+01   5.52403526E+01  -1.41674101E+00   4.96098824E+01  -4.49614477E+00   9.74446583E+00
             1832                3   5.52426605E+01   5.13864250E+01   5.13864250E+01  -3.19328260E+00  -4.49614477E+00   5.13864250E+01   5.13864250E+01  -3.19328260E+00  -4.49614477E+00   5.58825684E+01  -1.45656662E+01   5.52080765E+01  -1.18777037E+00   4.93809128E+01  -4.49614477E+00   1.02683086E+01
             1832                4   5.56360092E+01   5.16514969E+01   5.16514969E+01  -3.45835829E+00  -4.49614477E+00   5.16514969E+01   5.16514969E+01  -3.45835829E+00  -4.49614477E+00   5.61476402E+01  -1.45656652E+01   5.56142235E+01  -1.53246236E+00   4.97256012E+01  -4.49614477E+00   1.01206093E+01
             1833                1   6.08094482E+01   5.70628395E+01   5.70628395E+01  -3.36292052E+00  -4.12316704E+00   5.70628395E+01   5.70628395E+01  -3.36292052E+00  -4.12316704E+00   6.11860085E+01  -1.65255833E+01   6.07987556E+01  -2.21643782E+00   5.59163589E+01  -4.12316704E+00   8.24394608E+00
             1833                2   6.11178703E+01   5.72695808E+01   5.72695808E+01  -3.56965876E+00  -4.12316704E+00   5.72695808E+01   5.72695808E+01  -3.56965876E+00  -4.12316704E+00   6.13927460E+01  -1.65255833E+01   6.11122360E+01  -2.47321248E+00   5.61731339E+01  -4.12316704E+00   8.09349823E+00
             1833                3   6.11296768E+01   5.72774887E+01   5.72774887E+01  -3.57756233E+00  -4.12316704E+00   5.72774887E+01   5.72774887E+01  -3.57756233E+00  -4.12316704E+00   6.14006538E+01  -1.65255871E+01   6.11241951E+01  -2.36583424E+00   5.60657578E+01  -4.12316704E+00   8.50126743E+00
             1833                4   6.14364243E+01   5.74827309E+01   5.74827309E+01  -3.78280687E+00  -4.12316704E+00   5.74827309E+01   5.74827309E+01  -3.78280687E+00  -4.12316704E+00   6.16058998E+01  -1.65255871E+01   6.14343033E+01  -2.62258577E+00   5.63225098E+01  -4.12316704E+00   8.35077763E+00
             1834                1   7.63447189E+01   7.00976181E+01   7.00976181E+01  -5.55815268E+00  -6.91787672E+00   7.00976181E+01   7.00976181E+01  -5.55815268E+00  -6.91787672E+00   7.70154953E+01  -1.92071972E+01   7.63174667E+01  -2.75693083E+00   6.72963943E+01  -6.91787672E+00   1.42857265E+01
             1834                2   7.70354080E+01   7.05615311E+01   7.05615311E+01  -6.02206230E+00  -6.91787672E+00   7.05615311E+01   7.05615311E+01  -6.02206230E+00  -6.91787672E+00   7.74794083E+01  -1.92071972E+01   7.70236816E+01  -3.28972077E+00   6.78291855E+01  -6.91787672E+00   1.42051744E+01
             1834                3   7.67436371E+01   7.03657379E+01   7.03657379E+01  -5.82627726E+00  -6.91787672E+00   7.03657379E+01   7.03657379E+01  -5.82627726E+00  -6.91787672E+00   7.72836151E+01  -1.92071934E+01   7.67261658E+01  -2.82609248E+00   6.73655548E+01  -6.91787672E+00   1.48185291E+01
             1834                4   7.74263306E+01   7.08234482E+01   7.08234482E+01  -6.28398991E+00  -6.91787672E+00   7.08234482E+01   7.08234482E+01  -6.28398991E+00  -6.91787672E+00   7.77413254E+01  -1.92071934E+01   7.74204865E+01  -3.35680485E+00   6.78962631E+01  -6.91787672E+00   1.47356510E+01
             1835                1   5.59983406E+01   5.27726707E+01   5.27726707E+01  -2.67965961E+00  -3.75616360E+00   5.27726707E+01   5.27726707E+01  -2.67965961E+00  -3.75616360E+00   5.65288315E+01  -1.54456148E+01   5.59750557E+01  -1.13917148E+00   5.12321815E+01  -3.75616360E+00   9.11320686E+00
             1835                2   5.63310394E+01   5.29964142E+01   5.29964142E+01  -2.90340209E+00  -3.75616360E+00   5.29964142E+01   5.29964142E+01  -2.90340209E+00  -3.75616360E+00   5.67525787E+01  -1.54456167E+01   5.63165131E+01  -1.42348659E+00   5.15164986E+01  -3.75616360E+00   8.97423840E+00
             1835                3   5.63242264E+01   5.29918365E+01   5.29918365E+01  -2.89882755E+00  -3.75616360E+00   5.29918365E+01   5.29918365E+01  -2.89882755E+00  -3.75616360E+00   5.67480011E+01  -1.54456148E+01   5.63095436E+01  -1.26913798E+00   5.13621483E+01  -3.75616360E+00   9.40364456E+00
             1835                4   5.66602821E+01   5.32173767E+01   5.32173767E+01  -3.12436581E+00  -3.75616360E+00   5.32173767E+01   5.32173767E+01  -3.12436581E+00  -3.75616360E+00   5.69735413E+01  -1.54456148E+01   5.66523590E+01  -1.55545688E+00   5.16484680E+01  -3.75616360E+00   9.27003384E+00
             1836                1   9.33237686E+01   8.95455093E+01   8.95455093E+01  -3.66221142E+00  -3.89386725E+00   8.95455093E+01   8.95455093E+01  -3.66221142E+00  -3.89386725E+00   9.34393768E+01  -2.73298111E+01   9.33231201E+01  -2.54786158E+00   8.84311600E+01  -3.89386725E+00   1.01303730E+01
             1836                2   9.37617111E+01   8.98376083E+01   8.98376083E+01  -3.95430923E+00  -3.89386725E+00   8.98376083E+01   8.98376083E+01  -3.89386725E+00  -3.95430923E+00   9.37919159E+01  -2.73298111E+01   9.37616730E+01  -2.86142540E+00   8.87447281E+01  -3.89386725E+00   1.00652418E+01
             1836                3   9.35236282E+01   8.96788712E+01   8.96788712E+01  -3.79557085E+00  -3.89386725E+00   8.96788712E+01   8.96788712E+01  -3.79557085E+00  -3.89386725E+00   9.35727386E+01  -2.73298111E+01   9.35235138E+01  -2.61149073E+00   8.84947891E+01  -3.89386725E+00   1.04536791E+01
             1836                4   9.39610596E+01   8.99704208E+01   8.99704208E+01  -4.08711815E+00  -3.89386725E+00   8.99704208E+01   8.99704208E+01  -3.89386725E+00  -4.08711815E+00   9.40575409E+01  -2.73298111E+01   9.39606171E+01  -2.92511749E+00   8.88084183E+01  -3.89386725E+00   1.03896437E+01
             1837                1   1.00617432E+02   9.92206421E+01   9.92206421E+01  -1.39358962E+00  -1.39999759E+00   9.92206421E+01   9.92206421E+01  -1.39358962E+00  -1.39999759E+00   1.00620636E+02  -3.21423531E+01   1.00617432E+02  -1.38463378E+00   9.92116852E+01  -1.39999759E+00   9.49100196E-01
             1837                2   1.00652359E+02   9.92439194E+01   9.92439194E+01  -1.41687346E+00  -1.39999759E+00   9.92439194E+01   9.92439194E+01  -1.39999759E+00  -1.41687346E+00   1.00660797E+02  -3.21423531E+01   1.00652351E+02  -1.40831101E+00   9.92353592E+01  -1.39999759E+00   9.28406000E-01
             1837                3   1.00649162E+02   9.92417908E+01   9.92417908E+01  -1.41474426E+00  -1.39999759E+00   9.92417908E+01   9.92417908E+01  -1.39999759E+00  -1.41474426E+00   1.00656540E+02  -3.21423531E+01   1.00649162E+02  -1.40534139E+00   9.92323914E+01  -1.39999759E+00   9.72780108E-01
             1837                4   1.00684082E+02   9.92650681E+01   9.92650681E+01  -1.43801820E+00  -1.39999759E+00   9.92650681E+01   9.92650681E+01  -1.39999759E+00  -1.43801820E+00   1.00703087E+02  -3.21423531E+01   1.00684059E+02  -1.42901647E+00   9.92560654E+01  -1.39999759E+00   9.52083170E-01
             1838                1   6.62988129E+01   6.26849899E+01   6.26849899E+01  -3.55469656E+00  -3.67279220E+00   6.26849899E+01   6.26849899E+01  -3.55469656E+00  -3.67279220E+00   6.63577805E+01  -1.84858341E+01   6.62985764E+01  -3.52762723E+00   6.26579208E+01  -3.67279220E+00   1.33881176E+00
             1838                2   6.63449783E+01   6.27157898E+01   6.27157898E+01  -3.58549428E+00  -3.67279220E+00   6.27157898E+01   6.27157898E+01  -3.58549428E+00  -3.67279220E+00   6.63885803E+01  -1.84858341E+01   6.63448486E+01  -3.56577182E+00   6.26960678E+01  -3.67279220E+00   1.14330959E+00
             1838                3   6.65943985E+01   6.28820763E+01   6.28820763E+01  -3.75178266E+00  -3.67279220E+00   6.28820763E+01   6.28820763E+01  -3.67279220E+00  -3.75178266E+00   6.66338577E+01  -1.84858341E+01   6.65942917E+01  -3.72330236E+00   6.28535957E+01  -3.67279220E+00   1.37732828E+00
             1838                4   6.66404648E+01   6.29127655E+01   6.29127655E+01  -3.78247023E+00  -3.67279220E+00   6.29127655E+01   6.29127655E+01  -3.67279220E+00  -3.78247023E+00   6.66952362E+01  -1.84858341E+01   6.66402588E+01  -3.76151848E+00   6.28918152E+01  -3.67279220E+00   1.18187189E+00
             1839                1   1.17939606E+02   1.42274826E+02   1.42274826E+02   2.40085049E+01   2.46646595E+01   1.42274826E+02   1.42274826E+02   2.46646595E+01   2.40085049E+01   1.18266312E+02  -6.36493263E+01   1.17935493E+02   2.41921463E+01   1.42091171E+02   2.46646595E+01   4.65674734E+00
             1839                2   1.18060211E+02   1.42354980E+02   1.42354980E+02   2.39283390E+01   2.46646595E+01   1.42354980E+02   1.42354980E+02   2.46646595E+01   2.39283390E+01   1.18426643E+02  -6.36493263E+01   1.18055046E+02   2.41309032E+01   1.42152420E+02   2.46646595E+01   4.89368725E+00
             1839                3   1.17589096E+02   1.42041687E+02   1.42041687E+02   2.42416458E+01   2.46646595E+01   1.42041687E+02   1.42041687E+02   2.46646595E+01   2.42416458E+01   1.17800034E+02  -6.36493263E+01   1.17587379E+02   2.44304295E+01   1.41852890E+02   2.46646595E+01   4.71204901E+00
             1839                4   1.17709999E+02   1.42122116E+02   1.42122116E+02   2.41612053E+01   2.46646595E+01   1.42122116E+02   1.42122116E+02   2.46646595E+01   2.41612053E+01   1.17960915E+02  -6.36493263E+01   1.17707573E+02   2.43691978E+01   1.41914124E+02   2.46646595E+01   4.94895649E+00
             1840                1   3.67599487E+01   3.64808884E+01   3.64808884E+01   3.75385791E-01  -9.00293887E-01   3.64808884E+01   3.64808884E+01   3.75385791E-01  -9.00293887E-01   3.73811836E+01  -1.19853258E+01   3.67100945E+01   1.44209170E+00   3.54141808E+01  -9.00293887E-01   6.11360216E+00
             1840                2   3.69812393E+01   3.66309204E+01   3.66309204E+01   2.25354835E-01  -9.00293887E-01   3.66309204E+01   3.66309204E+01   2.25354835E-01  -9.00293887E-01   3.75312119E+01  -1.19853258E+01   3.69426651E+01   1.28900623E+00   3.55672684E+01  -9.00293887E-01   6.13118601E+00
             1840                3   3.68109856E+01   3.65155220E+01   3.65155220E+01   3.40752602E-01  -9.00293887E-01   3.65155220E+01   3.65155220E+01   3.40752602E-01  -9.00293887E-01   3.74158134E+01  -1.19853258E+01   3.67638702E+01   1.46148908E+00   3.53947830E+01  -9.00293887E-01   6.26788521E+00
             1840                4   3.70316238E+01   3.66650314E+01   3.66650314E+01   1.91243753E-01  -9.00293887E-01   3.66650314E+01   3.66650314E+01   1.91243753E-01  -9.00293887E-01   3.75653229E+01  -1.19853258E+01   3.69954033E+01   1.30846250E+00   3.55478096E+01  -9.00293887E-01   6.28498793E+00
             1841                1   5.76249657E+01   5.66808205E+01   5.66808205E+01  -8.91635835E-01  -9.96515393E-01   5.66808205E+01   5.66808205E+01  -8.91635835E-01  -9.96515393E-01   5.76773376E+01  -1.82642231E+01   5.76247559E+01  -8.87153029E-01   5.66763382E+01  -9.96515393E-01   5.07966876E-01
             1841                2   5.76400528E+01   5.66908875E+01   5.66908875E+01  -9.01701808E-01  -9.96515393E-01   5.66908875E+01   5.66908875E+01  -9.01701808E-01  -9.96515393E-01   5.76874008E+01  -1.82642231E+01   5.76398811E+01  -9.00198698E-01   5.66893845E+01  -9.96515393E-01   2.94102103E-01
             1841                3   5.79463463E+01   5.68950691E+01   5.68950691E+01  -1.10588384E+00  -9.96515393E-01   5.68950691E+01   5.68950691E+01  -9.96515393E-01  -1.10588384E+00   5.80009537E+01  -1.82642231E+01   5.79461136E+01  -1.10119951E+00   5.68903847E+01  -9.96515393E-01   5.21191299E-01
             1841                4   5.79612808E+01   5.69050179E+01   5.69050179E+01  -1.11583221E+00  -9.96515393E-01   5.69050179E+01   5.69050179E+01  -9.96515393E-01  -1.11583221E+00   5.80208473E+01  -1.82642231E+01   5.79610100E+01  -1.11420321E+00   5.69033890E+01  -9.96515393E-01   3.07315856E-01
             1842                1   6.93654251E+01   6.42754669E+01   6.42754669E+01  -4.82217407E+00  -5.35467815E+00   6.42754669E+01   6.42754669E+01  -4.82217407E+00  -5.35467815E+00   6.96301422E+01  -1.80328712E+01   6.93608322E+01  -4.02560234E+00   6.34788971E+01  -5.35467815E+00   7.37608194E+00
             1842                2   6.96616211E+01   6.44735565E+01   6.44735565E+01  -5.02025938E+00  -5.35467815E+00   6.44735565E+01   6.44735565E+01  -5.02025938E+00  -5.35467815E+00   6.98282318E+01  -1.80328732E+01   6.96598206E+01  -4.26205063E+00   6.37153473E+01  -5.35467815E+00   7.21912909E+00
             1842                3   6.96693802E+01   6.44787369E+01   6.44787369E+01  -5.02544308E+00  -5.35467815E+00   6.44787369E+01   6.44787369E+01  -5.02544308E+00  -5.35467815E+00   6.98334198E+01  -1.80328732E+01   6.96676331E+01  -4.18117142E+00   6.36344681E+01  -5.35467815E+00   7.61363935E+00
             1842                4   6.99641800E+01   6.46755981E+01   6.46755981E+01  -5.22230005E+00  -5.35467815E+00   6.46755981E+01   6.46755981E+01  -5.22230005E+00  -5.35467815E+00   7.00302734E+01  -1.80328732E+01   6.99638977E+01  -4.41756916E+00   6.38708649E+01  -5.35467815E+00   7.45662975E+00
             1843                1   9.63854675E+01   9.29041138E+01   9.29041138E+01  -3.53873324E+00  -3.42386818E+00   9.29041138E+01   9.29041138E+01  -3.42386818E+00  -3.53873324E+00   9.64428482E+01  -2.86471710E+01   9.63853073E+01  -3.29202271E+00   9.26574020E+01  -3.42386818E+00   4.87161207E+00
             1843                2   9.61933517E+01   9.27760696E+01   9.27760696E+01  -3.41068959E+00  -3.42386818E+00   9.27760696E+01   9.27760696E+01  -3.41068959E+00  -3.42386818E+00   9.61999359E+01  -2.86471710E+01   9.61933441E+01  -3.15713811E+00   9.25225143E+01  -3.42386818E+00   4.93196821E+00
             1843                3   9.62743988E+01   9.28301010E+01   9.28301010E+01  -3.46472073E+00  -3.42386818E+00   9.28301010E+01   9.28301010E+01  -3.42386818E+00  -3.46472073E+00   9.62948227E+01  -2.86471710E+01   9.62743759E+01  -3.23126221E+00   9.25966415E+01  -3.42386818E+00   4.73564529E+00
             1843                4   9.60823135E+01   9.27020264E+01   9.27020264E+01  -3.33664656E+00  -3.42386818E+00   9.27020264E+01   9.27020264E+01  -3.33664656E+00  -3.42386818E+00   9.61258926E+01  -2.86471710E+01   9.60822220E+01  -3.09652019E+00   9.24618988E+01  -3.42386818E+00   4.79623127E+00
             1844                1   4.87254868E+01   4.99702606E+01   4.99702606E+01   1.26163459E+00   1.22793496E+00   4.99702606E+01   4.99702606E+01   1.26163459E+00   1.22793496E+00   4.87423248E+01  -1.74866104E+01   4.87254562E+01   2.07011008E+00   4.91617851E+01   1.22793496E+00   6.22303057E+00
             1844                2   4.83786163E+01   4.97386589E+01   4.97386589E+01   1.49323666E+00   1.22793496E+00   4.97386589E+01   4.97386589E+01   1.49323666E+00   1.22793496E+00   4.85107231E+01  -1.74866104E+01   4.83769798E+01   2.27101660E+00   4.89608803E+01   1.22793496E+00   6.07612658E+00
             1844                3   4.88644180E+01   5.00628700E+01   5.00628700E+01   1.16902471E+00   1.22793496E+00   5.00628700E+01   5.00628700E+01   1.22793496E+00   1.16902471E+00   4.88938446E+01  -1.74866104E+01   4.88643379E+01   1.92401171E+00   4.93078842E+01   1.22793496E+00   6.02861452E+00
             1844                4   4.85150452E+01   4.98298187E+01   4.98298187E+01   1.40207767E+00   1.22793496E+00   4.98298187E+01   4.98298187E+01   1.40207767E+00   1.22793496E+00   4.86018829E+01  -1.74866104E+01   4.85143433E+01   2.12613797E+00   4.91057587E+01   1.22793496E+00   5.87709808E+00
             1845                1   8.34142990E+01   7.76033936E+01   7.76033936E+01  -5.72646332E+00  -5.89509439E+00   7.76033936E+01   7.76033936E+01  -5.72646332E+00  -5.89509439E+00   8.34984894E+01  -2.19939442E+01   8.34139175E+01  -5.53631639E+00   7.74132462E+01  -5.89509439E+00   3.97602844E+00
             1845                2   8.35783539E+01   7.77128372E+01   7.77128372E+01  -5.83590508E+00  -5.89509439E+00   7.77128372E+01   7.77128372E+01  -5.83590508E+00  -5.89509439E+00   8.36079330E+01  -2.19939442E+01   8.35783005E+01  -5.65925932E+00   7.75361862E+01  -5.89509439E+00   3.83765602E+00
             1845                3   8.36383209E+01   7.77528305E+01   7.77528305E+01  -5.87589645E+00  -5.89509439E+00   7.77528305E+01   7.77528305E+01  -5.87589645E+00  -5.89509439E+00   8.36479187E+01  -2.19939442E+01   8.36383209E+01  -5.67444754E+00   7.75513763E+01  -5.89509439E+00   4.09956837E+00
             1845                4   8.38019257E+01   7.78618698E+01   7.78618698E+01  -5.98494339E+00  -5.89509439E+00   7.78618698E+01   7.78618698E+01  -5.89509439E+00  -5.98494339E+00   8.38468170E+01  -2.19939442E+01   8.38018188E+01  -5.79738760E+00   7.76743164E+01  -5.89509439E+00   3.96117210E+00
             1846                1   2.16760956E+02   2.25124329E+02   2.25124329E+02  -3.14841342E+00   2.20836697E+01   2.25124329E+02   2.25124329E+02   2.20836697E+01  -3.14841342E+00   2.28272751E+02  -8.13531952E+01   2.13419449E+02  -3.14822984E+00   2.25124146E+02   2.20836697E+01  -2.07974210E-01
             1846                2   2.16878311E+02   2.25083206E+02   2.25083206E+02  -4.11315775E+00   2.30895405E+01   2.25083206E+02   2.25083206E+02   2.30895405E+01  -4.11315775E+00   2.29196365E+02  -8.13531952E+01   2.12989426E+02  -4.07108974E+00   2.25041138E+02   2.30895405E+01   3.10480571E+00
             1846                3   2.16552078E+02   2.25149185E+02   2.25149185E+02  -1.66391480E+00   2.05743198E+01   2.25149185E+02   2.25149185E+02   2.05743198E+01  -1.66391480E+00   2.26813110E+02  -8.13532028E+01   2.13960495E+02  -1.64659238E+00   2.25131866E+02   2.05743198E+01   1.98214936E+00
             1846                4   2.16676224E+02   2.25119736E+02   2.25119736E+02  -2.69213104E+00   2.16319923E+01   2.25119736E+02   2.25119736E+02   2.16319923E+01  -2.69213104E+00   2.27811859E+02  -8.13531952E+01   2.13572128E+02  -2.56788802E+00   2.24995483E+02   2.16319923E+01   5.31873846E+00
             1847                1   2.20000000E+02   2.41782547E+02   2.41782547E+02  -1.10738583E-01   5.36367493E+01   2.41782547E+02   2.41782547E+02   5.36367493E+01  -1.10738583E-01   2.41893295E+02  -9.84361877E+01   2.04430344E+02  -1.09144188E-01   2.41780960E+02   5.36367493E+01   6.20648682E-01
             1847                2   2.20000000E+02   2.41196243E+02   2.41196243E+02  -2.06444812E+00   5.61767845E+01   2.41196243E+02   2.41196243E+02   5.61767845E+01  -2.06444812E+00   2.43260681E+02  -9.84361877E+01   2.01532104E+02  -1.85348856E+00   2.40985275E+02   5.61767845E+01  -7.16062355E+00
             1847                3   2.20000000E+02   2.41070541E+02   2.41070541E+02  -2.45993423E+00   5.66979523E+01   2.41070541E+02   2.41070541E+02   5.66979523E+01  -2.45993423E+00   2.43530487E+02  -9.84361877E+01   2.00904114E+02  -2.26816845E+00   2.40878784E+02   5.66979523E+01   6.83102369E+00
             1847                4   2.20000000E+02   2.40515839E+02   2.40515839E+02  -4.12127972E+00   5.89140015E+01   2.40515839E+02   2.40515839E+02   5.89140015E+01  -4.12127972E+00   2.44637115E+02  -9.84361877E+01   1.98103119E+02  -4.11834621E+00   2.40512909E+02   5.89140015E+01  -8.47026348E-01
             1848                1   2.02966675E+02   1.69154739E+02   1.69154739E+02  -3.69579849E+01  -3.05123558E+01   1.69154739E+02   1.69154739E+02  -3.05123558E+01  -3.69579849E+01   2.06112717E+02  -3.38947945E+01   2.02736221E+02  -3.69091454E+01   1.69105896E+02  -3.05123558E+01  -3.17232561E+00
             1848                2   2.01988541E+02   1.68545181E+02   1.68545181E+02  -3.47522430E+01  -3.21085472E+01   1.68545181E+02   1.68545181E+02  -3.21085472E+01  -3.47522430E+01   2.03297424E+02  -3.38947945E+01   2.01949631E+02  -3.47460289E+01   1.68538971E+02  -3.21085472E+01  -1.12344456E+00
             1848                3   2.02373062E+02   1.68783463E+02   1.68783463E+02  -3.58744621E+01  -3.12246094E+01   1.68783463E+02   1.68783463E+02  -3.12246094E+01  -3.58744621E+01   2.04657913E+02  -3.38947945E+01   2.02252823E+02  -3.56379471E+01   1.68546951E+02  -3.12246094E+01  -6.95320749E+00
             1848                4   2.01359924E+02   1.68134064E+02   1.68134064E+02  -3.35942879E+01  -3.28553925E+01   1.68134064E+02   1.68134064E+02  -3.28553925E+01  -3.35942879E+01   2.01728348E+02  -3.38947945E+01   2.01356873E+02  -3.34733009E+01   1.68013077E+02  -3.28553925E+01  -4.93886471E+00
             1849                1   2.20000000E+02   1.94652740E+02   1.94652740E+02  -4.11575470E+01  -5.07617044E+00   1.94652740E+02   1.94652740E+02  -5.07617044E+00  -4.11575470E+01   2.35810287E+02  -4.94730072E+01   2.13190338E+02  -4.06453896E+01   1.94140579E+02  -5.07617044E+00   1.09777317E+01
             1849                2   2.20000000E+02   1.95066940E+02   1.95066940E+02  -3.86581421E+01  -7.98977518E+00   1.95066940E+02   1.95066940E+02  -7.98977518E+00  -3.86581421E+01   2.33725082E+02  -4.94730072E+01   2.15111877E+02  -3.84999886E+01   1.94908783E+02  -7.98977518E+00   6.07785892E+00
             1849                3   2.20000000E+02   1.94277634E+02   1.94277634E+02  -4.31047287E+01  -2.75389218E+00   1.94277634E+02   1.94277634E+02  -2.75389218E+00  -4.31047287E+01   2.37382370E+02  -4.94730072E+01   2.11432785E+02  -4.30074883E+01   1.94180405E+02  -2.75389218E+00   4.80338192E+00
             1849                4   2.20000000E+02   1.94689117E+02   1.94689117E+02  -4.09548378E+01  -5.31526089E+00   1.94689117E+02   1.94689117E+02  -5.31526089E+00  -4.09548378E+01   2.35643951E+02  -4.94730072E+01   2.13359894E+02  -4.09543724E+01   1.94688660E+02  -5.31526089E+00  -3.29200089E-01
             1850                1   2.04727448E+02   1.92616592E+02   1.92616592E+02  -1.64845161E+01  -7.43721437E+00   1.92616592E+02   1.92616592E+02  -7.43721437E+00  -1.64845161E+01   2.09101120E+02  -5.62316246E+01   2.04276932E+02  -1.63057861E+01   1.92437866E+02  -7.43721437E+00   6.11071634E+00
             1850                2   2.03857910E+02   1.92072342E+02   1.92072342E+02  -1.53158293E+01  -8.06164551E+00   1.92072342E+02   1.92072342E+02  -8.06164551E+00  -1.53158293E+01   2.07388168E+02  -5.62316246E+01   2.03567200E+02  -1.50387430E+01   1.91795258E+02  -8.06164551E+00   7.57547665E+00
             1850                3   2.04187134E+02   1.92286789E+02   1.92286789E+02  -1.55648975E+01  -8.02702713E+00   1.92286789E+02   1.92286789E+02  -8.02702713E+00  -1.55648975E+01   2.07851685E+02  -5.62316246E+01   2.03873718E+02  -1.54809952E+01   1.92202881E+02  -8.02702713E+00   4.17538309E+00
             1850                4   2.03304779E+02   1.91727966E+02   1.91727966E+02  -1.43740883E+01  -8.65901566E+00   1.91727966E+02   1.91727966E+02  -8.65901566E+00  -1.43740883E+01   2.06102051E+02  -5.62316246E+01   2.03123917E+02  -1.42187557E+01   1.91572632E+02  -8.65901566E+00   5.65609407E+00
             1851                1   2.10409088E+02   2.04504425E+02   2.04504425E+02  -1.52928400E+01   4.94610023E+00   2.04504425E+02   2.04504425E+02   4.94610023E+00  -1.52928400E+01   2.19797256E+02  -6.47192307E+01   2.08202271E+02  -1.51876049E+01   2.04399185E+02   4.94610023E+00  -4.80822182E+00
             1851                2   2.10192093E+02   2.04391373E+02   2.04391373E+02  -1.48982029E+01   4.66451311E+00   2.04391373E+02   2.04391373E+02   4.66451311E+00  -1.48982029E+01   2.19289566E+02  -6.47192307E+01   2.08129150E+02  -1.48034163E+01   2.04296585E+02   4.66451311E+00  -4.55802679E+00
             1851                3   2.10648605E+02   2.04665222E+02   2.04665222E+02  -1.53672962E+01   4.85975027E+00   2.04665222E+02   2.04665222E+02   4.85975027E+00  -1.53672962E+01   2.20032516E+02  -6.47192307E+01   2.08446945E+02  -1.52177534E+01   2.04515686E+02   4.85975027E+00  -5.73418760E+00
             1851                4   2.10327698E+02   2.04489471E+02   2.04489471E+02  -1.48675098E+01   4.53571653E+00   2.04489471E+02   2.04489471E+02   4.53571653E+00  -1.48675098E+01   2.19356979E+02  -6.47192307E+01   2.08299820E+02  -1.47437258E+01   2.04365692E+02   4.53571653E+00  -5.20932245E+00
             1852                1   2.09912811E+02   1.62537262E+02   1.62537262E+02  -5.17875023E+01  -4.26662636E+01   1.62537262E+02   1.62537262E+02  -4.26662636E+01  -5.17875023E+01   2.14324753E+02  -2.26944981E+01   2.09466248E+02  -5.17737083E+01   1.62523468E+02  -4.26662636E+01  -1.71906567E+00
             1852                2   2.08959518E+02   1.61980347E+02   1.61980347E+02  -4.90180016E+01  -4.48788528E+01   1.61980347E+02   1.61980347E+02  -4.48788528E+01  -4.90180016E+01   2.10998352E+02  -2.26944962E+01   2.08867249E+02  -4.90118980E+01   1.61974243E+02  -4.48788528E+01   1.13447952E+00
             1852                3   2.09424637E+02   1.62258621E+02   1.62258621E+02  -5.03966560E+01  -4.37784843E+01   1.62258621E+02   1.62258621E+02  -4.37784843E+01  -5.03966560E+01   2.12655273E+02  -2.26944942E+01   2.09189163E+02  -5.01827202E+01   1.62044693E+02  -4.37784843E+01  -6.74148750E+00
             1852                4   2.08304260E+02   1.61561600E+02   1.61561600E+02  -4.74468803E+01  -4.60312195E+01   1.61561600E+02   1.61561600E+02  -4.60312195E+01  -4.74468803E+01   2.09008469E+02  -2.26944981E+01   2.08293427E+02  -4.73719978E+01   1.61486710E+02  -4.60312195E+01  -3.95550966E+00
             1853                1   5.79823532E+01   5.61785622E+01   5.61785622E+01  -1.70151722E+00  -1.90553379E+00   5.61785622E+01   5.61785622E+01  -1.70151722E+00  -1.90553379E+00   5.80840950E+01  -1.75238361E+01   5.79815483E+01  -1.26088953E+00   5.57379341E+01  -1.90553379E+00   5.03083801E+00
             1853                2   5.83037338E+01   5.63929901E+01   5.63929901E+01  -1.91594815E+00  -1.90553379E+00   5.63929901E+01   5.63929901E+01  -1.90553379E+00  -1.91594815E+00   5.83089409E+01  -1.75238361E+01   5.83037300E+01  -1.45256543E+00   5.59296074E+01  -1.90553379E+00   5.17732573E+00
             1853                3   5.78175354E+01   5.60684357E+01   5.60684357E+01  -1.59139061E+00  -1.90553379E+00   5.60684357E+01   5.60684357E+01  -1.59139061E+00  -1.90553379E+00   5.79739685E+01  -1.75238361E+01   5.78156166E+01  -1.11442888E+00   5.55914726E+01  -1.90553379E+00   5.22245216E+00
             1853                4   5.81400185E+01   5.62838058E+01   5.62838058E+01  -1.80676067E+00  -1.90553379E+00   5.62838058E+01   5.62838058E+01  -1.80676067E+00  -1.90553379E+00   5.81893425E+01  -1.75238380E+01   5.81398277E+01  -1.30623794E+00   5.57832832E+01  -1.90553379E+00   5.36891270E+00
             1854                1   9.08794479E+01   8.57397156E+01   8.57397156E+01  -5.16754103E+00  -5.11189461E+00   8.57397156E+01   8.57397156E+01  -5.11189461E+00  -5.16754103E+00   9.09072571E+01  -2.51534271E+01   9.08794022E+01  -5.15911961E+00   8.57312927E+01  -5.11189461E+00   8.74975145E-01
             1854                2   9.07219009E+01   8.56346817E+01   8.56346817E+01  -5.06251049E+00  -5.11189461E+00   8.56346817E+01   8.56346817E+01  -5.06251049E+00  -5.11189461E+00   9.07465820E+01  -2.51534271E+01   9.07218628E+01  -5.05454493E+00   8.56267166E+01  -5.11189461E+00   8.50062132E-01
             1854                3   9.09138412E+01   8.57626343E+01   8.57626343E+01  -5.19046402E+00  -5.11189461E+00   8.57626343E+01   8.57626343E+01  -5.11189461E+00  -5.19046402E+00   9.09531021E+01  -2.51534271E+01   9.09137650E+01  -5.18393803E+00   8.57561111E+01  -5.11189461E+00   7.70448744E-01
             1854                4   9.07563553E+01   8.56576614E+01   8.56576614E+01  -5.08548641E+00  -5.11189461E+00   8.56576614E+01   8.56576614E+01  -5.08548641E+00  -5.11189461E+00   9.07695541E+01  -2.51534271E+01   9.07563400E+01  -5.07936144E+00   8.56515350E+01  -5.11189461E+00   7.45536745E-01
             1855                1   2.01569077E+02   1.81392563E+02   1.81392563E+02  -2.26527157E+01  -1.76054993E+01   1.81392563E+02   1.81392563E+02  -1.76054993E+01  -2.26527157E+01   2.04045288E+02  -4.70447845E+01   2.01426819E+02  -2.25242863E+01   1.81264145E+02  -1.76054993E+01  -5.11738110E+00
             1855                2   2.02762405E+02   1.82132004E+02   1.82132004E+02  -2.47155838E+01  -1.62820549E+01   1.82132004E+02   1.82132004E+02  -1.62820549E+01  -2.47155838E+01   2.06847580E+02  -4.70447845E+01   2.02367218E+02  -2.44123154E+01   1.81828720E+02  -1.62820549E+01  -7.91454268E+00
             1855                3   2.02591644E+02   1.82032959E+02   1.82032959E+02  -2.42922745E+01  -1.66063385E+01   1.82032959E+02   1.82032959E+02  -1.66063385E+01  -2.42922745E+01   2.06325241E+02  -4.70447845E+01   2.02263229E+02  -2.42757225E+01   1.82016418E+02  -1.66063385E+01  -1.84769893E+00
             1855                4   2.03749847E+02   1.82730682E+02   1.82730682E+02  -2.62756538E+01  -1.53206739E+01   1.82730682E+02   1.82730682E+02  -1.53206739E+01  -2.62756538E+01   2.09006332E+02  -4.70447845E+01   2.03085648E+02  -2.61711578E+01   1.82626190E+02  -1.53206739E+01  -4.67218018E+00
             1856                1   7.08678665E+01   6.58222122E+01   6.58222122E+01  -4.86653471E+00  -5.22343349E+00   6.58222122E+01   6.58222122E+01  -4.86653471E+00  -5.22343349E+00   7.10456467E+01  -1.85774136E+01   7.08658447E+01  -4.38251877E+00   6.53381958E+01  -5.22343349E+00   5.82924223E+00
             1856                2   7.10980988E+01   6.59759979E+01   6.59759979E+01  -5.02031946E+00  -5.22343349E+00   6.59759979E+01   6.59759979E+01  -5.02031946E+00  -5.22343349E+00   7.11994324E+01  -1.85774155E+01   7.10974426E+01  -4.56582832E+00   6.55215073E+01  -5.22343349E+00   5.66222191E+00
             1856                3   7.11595993E+01   6.60170517E+01   6.60170517E+01  -5.06137562E+00  -5.22343349E+00   6.60170517E+01   6.60170517E+01  -5.06137562E+00  -5.22343349E+00   7.12404861E+01  -1.85774136E+01   7.11591873E+01  -4.54886866E+00   6.55045471E+01  -5.22343349E+00   6.01378012E+00
             1856                4   7.13886261E+01   6.61698380E+01   6.61698380E+01  -5.21415377E+00  -5.22343349E+00   6.61698380E+01   6.61698380E+01  -5.21415377E+00  -5.22343349E+00   7.13932648E+01  -1.85774155E+01   7.13886261E+01  -4.73204136E+00   6.56877213E+01  -5.22343349E+00   5.84660101E+00
             1857                1   1.07162560E+02   1.12388885E+02   1.12388885E+02   4.86576557E+00   5.59056425E+00   1.12388885E+02   1.12388885E+02   5.59056425E+00   4.86576557E+00   1.07523125E+02  -4.09484062E+01   1.07157051E+02   6.28322220E+00   1.10971436E+02   5.59056425E+00   1.22637587E+01
             1857                2   1.07181007E+02   1.12401146E+02   1.12401146E+02   4.85350943E+00   5.59056425E+00   1.12401146E+02   1.12401146E+02   5.59056425E+00   4.85350943E+00   1.07547638E+02  -4.09484062E+01   1.07175308E+02   6.32632589E+00   1.10928329E+02   5.59056425E+00   1.24991426E+01
             1857                3   1.06814735E+02   1.12157661E+02   1.12157661E+02   5.09699392E+00   5.59056425E+00   1.12157661E+02   1.12157661E+02   5.59056425E+00   5.09699392E+00   1.07060669E+02  -4.09484062E+01   1.06812172E+02   6.50855398E+00   1.10746101E+02   5.59056425E+00   1.22118759E+01
             1857                4   1.06833305E+02   1.12170013E+02   1.12170013E+02   5.08464241E+00   5.59056425E+00   1.12170013E+02   1.12170013E+02   5.59056425E+00   5.08464241E+00   1.07085365E+02  -4.09484062E+01   1.06830612E+02   6.55152702E+00   1.10703125E+02   5.59056425E+00   1.24471006E+01
             1858                1   8.77640533E+01   8.22873001E+01   8.22873001E+01  -5.40131140E+00  -5.55200052E+00   8.22873001E+01   8.22873001E+01  -5.40131140E+00  -5.55200052E+00   8.78392944E+01  -2.37779942E+01   8.77637634E+01  -5.19355726E+00   8.20795441E+01  -5.55200052E+00   4.26315212E+00
             1858                2   8.79409256E+01   8.24052734E+01   8.24052734E+01  -5.51928759E+00  -5.55200052E+00   8.24052734E+01   8.24052734E+01  -5.51928759E+00  -5.55200052E+00   8.79572754E+01  -2.37779942E+01   8.79409103E+01  -5.32335043E+00   8.22093353E+01  -5.55200052E+00   4.14601517E+00
             1858                3   8.79576492E+01   8.24164276E+01   8.24164276E+01  -5.53043509E+00  -5.55200052E+00   8.24164276E+01   8.24164276E+01  -5.53043509E+00  -5.55200052E+00   8.79684296E+01  -2.37779980E+01   8.79576416E+01  -5.31040478E+00   8.21963959E+01  -5.55200052E+00   4.39349556E+00
             1858                4   8.81341400E+01   8.25340652E+01   8.25340652E+01  -5.64807749E+00  -5.55200052E+00   8.25340652E+01   8.25340652E+01  -5.55200052E+00  -5.64807749E+00   8.81821442E+01  -2.37779942E+01   8.81340256E+01  -5.44020510E+00   8.23261948E+01  -5.55200052E+00   4.27634430E+00
             1859                1   2.08668854E+02   2.25223846E+02   2.25223846E+02   1.09649169E+00   3.65580559E+01   2.25223846E+02   2.25223846E+02   3.65580559E+01   1.09649169E+00   2.24127365E+02  -8.76261292E+01   2.01721954E+02   1.20597529E+00   2.25114365E+02   3.65580559E+01   4.95247126E+00
             1859                2   2.09187302E+02   2.25435715E+02   2.25435715E+02   2.05615565E-01   3.72370834E+01   2.25435715E+02   2.25435715E+02   3.72370834E+01   2.05615565E-01   2.25230103E+02  -8.76261368E+01   2.01614105E+02   2.06190825E-01   2.25435135E+02   3.72370834E+01   3.60326290E-01
             1859                3   2.09647186E+02   2.25581329E+02   2.25581329E+02  -7.65955210E-01   3.80630341E+01   2.25581329E+02   2.25581329E+02   3.80630341E+01  -7.65955210E-01   2.26347275E+02  -8.76261368E+01   2.01317337E+02  -5.52078843E-01   2.25367447E+02   3.80630341E+01   6.95447493E+00
             1859                4   2.10138672E+02   2.25775055E+02   2.25775055E+02  -1.58727038E+00   3.86906166E+01   2.25775055E+02   2.25775055E+02   3.86906166E+01  -1.58727038E+00   2.27362335E+02  -8.76261368E+01   2.01177078E+02  -1.56181240E+00   2.25749603E+02   3.86906166E+01   2.40568638E+00
             1860                1   2.17679825E+02   2.31072769E+02   2.31072769E+02   2.80755728E-01   2.94457340E+01   2.31072769E+02   2.31072769E+02   2.94457340E+01   2.80755728E-01   2.30792023E+02  -8.69330826E+01   2.13217743E+02   2.81067193E-01   2.31072464E+02   2.94457340E+01   2.67979771E-01
             1860                2   2.17843857E+02   2.30930405E+02   2.30930405E+02  -1.41264808E+00   3.12815056E+01   2.30930405E+02   2.30930405E+02   3.12815056E+01  -1.41264808E+00   2.32343063E+02  -8.69330826E+01   2.12218765E+02  -1.38374388E+00   2.30901505E+02   3.12815056E+01  -2.59133124E+00
             1860                3   2.17793457E+02   2.30969086E+02   2.30969086E+02  -9.45382178E-01   3.07755604E+01   2.30969086E+02   2.30969086E+02   3.07755604E+01  -9.45382178E-01   2.31914459E+02  -8.69330826E+01   2.12503021E+02  -8.63747180E-01   2.30887451E+02   3.07755604E+01   4.35017490E+00
             1860                4   2.17950119E+02   2.30815063E+02   2.30815063E+02  -2.54547572E+00   3.25296707E+01   2.30815063E+02   2.30815063E+02   3.25296707E+01  -2.54547572E+00   2.33360550E+02  -8.69330826E+01   2.11460114E+02  -2.53637910E+00   2.30805969E+02   3.25296707E+01   1.45713210E+00
             1861                1   5.30058022E+01   5.10046730E+01   5.10046730E+01  -1.69428015E+00  -2.30273366E+00   5.10046730E+01   5.10046730E+01  -1.69428015E+00  -2.30273366E+00   5.33074074E+01  -1.56692200E+01   5.29979401E+01  -2.04858765E-01   4.95152512E+01  -2.30273366E+00   8.73342228E+00
             1861                2   5.26586876E+01   5.07716484E+01   5.07716484E+01  -1.46125817E+00  -2.30273366E+00   5.07716484E+01   5.07716484E+01  -1.46125817E+00  -2.30273366E+00   5.30743828E+01  -1.56692190E+01   5.26435585E+01  -5.13809137E-02   4.93617706E+01  -2.30273366E+00   8.46488476E+00
             1861                3   5.32775726E+01   5.11867485E+01   5.11867485E+01  -1.87635863E+00  -2.30273366E+00   5.11867485E+01   5.11867485E+01  -1.87635863E+00  -2.30273366E+00   5.34894829E+01  -1.56692190E+01   5.32737389E+01  -4.53665853E-01   4.97640572E+01  -2.30273366E+00   8.57137108E+00
             1861                4   5.29325981E+01   5.09555740E+01   5.09555740E+01  -1.64518476E+00  -2.30273366E+00   5.09555740E+01   5.09555740E+01  -1.64518476E+00  -2.30273366E+00   5.32583084E+01  -1.56692190E+01   5.29234085E+01  -3.00657123E-01   4.96110458E+01  -2.30273366E+00   8.30153656E+00
             1862                1   2.20000000E+02   2.23626511E+02   2.23626511E+02  -2.13217010E+01   4.28404655E+01   2.23626511E+02   2.23626511E+02   4.28404655E+01  -2.13217010E+01   2.44948212E+02  -8.17150955E+01   1.97243744E+02  -2.13197250E+01   2.23624542E+02   4.28404655E+01   6.94259942E-01
             1862                2   2.20000000E+02   2.24182510E+02   2.24182510E+02  -1.96949406E+01   4.06577148E+01   2.24182510E+02   2.24182510E+02   4.06577148E+01  -1.96949406E+01   2.43877441E+02  -8.17150955E+01   2.00066238E+02  -1.94179039E+01   2.23905472E+02   4.06577148E+01   8.21494007E+00
             1862                3   2.20000000E+02   2.24309006E+02   2.24309006E+02  -1.93067131E+01   4.01430130E+01   2.24309006E+02   2.24309006E+02   4.01430130E+01  -1.93067131E+01   2.43615723E+02  -8.17150955E+01   2.00701477E+02  -1.91807632E+01   2.24183044E+02   4.01430130E+01  -5.53801107E+00
             1862                4   2.20000000E+02   2.24907455E+02   2.24907455E+02  -1.73637199E+01   3.76015625E+01   2.24907455E+02   2.24907455E+02   3.76015625E+01  -1.73637199E+01   2.42271164E+02  -8.17150955E+01   2.03673920E+02  -1.73450089E+01   2.24888733E+02   3.76015625E+01   2.12945080E+00
             1863                1   1.95320923E+02   1.62811966E+02   1.62811966E+02  -3.16795788E+01  -3.33279076E+01   1.62811966E+02   1.62811966E+02  -3.16795788E+01  -3.33279076E+01   1.96139877E+02  -3.26014900E+01   1.95305283E+02  -3.16795635E+01   1.62811951E+02  -3.33279076E+01   4.92740534E-02
             1863                2   1.95178558E+02   1.62715881E+02   1.62715881E+02  -3.15031013E+01  -3.34082985E+01   1.62715881E+02   1.62715881E+02  -3.15031013E+01  -3.34082985E+01   1.96124176E+02  -3.26014977E+01   1.95157639E+02  -3.14446087E+01   1.62657394E+02  -3.34082985E+01  -3.36995053E+00
             1863                3   1.96539597E+02   1.63623962E+02   1.63623962E+02  -3.37879372E+01  -3.20315475E+01   1.63623962E+02   1.63623962E+02  -3.20315475E+01  -3.37879372E+01   1.97411911E+02  -3.26014938E+01   1.96521942E+02  -3.37875557E+01   1.63623581E+02  -3.20315475E+01  -2.76064932E-01
             1863                4   1.96427567E+02   1.63550293E+02   1.63550293E+02  -3.36290779E+01  -3.21167374E+01   1.63550293E+02   1.63550293E+02  -3.21167374E+01  -3.36290779E+01   1.97179367E+02  -3.26014938E+01   1.96414474E+02  -3.35610085E+01   1.63482224E+02  -3.21167374E+01  -3.66304684E+00
             1864                1   2.18225311E+02   1.99300690E+02   1.99300690E+02  -3.06369801E+01  -4.93621540E+00   1.99300690E+02   1.99300690E+02  -4.93621540E+00  -3.06369801E+01   2.29937668E+02  -5.45758324E+01   2.14780853E+02  -3.06164494E+01   1.99280167E+02  -4.93621540E+00  -2.17230201E+00
             1864                2   2.18500015E+02   1.99211456E+02   1.99211456E+02  -3.27249413E+01  -2.75901675E+00   1.99211456E+02   1.99211456E+02  -2.75901675E+00  -3.27249413E+01   2.31936386E+02  -5.45758324E+01   2.13803726E+02  -3.25272522E+01   1.99013763E+02  -2.75901675E+00  -6.76845312E+00
             1864                3   2.18578339E+02   1.99225204E+02   1.99225204E+02  -3.30103989E+01  -2.48730135E+00   1.99225204E+02   1.99225204E+02  -2.48730135E+00  -3.30103989E+01   2.32235611E+02  -5.45758362E+01   2.13704636E+02  -3.29942703E+01   1.99209076E+02  -2.48730135E+00   1.93573654E+00
             1864                4   2.18770477E+02   1.99056946E+02   1.99056946E+02  -3.49103737E+01  -4.19090599E-01   1.99056946E+02   1.99056946E+02  -4.19090599E-01  -3.49103737E+01   2.33967331E+02  -5.45758247E+01   2.12523941E+02  -3.48788986E+01   1.99025482E+02  -4.19090599E-01  -2.71323705E+00
             1865                1   6.71874237E+01   6.30264854E+01   6.30264854E+01  -4.02413988E+00  -4.29689980E+00   6.30264854E+01   6.30264854E+01  -4.02413988E+00  -4.29689980E+00   6.73233871E+01  -1.82351475E+01   6.71861801E+01  -3.70501184E+00   6.27073593E+01  -4.29689980E+00   4.61475134E+00
             1865                2   6.73586044E+01   6.31407928E+01   6.31407928E+01  -4.13844681E+00  -4.29689980E+00   6.31407928E+01   6.31407928E+01  -4.13844681E+00  -4.29689980E+00   6.74376907E+01  -1.82351475E+01   6.73581848E+01  -3.84504795E+00   6.28473930E+01  -4.29689980E+00   4.43322849E+00
             1865                3   6.74855347E+01   6.32254868E+01   6.32254868E+01  -4.22314215E+00  -4.29689980E+00   6.32254868E+01   6.32254868E+01  -4.22314215E+00  -4.29689980E+00   6.75223846E+01  -1.82351475E+01   6.74854507E+01  -3.88614058E+00   6.28884850E+01  -4.29689980E+00   4.75570393E+00
             1865                4   6.76559525E+01   6.33391113E+01   6.33391113E+01  -4.33676481E+00  -4.29689980E+00   6.33391113E+01   6.33391113E+01  -4.29689980E+00  -4.33676481E+00   6.76758728E+01  -1.82351475E+01   6.76559296E+01  -4.02617264E+00   6.30285187E+01  -4.29689980E+00   4.57419586E+00
             1866                1   5.31061707E+01   5.27108002E+01   5.27108002E+01  -3.37822497E-01  -4.52733785E-01   5.27108002E+01   5.27108002E+01  -3.37822497E-01  -4.52733785E-01   5.31635361E+01  -1.73067493E+01   5.31058922E+01   3.75042170E-01   5.19979362E+01  -4.52733785E-01   6.10805225E+00
             1866                2   5.27739601E+01   5.24888496E+01   5.24888496E+01  -1.15871556E-01  -4.52733785E-01   5.24888496E+01   5.24888496E+01  -1.15871556E-01  -4.52733785E-01   5.29415817E+01  -1.73067493E+01   5.27715378E+01   5.66373885E-01   5.18066025E+01  -4.52733785E-01   5.95180368E+00
             1866                3   5.32696991E+01   5.28198776E+01   5.28198776E+01  -4.46904302E-01  -4.52733785E-01   5.28198776E+01   5.28198776E+01  -4.46904302E-01  -4.52733785E-01   5.32726135E+01  -1.73067474E+01   5.32696953E+01   2.18667641E-01   5.21543083E+01  -4.52733785E-01   5.91690874E+00
             1866                4   5.29388504E+01   5.25990715E+01   5.25990715E+01  -2.26094320E-01  -4.52733785E-01   5.25990715E+01   5.25990715E+01  -2.26094320E-01  -4.52733785E-01   5.30518074E+01  -1.73067493E+01   5.29377556E+01   4.09788609E-01   5.19631882E+01  -4.52733785E-01   5.76075935E+00
             1867                1   9.50814438E+01   9.27245865E+01   9.27245865E+01  -2.26128387E+00  -2.45214009E+00   9.27245865E+01   9.27245865E+01  -2.26128387E+00  -2.45214009E+00   9.51767273E+01  -2.93370533E+01   9.50810165E+01  -2.72374243E-01   9.07356796E+01  -2.45214009E+00   1.36000843E+01
             1867                2   9.56777039E+01   9.31220779E+01   9.31220779E+01  -2.65877795E+00  -2.45214009E+00   9.31220779E+01   9.31220779E+01  -2.45214009E+00  -2.65877795E+00   9.57808609E+01  -2.93370533E+01   9.56772079E+01  -6.98880970E-01   9.11621857E+01  -2.45214009E+00   1.35602074E+01
             1867                3   9.53180161E+01   9.28823929E+01   9.28823929E+01  -2.41909266E+00  -2.45214009E+00   9.28823929E+01   9.28823929E+01  -2.41909266E+00  -2.45214009E+00   9.53345337E+01  -2.93370533E+01   9.53180008E+01  -3.03465396E-01   9.07667694E+01  -2.45214009E+00   1.40408840E+01
             1867                4   9.59161377E+01   9.32807999E+01   9.32807999E+01  -2.81749582E+00  -2.45214009E+00   9.32807999E+01   9.32807999E+01  -2.45214009E+00  -2.81749582E+00   9.60982971E+01  -2.93370533E+01   9.59145737E+01  -7.31084764E-01   9.11943893E+01  -2.45214009E+00   1.40052576E+01
             1868                1   2.15503876E+02   2.20282059E+02   2.20282059E+02  -4.19312429E+00   1.50385857E+01   2.20282059E+02   2.20282059E+02   1.50385857E+01  -4.19312429E+00   2.24475174E+02  -7.70425034E+01   2.13560440E+02  -4.18160868E+00   2.20270538E+02   1.50385857E+01   1.60763872E+00
             1868                2   2.15640656E+02   2.20303482E+02   2.20303482E+02  -4.95710421E+00   1.57811413E+01   2.20303482E+02   2.20303482E+02   1.57811413E+01  -4.95710421E+00   2.25260590E+02  -7.70425034E+01   2.13379837E+02  -4.87740898E+00   2.20223785E+02   1.57811413E+01   4.23619747E+00
             1868                3   2.15202209E+02   2.20183075E+02   2.20183075E+02  -2.91912103E+00   1.38635855E+01   2.20183075E+02   2.20183075E+02   1.38635855E+01  -2.91912103E+00   2.23102188E+02  -7.70425110E+01   2.13722427E+02  -2.87401056E+00   2.20137955E+02   1.38635855E+01   3.17217875E+00
             1868                4   2.15345749E+02   2.20214432E+02   2.20214432E+02  -3.72382283E+00   1.46369114E+01   2.20214432E+02   2.20214432E+02   1.46369114E+01  -3.72382283E+00   2.23938263E+02  -7.70425110E+01   2.13574066E+02  -3.57238936E+00   2.20063004E+02   1.46369114E+01   5.82144213E+00
             1869                1   7.01655273E+01   6.50987320E+01   6.50987320E+01  -4.84672976E+00  -5.28481483E+00   6.50987320E+01   6.50987320E+01  -4.84672976E+00  -5.28481483E+00   7.03835449E+01  -1.83223953E+01   7.01624451E+01  -4.21414137E+00   6.44661407E+01  -5.28481483E+00   6.62166882E+00
             1869                2   7.04291229E+01   6.52749023E+01   6.52749023E+01  -5.02290440E+00  -5.28481483E+00   6.52749023E+01   6.52749023E+01  -5.02290440E+00  -5.28481483E+00   7.05597153E+01  -1.83223934E+01   7.04280243E+01  -4.42430544E+00   6.46763000E+01  -5.28481483E+00   6.45923805E+00
             1869                3   7.04630280E+01   6.52975464E+01   6.52975464E+01  -5.04554701E+00  -5.28481483E+00   6.52975464E+01   6.52975464E+01  -5.04554701E+00  -5.28481483E+00   7.05823593E+01  -1.83223953E+01   7.04621124E+01  -4.37542820E+00   6.46274261E+01  -5.28481483E+00   6.83295107E+00
             1869                4   7.07254944E+01   6.54727097E+01   6.54727097E+01  -5.22070885E+00  -5.28481483E+00   6.54727097E+01   6.54727097E+01  -5.22070885E+00  -5.28481483E+00   7.07575226E+01  -1.83223953E+01   7.07254257E+01  -4.58558369E+00   6.48375854E+01  -5.28481483E+00   6.67051077E+00
             1870                1   4.38489418E+01   4.07400513E+01   4.07400513E+01  -1.78614521E+00  -4.32161045E+00   4.07400513E+01   4.07400513E+01  -1.78614521E+00  -4.32161045E+00   4.50616608E+01  -1.15440989E+01   4.36835556E+01   1.20745040E-01   3.88331604E+01  -4.32161045E+00   8.80094433E+00
             1870                2   4.34654121E+01   4.04759254E+01   4.04759254E+01  -1.52201676E+00  -4.32161045E+00   4.04759254E+01   4.04759254E+01  -1.52201676E+00  -4.32161045E+00   4.47975349E+01  -1.15440989E+01   4.32618599E+01   4.22762305E-01   3.85311432E+01  -4.32161045E+00   8.82579231E+00
             1870                3   4.36393929E+01   4.05958633E+01   4.05958633E+01  -1.64195907E+00  -4.32161045E+00   4.05958633E+01   4.05958633E+01  -1.64195907E+00  -4.32161045E+00   4.49174728E+01  -1.15440979E+01   4.34537125E+01   1.33724451E-01   3.88201790E+01  -4.32161045E+00   8.47631645E+00
             1870                4   4.32519455E+01   4.03284836E+01   4.03284836E+01  -1.37457943E+00  -4.32161045E+00   4.03284836E+01   4.03284836E+01  -1.37457943E+00  -4.32161045E+00   4.46500931E+01  -1.15440979E+01   4.30251846E+01   4.35088038E-01   3.85188141E+01  -4.32161045E+00   8.49669456E+00
             1871                1   9.71279907E+01   9.58730392E+01   9.58730392E+01  -1.22424185E+00  -1.28563833E+00   9.58730392E+01   9.58730392E+01  -1.22424185E+00  -1.28563833E+00   9.71586761E+01  -3.11210537E+01   9.71279449E+01   8.55374932E-01   9.37934189E+01  -1.28563833E+00   1.40570459E+01
             1871                2   9.77180405E+01   9.62661285E+01   9.62661285E+01  -1.61733568E+00  -1.28563833E+00   9.62661285E+01   9.62661285E+01  -1.28563833E+00  -1.61733568E+00   9.78834686E+01  -3.11210537E+01   9.77167740E+01   4.38488722E-01   9.42103043E+01  -1.28563833E+00   1.40358505E+01
             1871                3   9.73446579E+01   9.60174713E+01   9.60174713E+01  -1.36867487E+00  -1.28563833E+00   9.60174713E+01   9.60174713E+01  -1.28563833E+00  -1.36867487E+00   9.73861465E+01  -3.11210537E+01   9.73445740E+01   8.37063670E-01   9.38117294E+01  -1.28563833E+00   1.44894228E+01
             1871                4   9.79350891E+01   9.64105301E+01   9.64105301E+01  -1.76173592E+00  -1.28563833E+00   9.64105301E+01   9.64105301E+01  -1.28563833E+00  -1.76173592E+00   9.81722717E+01  -3.11210537E+01   9.79324799E+01   4.19813335E-01   9.42289810E+01  -1.28563833E+00   1.44709587E+01
             1872                1   9.00765457E+01   8.51669083E+01   8.51669083E+01  -4.77872992E+00  -5.03998613E+00   8.51669083E+01   8.51669083E+01  -4.77872992E+00  -5.03998613E+00   9.02068939E+01  -2.51160641E+01   9.00756989E+01  -4.01164675E+00   8.43998260E+01  -5.03998613E+00   8.27085590E+00
             1872                2   9.04286270E+01   8.54018173E+01   8.54018173E+01  -5.01363087E+00  -5.03998613E+00   8.54018173E+01   8.54018173E+01  -5.01363087E+00  -5.03998613E+00   9.04418030E+01  -2.51160660E+01   9.04286118E+01  -4.26772594E+00   8.46559067E+01  -5.03998613E+00   8.17833710E+00
             1872                3   9.02829590E+01   8.53046646E+01   8.53046646E+01  -4.91648054E+00  -5.03998613E+00   8.53046646E+01   8.53046646E+01  -4.91648054E+00  -5.03998613E+00   9.03446503E+01  -2.51160660E+01   9.02827682E+01  -4.10283709E+00   8.44910202E+01  -5.03998613E+00   8.52911949E+00
             1872                4   9.06344757E+01   8.55390167E+01   8.55390167E+01  -5.15083313E+00  -5.03998613E+00   8.55390167E+01   8.55390167E+01  -5.03998613E+00  -5.15083313E+00   9.06898499E+01  -2.51160660E+01   9.06343231E+01  -4.35906839E+00   8.47472534E+01  -5.03998613E+00   8.43670654E+00
             1873                1   1.86731079E+02   2.03285278E+02   2.03285278E+02   3.71083999E+00   3.28154716E+01   2.03285278E+02   2.03285278E+02   3.28154716E+01   3.71083999E+00   1.99574448E+02  -7.99372025E+01   1.81522644E+02   3.32316360E+01   1.73764481E+02   3.28154716E+01   7.08528061E+01
             1873                2   1.91548416E+02   2.06271637E+02   2.06271637E+02   6.46313906E-01   3.28936424E+01   2.06271637E+02   2.06271637E+02   3.28936424E+01   6.46313906E-01   2.05625320E+02  -7.99372025E+01   1.85293259E+02   3.17193871E+01   1.75198563E+02   3.28936424E+01   7.36469650E+01
             1873                3   1.84949753E+02   2.02173264E+02   2.02173264E+02   4.82286406E+00   3.28154716E+01   2.02173264E+02   2.02173264E+02   3.28154716E+01   4.82286406E+00   1.97350403E+02  -7.99372025E+01   1.80091141E+02   3.63457870E+01   1.70650330E+02   3.28154716E+01   7.23005371E+01
             1873                4   1.89946426E+02   2.05288071E+02   2.05288071E+02   1.70804214E+00   3.28154716E+01   2.05288071E+02   2.05288071E+02   3.28154716E+01   1.70804214E+00   2.03580017E+02  -7.99371948E+01   1.84084381E+02   3.49351196E+01   1.72060989E+02   3.28154716E+01   7.52351685E+01
             1874                1   6.03726158E+01   5.79515648E+01   5.79515648E+01  -2.27760077E+00  -2.56348348E+00   5.79515648E+01   5.79515648E+01  -2.27760077E+00  -2.56348348E+00   6.05150490E+01  -1.77034931E+01   6.03710938E+01  -1.89652073E+00   5.75704880E+01  -2.56348348E+00   4.77564716E+00
             1874                2   6.05307121E+01   5.80571671E+01   5.80571671E+01  -2.38319898E+00  -2.56348348E+00   5.80571671E+01   5.80571671E+01  -2.38319898E+00  -2.56348348E+00   6.06206512E+01  -1.77034950E+01   6.05301056E+01  -2.03352451E+00   5.77074928E+01  -2.56348348E+00   4.58390999E+00
             1874                3   6.06888695E+01   5.81627197E+01   5.81627197E+01  -2.48875284E+00  -2.56348348E+00   5.81627197E+01   5.81627197E+01  -2.48875284E+00  -2.56348348E+00   6.07262001E+01  -1.77034931E+01   6.06887703E+01  -2.08813763E+00   5.77621040E+01  -2.56348348E+00   4.91297865E+00
             1874                4   6.08459930E+01   5.82674866E+01   5.82674866E+01  -2.59352088E+00  -2.56348348E+00   5.82674866E+01   5.82674866E+01  -2.56348348E+00  -2.59352088E+00   6.08610077E+01  -1.77034931E+01   6.08459778E+01  -2.22503662E+00   5.78990021E+01  -2.56348348E+00   4.72128582E+00
             1875                1   7.27199326E+01   6.77220001E+01   6.77220001E+01  -4.92626143E+00  -5.06938171E+00   6.77220001E+01   6.77220001E+01  -4.92626143E+00  -5.06938171E+00   7.27913818E+01  -1.92421207E+01   7.27196198E+01  -4.84746170E+00   6.76432037E+01  -5.06938171E+00   2.39135742E+00
             1875                2   7.28111115E+01   6.77828369E+01   6.77828369E+01  -4.98710060E+00  -5.06938171E+00   6.77828369E+01   6.77828369E+01  -4.98710060E+00  -5.06938171E+00   7.28522186E+01  -1.92421188E+01   7.28110123E+01  -4.91972160E+00   6.77154617E+01  -5.06938171E+00   2.21325111E+00
             1875                3   7.29938583E+01   6.79046860E+01   6.79046860E+01  -5.10894632E+00  -5.06938171E+00   6.79046860E+01   6.79046860E+01  -5.06938171E+00  -5.10894632E+00   7.30136337E+01  -1.92421207E+01   7.29938354E+01  -5.02568483E+00   6.78214264E+01  -5.06938171E+00   2.46418357E+00
             1875                4   7.30849686E+01   6.79654007E+01   6.79654007E+01  -5.16965580E+00  -5.06938171E+00   6.79654007E+01   6.79654007E+01  -5.06938171E+00  -5.16965580E+00   7.31350555E+01  -1.92421207E+01   7.30848083E+01  -5.09811831E+00   6.78938599E+01  -5.06938171E+00   2.28618979E+00
             1876                1   3.44465141E+01   3.94619026E+01   3.94619026E+01   3.92138886E+00   6.22503042E+00   3.94619026E+01   3.94619026E+01   6.22503042E+00   3.92138886E+00   3.55405159E+01  -1.65361080E+01   3.42725677E+01   6.51707077E+00   3.68662224E+01   6.22503042E+00   9.24739456E+00
             1876                2   3.46605911E+01   3.96001205E+01   3.96001205E+01   3.78317213E+00   6.22503042E+00   3.96001205E+01   3.96001205E+01   6.22503042E+00   3.78317213E+00   3.58169479E+01  -1.65361080E+01   3.44662704E+01   6.33212471E+00   3.70511665E+01   6.22503042E+00   9.20861435E+00
             1876                3   3.46442261E+01   3.95895615E+01   3.95895615E+01   3.79372931E+00   6.22503042E+00   3.95895615E+01   3.95895615E+01   6.22503042E+00   3.79372931E+00   3.57958298E+01  -1.65361061E+01   3.44514999E+01   6.47787237E+00   3.69054184E+01   6.22503042E+00   9.42743301E+00
             1876                4   3.48569336E+01   3.97266998E+01   3.97266998E+01   3.65659165E+00   6.22503042E+00   3.97266998E+01   3.97266998E+01   6.22503042E+00   3.65659165E+00   3.60701103E+01  -1.65361080E+01   3.46430740E+01   6.29340696E+00   3.70898857E+01   6.22503042E+00   9.38921928E+00
             1877                1   3.27153130E+01   2.91896954E+01   2.91896954E+01  -3.56922209E-01  -5.96840763E+00   2.91896954E+01   2.91896954E+01  -3.56922209E-01  -5.96840763E+00   3.51581039E+01  -7.62145472E+00   3.16052628E+01   2.93364048E-01   2.85394096E+01  -5.96840763E+00   4.33484411E+00
             1877                2   3.23020515E+01   2.88833904E+01   2.88833904E+01  -5.06179892E-02  -5.96840763E+00   2.88833904E+01   2.88833904E+01  -5.06179892E-02  -5.96840763E+00   3.48517990E+01  -7.62145472E+00   3.10471306E+01   5.86546421E-01   2.82462273E+01  -5.96840763E+00   4.24614286E+00
             1877                3   3.27216797E+01   2.91943932E+01   2.91943932E+01  -3.61619473E-01  -5.96840763E+00   2.91943932E+01   2.91943932E+01  -3.61619473E-01  -5.96840763E+00   3.51627998E+01  -7.62145472E+00   3.16137581E+01   2.01955140E-01   2.86308174E+01  -5.96840763E+00   4.04220486E+00
             1877                4   3.23083763E+01   2.88880978E+01   2.88880978E+01  -5.53250797E-02  -5.96840763E+00   2.88880978E+01   2.88880978E+01  -5.53250797E-02  -5.96840763E+00   3.48565063E+01  -7.62145472E+00   3.10557709E+01   4.95178282E-01   2.83375950E+01  -5.96840763E+00   3.95352960E+00
             1878                1   3.43297272E+01   3.08191929E+01   3.08191929E+01  -5.94306648E-01  -5.82614183E+00   3.08191929E+01   3.08191929E+01  -5.94306648E-01  -5.82614183E+00   3.66453362E+01  -8.13291454E+00   3.34151192E+01   2.92687804E-01   2.99321976E+01  -5.82614183E+00   5.20354271E+00
             1878                2   3.39014168E+01   3.05059662E+01   3.05059662E+01  -2.81081080E-01  -5.82614183E+00   3.05059662E+01   3.05059662E+01  -2.81081080E-01  -5.82614183E+00   3.63321075E+01  -8.13291454E+00   3.28578491E+01   5.96523046E-01   2.96283627E+01  -5.82614183E+00   5.12334442E+00
             1878                3   3.43038788E+01   3.08003540E+01   3.08003540E+01  -5.75470388E-01  -5.82614183E+00   3.08003540E+01   3.08003540E+01  -5.75470388E-01  -5.82614183E+00   3.66264954E+01  -8.13291454E+00   3.33818169E+01   2.09480450E-01   3.00154037E+01  -5.82614183E+00   4.90023756E+00
             1878                4   3.38750610E+01   3.04866142E+01   3.04866142E+01  -2.61728734E-01  -5.82614183E+00   3.04866142E+01   3.04866142E+01  -2.61728734E-01  -5.82614183E+00   3.63127556E+01  -8.13291454E+00   3.28231697E+01   5.13392866E-01   2.97114925E+01  -5.82614183E+00   4.82005262E+00
             1879                1   6.60189438E+01   6.18259583E+01   6.18259583E+01  -3.98893070E+00  -4.39516401E+00   6.18259583E+01   6.18259583E+01  -3.98893070E+00  -4.39516401E+00   6.62211227E+01  -1.78139553E+01   6.60161362E+01  -3.41912723E+00   6.12561569E+01  -4.39516401E+00   6.09727812E+00
             1879                2   6.62480316E+01   6.19790649E+01   6.19790649E+01  -4.14203739E+00  -4.39516401E+00   6.19790649E+01   6.19790649E+01  -4.14203739E+00  -4.39516401E+00   6.63742294E+01  -1.78139553E+01   6.62469406E+01  -3.60685158E+00   6.14438820E+01  -4.39516401E+00   5.92456961E+00
             1879                3   6.63249664E+01   6.20304489E+01   6.20304489E+01  -4.19341755E+00  -4.39516401E+00   6.20304489E+01   6.20304489E+01  -4.19341755E+00  -4.39516401E+00   6.64256134E+01  -1.78139553E+01   6.63242798E+01  -3.59127593E+00   6.14283066E+01  -4.39516401E+00   6.28598166E+00
             1879                4   6.65528870E+01   6.21825409E+01   6.21825409E+01  -4.34550667E+00  -4.39516401E+00   6.21825409E+01   6.21825409E+01  -4.34550667E+00  -4.39516401E+00   6.65777054E+01  -1.78139553E+01   6.65528412E+01  -3.77893925E+00   6.16159706E+01  -4.39516401E+00   6.11322880E+00
             1880                1   3.92223892E+01   3.84370041E+01   3.84370041E+01  -1.19438127E-01  -1.41902757E+00   3.84370041E+01   3.84370041E+01  -1.19438127E-01  -1.41902757E+00   3.98560333E+01  -1.22995119E+01   3.91739044E+01   1.33205879E+00   3.69855080E+01  -1.41902757E+00   7.33877945E+00
             1880                2   3.89768448E+01   3.82702789E+01   3.82702789E+01   4.72852923E-02  -1.41902757E+00   3.82702789E+01   3.82702789E+01   4.72852923E-02  -1.41902757E+00   3.96893082E+01  -1.22995119E+01   3.89147148E+01   1.51525450E+00   3.68023109E+01  -1.41902757E+00   7.34542465E+00
             1880                3   3.91117287E+01   3.83619156E+01   3.83619156E+01  -4.43497375E-02  -1.41902757E+00   3.83619156E+01   3.83619156E+01  -4.43497375E-02  -1.41902757E+00   3.97809448E+01  -1.22995119E+01   3.90573158E+01   1.33781636E+00   3.69797478E+01  -1.41902757E+00   7.15356684E+00
             1880                4   3.88636017E+01   3.81932526E+01   3.81932526E+01   1.24313548E-01  -1.41902757E+00   3.81932526E+01   3.81932526E+01   1.24313548E-01  -1.41902757E+00   3.96122818E+01  -1.22995119E+01   3.87945633E+01   1.52110898E+00   3.67964554E+01  -1.41902757E+00   7.15706205E+00
             1881                1   8.40484848E+01   7.82669678E+01   7.82669678E+01  -5.73286295E+00  -5.83009958E+00   7.82669678E+01   7.82669678E+01  -5.73286295E+00  -5.83009958E+00   8.40970688E+01  -2.22346668E+01   8.40483704E+01  -5.69448471E+00   7.82285919E+01  -5.83009958E+00   1.79498971E+00
             1881                2   8.41209335E+01   7.83152847E+01   7.83152847E+01  -5.78117752E+00  -5.83009958E+00   7.83152847E+01   7.83152847E+01  -5.78117752E+00  -5.83009958E+00   8.41453781E+01  -2.22346668E+01   8.41209030E+01  -5.74858952E+00   7.82826920E+01  -5.83009958E+00   1.65516579E+00
             1881                3   8.42615891E+01   7.84090576E+01   7.84090576E+01  -5.87495327E+00  -5.83009958E+00   7.84090576E+01   7.84090576E+01  -5.83009958E+00  -5.87495327E+00   8.42840118E+01  -2.22346668E+01   8.42615662E+01  -5.83435726E+00   7.83684616E+01  -5.83009958E+00   1.84928811E+00
             1881                4   8.43338699E+01   7.84572220E+01   7.84572220E+01  -5.92312002E+00  -5.83009958E+00   7.84572220E+01   7.84572220E+01  -5.83009958E+00  -5.92312002E+00   8.43803406E+01  -2.22346668E+01   8.43337555E+01  -5.88847303E+00   7.84225769E+01  -5.83009958E+00   1.70946646E+00
             1882                1   1.88615402E+02   1.86155670E+02   1.86155670E+02  -7.96101618E+00   3.57069135E+00   1.86155670E+02   1.86155670E+02   3.57069135E+00  -7.96101618E+00   1.94116684E+02  -6.05884514E+01   1.87819824E+02  -7.96093559E+00   1.86155594E+02   3.57069135E+00   1.23499289E-01
             1882                2   1.87134811E+02   1.85230225E+02   1.85230225E+02  -6.36579180E+00   2.90091562E+00   1.85230225E+02   1.85230225E+02   2.90091562E+00  -6.36579180E+00   1.91596008E+02  -6.05884438E+01   1.86617554E+02  -6.33146000E+00   1.85195892E+02   2.90091562E+00   2.56425810E+00
             1882                3   1.86971375E+02   1.85121216E+02   1.85121216E+02  -6.31019497E+00   2.95432997E+00   1.85121216E+02   1.85121216E+02   2.95432997E+00  -6.31019497E+00   1.91431412E+02  -6.05884514E+01   1.86453903E+02  -6.28588486E+00   1.85096909E+02   2.95432997E+00  -2.15694451E+00
             1882                4   1.85379761E+02   1.84110611E+02   1.84110611E+02  -4.62600422E+00   2.28074694E+00   1.84110611E+02   1.84110611E+02   2.28074694E+00  -4.62600422E+00   1.88736618E+02  -6.05884514E+01   1.85089935E+02  -4.62558699E+00   1.84110184E+02   2.28074694E+00   2.83057213E-01
             1883                1   3.59837227E+01   3.20251389E+01   3.20251389E+01  -1.00878954E+00  -6.31836843E+00   3.20251389E+01   3.20251389E+01  -1.00878954E+00  -6.31836843E+00   3.83435059E+01  -8.23265934E+00   3.50861511E+01   2.36342013E-01   3.07800064E+01  -6.31836843E+00   6.29136038E+00
             1883                2   3.55259705E+01   3.16914635E+01   3.16914635E+01  -6.75115228E-01  -6.31836843E+00   3.16914635E+01   3.16914635E+01  -6.75115228E-01  -6.31836843E+00   3.80098305E+01  -8.23265934E+00   3.44959030E+01   5.70430815E-01   3.04459171E+01  -6.31836843E+00   6.22596788E+00
             1883                3   3.59079208E+01   3.19700584E+01   3.19700584E+01  -9.53709722E-01  -6.31836843E+00   3.19700584E+01   3.19700584E+01  -9.53709722E-01  -6.31836843E+00   3.82884254E+01  -8.23265934E+00   3.49892654E+01   1.61726326E-01   3.08546219E+01  -6.31836843E+00   5.95652151E+00
             1883                4   3.54488182E+01   3.16349716E+01   3.16349716E+01  -6.18624032E-01  -6.31836843E+00   3.16349716E+01   3.16349716E+01  -6.18624032E-01  -6.31836843E+00   3.79533386E+01  -8.23265934E+00   3.43951721E+01   4.94411558E-01   3.05219364E+01  -6.31836843E+00   5.88732100E+00
             1884                1   2.30888138E+01   1.57494440E+01   1.57494440E+01   2.41534531E-01  -1.07854023E+01   1.57494440E+01   1.57494440E+01   2.41534531E-01  -1.07854023E+01   2.65348454E+01  -1.73519194E+00   1.52379503E+01   5.12934923E-01   1.54780436E+01  -1.07854023E+01   2.03351688E+00
             1884                2   2.34866009E+01   1.61379414E+01   1.61379414E+01  -1.46961749E-01  -1.07854023E+01   1.61379414E+01   1.61379414E+01  -1.46961749E-01  -1.07854023E+01   2.69233437E+01  -1.73519230E+00   1.66093674E+01   1.44861758E-01   1.58461170E+01  -1.07854023E+01   2.16036177E+00
             1884                3   2.30692081E+01   1.57299671E+01   1.57299671E+01   2.61011034E-01  -1.07854023E+01   1.57299671E+01   1.57299671E+01   2.61011034E-01  -1.07854023E+01   2.65153694E+01  -1.73519194E+00   1.51643972E+01   6.43298626E-01   1.53476801E+01  -1.07854023E+01   2.40154934E+00
             1884                4   2.34672089E+01   1.61192818E+01   1.61192818E+01  -1.28302887E-01  -1.07854023E+01   1.61192818E+01   1.61192818E+01  -1.28302887E-01  -1.07854023E+01   2.69046841E+01  -1.73519194E+00   1.65471458E+01   2.75172651E-01   1.57158060E+01  -1.07854023E+01   2.52837968E+00
             1885                1   4.39896049E+01   4.16484184E+01   4.16484184E+01  -1.15677547E+00  -3.43691349E+00   4.16484184E+01   4.16484184E+01  -1.15677547E+00  -3.43691349E+00   4.50853310E+01  -1.23515768E+01   4.38563499E+01   6.59040928E-01   3.98325996E+01  -3.43691349E+00   8.62723827E+00
             1885                2   4.43410683E+01   4.18888206E+01   4.18888206E+01  -1.39718175E+00  -3.43691349E+00   4.18888206E+01   4.18888206E+01  -1.39718175E+00  -3.43691349E+00   4.53257332E+01  -1.23515749E+01   4.42353249E+01   3.80879313E-01   4.01107597E+01  -3.43691349E+00   8.59090328E+00
             1885                3   4.42101173E+01   4.17993393E+01   4.17993393E+01  -1.30770171E+00  -3.43691349E+00   4.17993393E+01   4.17993393E+01  -1.30770171E+00  -3.43691349E+00   4.52362518E+01  -1.23515749E+01   4.40945358E+01   6.24848485E-01   3.98667908E+01  -3.43691349E+00   8.92029858E+00
             1885                4   4.45557480E+01   4.20352898E+01   4.20352898E+01  -1.54364622E+00  -3.43691349E+00   4.20352898E+01   4.20352898E+01  -1.54364622E+00  -3.43691349E+00   4.54722023E+01  -1.23515768E+01   4.44651070E+01   3.47338259E-01   4.01443024E+01  -3.43691349E+00   8.87870026E+00
             1886                1   4.54694748E+01   4.19653320E+01   4.19653320E+01  -1.91155875E+00  -4.94483757E+00   4.19653320E+01   4.19653320E+01  -1.91155875E+00  -4.94483757E+00   4.69101677E+01  -1.17029772E+01   4.52410011E+01   1.06458955E-01   3.99473114E+01  -4.94483757E+00   9.19086552E+00
             1886                2   4.58952942E+01   4.22589264E+01   4.22589264E+01  -2.20515895E+00  -4.94483757E+00   4.22589264E+01   4.22589264E+01  -2.20515895E+00  -4.94483757E+00   4.72037659E+01  -1.17029772E+01   4.57107697E+01  -2.30667874E-01   4.02844353E+01  -4.94483757E+00   9.15944099E+00
             1886                3   4.57127533E+01   4.21332092E+01   4.21332092E+01  -2.07943773E+00  -4.94483757E+00   4.21332092E+01   4.21332092E+01  -2.07943773E+00  -4.94483757E+00   4.70780487E+01  -1.17029772E+01   4.55100403E+01   8.97811875E-02   3.99639893E+01  -4.94483757E+00   9.54994583E+00
             1886                4   4.61363525E+01   4.24246254E+01   4.24246254E+01  -2.37085533E+00  -4.94483757E+00   4.24246254E+01   4.24246254E+01  -2.37085533E+00  -4.94483757E+00   4.73694611E+01  -1.17029772E+01   4.59743843E+01  -2.46746391E-01   4.03005142E+01  -4.94483757E+00   9.52043343E+00
             1887                1   2.19790985E+02   2.35198700E+02   2.35198700E+02  -4.23364401E+00   4.25977478E+01   2.35198700E+02   2.35198700E+02   4.25977478E+01  -4.23364401E+00   2.39432343E+02  -9.11875992E+01   2.08116638E+02  -4.23239660E+00   2.35197449E+02   4.25977478E+01  -5.47674298E-01
             1887                2   2.19839417E+02   2.34718231E+02   2.34718231E+02  -6.24888372E+00   4.50934563E+01   2.34718231E+02   2.34718231E+02   4.50934563E+01  -6.24888372E+00   2.40967117E+02  -9.11875992E+01   2.05690964E+02  -5.99856710E+00   2.34467911E+02   4.50934563E+01  -7.76245594E+00
             1887                3   2.19879303E+02   2.34640015E+02   2.34640015E+02  -6.64775801E+00   4.55705376E+01   2.34640015E+02   2.34640015E+02   4.55705376E+01  -6.64775801E+00   2.41287781E+02  -9.11875992E+01   2.05220901E+02  -6.53645277E+00   2.34528717E+02   4.55705376E+01   5.18112373E+00
             1887                4   2.19896606E+02   2.34154388E+02   2.34154388E+02  -8.37685490E+00   4.77852783E+01   2.34154388E+02   2.34154388E+02   4.77852783E+01  -8.37685490E+00   2.42531235E+02  -9.11875992E+01   2.02797256E+02  -8.36105728E+00   2.34138580E+02   4.77852783E+01  -1.95757604E+00
             1888                1   5.21819687E+01   5.27768402E+01   5.27768402E+01   6.63071692E-01   5.26934743E-01   5.27768402E+01   5.27768402E+01   6.63071692E-01   5.26934743E-01   5.22499046E+01  -1.79889488E+01   5.21815681E+01   9.63545382E-01   5.24763641E+01   5.26934743E-01   3.94570684E+00
             1888                2   5.25169182E+01   5.30001907E+01   5.30001907E+01   4.39719409E-01   5.26934743E-01   5.30001907E+01   5.30001907E+01   5.26934743E-01   4.39719409E-01   5.25604706E+01  -1.79889488E+01   5.25167542E+01   7.53880084E-01   5.26860313E+01   5.26934743E-01   4.05138350E+00
             1888                3   5.20739403E+01   5.27047005E+01   5.27047005E+01   7.35211730E-01   5.26934743E-01   5.27047005E+01   5.27047005E+01   7.35211730E-01   5.26934743E-01   5.21777649E+01  -1.79889488E+01   5.20730019E+01   1.06953394E+00   5.23703766E+01   5.26934743E-01   4.15485287E+00
             1888                4   5.24097824E+01   5.29288025E+01   5.29288025E+01   5.11106014E-01   5.26934743E-01   5.29288025E+01   5.29288025E+01   5.26934743E-01   5.11106014E-01   5.24176941E+01  -1.79889469E+01   5.24097786E+01   8.59715760E-01   5.25801926E+01   5.26934743E-01   4.26048422E+00
             1889                1   9.48761063E+01   9.08543777E+01   9.08543777E+01  -4.00466108E+00  -4.03879547E+00   9.08543777E+01   9.08543777E+01  -4.00466108E+00  -4.03879547E+00   9.48931732E+01  -2.76036396E+01   9.48760986E+01  -3.99621248E+00   9.08459320E+01  -4.03879547E+00   8.95016909E-01
             1889                2   9.49114990E+01   9.08779755E+01   9.08779755E+01  -4.02825546E+00  -4.03879547E+00   9.08779755E+01   9.08779755E+01  -4.02825546E+00  -4.03879547E+00   9.49167709E+01  -2.76036396E+01   9.49114990E+01  -4.02116013E+00   9.08708801E+01  -4.03879547E+00   8.20363760E-01
             1889                3   9.49888535E+01   9.09295425E+01   9.09295425E+01  -4.07981730E+00  -4.03879547E+00   9.09295425E+01   9.09295425E+01  -4.03879547E+00  -4.07981730E+00   9.50093613E+01  -2.76036434E+01   9.49888306E+01  -4.07090998E+00   9.09206314E+01  -4.03879547E+00   9.20009494E-01
             1889                4   9.50242386E+01   9.09531174E+01   9.09531174E+01  -4.10339737E+00  -4.03879547E+00   9.09531174E+01   9.09531174E+01  -4.03879547E+00  -4.10339737E+00   9.50565186E+01  -2.76036434E+01   9.50241852E+01  -4.09588194E+00   9.09456024E+01  -4.03879547E+00   8.45365465E-01
             1890                1   2.03562592E+02   1.76846817E+02   1.76846817E+02  -3.02293892E+01  -2.30100765E+01   1.76846817E+02   1.76846817E+02  -2.30100765E+01  -3.02293892E+01   2.07076218E+02  -4.12024498E+01   2.03274261E+02  -3.01290054E+01   1.76746445E+02  -2.30100765E+01   4.55801821E+00
             1890                2   2.02879837E+02   1.76419220E+02   1.76419220E+02  -2.91256714E+01  -2.36861744E+01   1.76419220E+02   1.76419220E+02  -2.36861744E+01  -2.91256714E+01   2.05544891E+02  -4.12024574E+01   2.02715668E+02  -2.88790913E+01   1.76172638E+02  -2.36861744E+01   7.11498737E+00
             1890                3   2.02796066E+02   1.76373444E+02   1.76373444E+02  -2.86959877E+01  -2.40701027E+01   1.76373444E+02   1.76373444E+02  -2.40701027E+01  -2.86959877E+01   2.05069427E+02  -4.12024536E+01   2.02677307E+02  -2.86634293E+01   1.76340897E+02  -2.40701027E+01   2.58342171E+00
             1890                4   2.02088501E+02   1.75918610E+02   1.75918610E+02  -2.75424137E+01  -2.47688236E+01   1.75918610E+02   1.75918610E+02  -2.47688236E+01  -2.75424137E+01   2.03461014E+02  -4.12024574E+01   2.02045670E+02  -2.74118309E+01   1.75788025E+02  -2.47688236E+01   5.15275431E+00
             1891                1   9.88440247E+01   9.64080811E+01   9.64080811E+01  -2.44796300E+00  -2.42391109E+00   9.64080811E+01   9.64080811E+01  -2.42391109E+00  -2.44796300E+00   9.88560486E+01  -3.05120697E+01   9.88440170E+01  -2.43868828E+00   9.63988113E+01  -2.42391109E+00   9.57383037E-01
             1891                2   9.87837067E+01   9.63678741E+01   9.63678741E+01  -2.40774465E+00  -2.42391109E+00   9.63678741E+01   9.63678741E+01  -2.40774465E+00  -2.42391109E+00   9.87917862E+01  -3.05120716E+01   9.87836990E+01  -2.39892936E+00   9.63590546E+01  -2.42391109E+00   9.33284521E-01
             1891                3   9.88790359E+01   9.64314194E+01   9.64314194E+01  -2.47129869E+00  -2.42391109E+00   9.64314194E+01   9.64314194E+01  -2.42391109E+00  -2.47129869E+00   9.89027176E+01  -3.05120697E+01   9.88790054E+01  -2.46278596E+00   9.64229050E+01  -2.42391109E+00   9.17645216E-01
             1891                4   9.88187256E+01   9.63912201E+01   9.63912201E+01  -2.43109941E+00  -2.42391109E+00   9.63912201E+01   9.63912201E+01  -2.42391109E+00  -2.43109941E+00   9.88223190E+01  -3.05120697E+01   9.88187256E+01  -2.42302012E+00   9.63831406E+01  -2.42391109E+00   8.93543661E-01
             1892                1   6.50572586E+01   6.14240837E+01   6.14240837E+01  -3.50132346E+00  -3.76423669E+00   6.14240837E+01   6.14240837E+01  -3.50132346E+00  -3.76423669E+00   6.51883163E+01  -1.80528412E+01   6.50560684E+01  -3.19699836E+00   6.11197586E+01  -3.76423669E+00   4.43461370E+00
             1892                2   6.52164001E+01   6.15303459E+01   6.15303459E+01  -3.60758901E+00  -3.76423669E+00   6.15303459E+01   6.15303459E+01  -3.60758901E+00  -3.76423669E+00   6.52945786E+01  -1.80528393E+01   6.52159805E+01  -3.32934046E+00   6.12520981E+01  -3.76423669E+00   4.24819231E+00
             1892                3   6.53612137E+01   6.16269684E+01   6.16269684E+01  -3.70420766E+00  -3.76423669E+00   6.16269684E+01   6.16269684E+01  -3.70420766E+00  -3.76423669E+00   6.53912048E+01  -1.80528412E+01   6.53611450E+01  -3.38324857E+00   6.13060074E+01  -3.76423669E+00   4.56789780E+00
             1892                4   6.55195084E+01   6.17325058E+01   6.17325058E+01  -3.80974674E+00  -3.76423669E+00   6.17325058E+01   6.17325058E+01  -3.76423669E+00  -3.80974674E+00   6.55422516E+01  -1.80528412E+01   6.55194778E+01  -3.51552606E+00   6.14382858E+01  -3.76423669E+00   4.38147593E+00
             1893                1   5.69283905E+01   5.59715538E+01   5.59715538E+01  -8.65133643E-01  -1.04810345E+00   5.59715538E+01   5.59715538E+01  -8.65133643E-01  -1.04810345E+00   5.70196571E+01  -1.80194378E+01   5.69277306E+01  -6.87330544E-01   5.57937508E+01  -1.04810345E+00   3.17396164E+00
             1893                2   5.70223694E+01   5.60342903E+01   5.60342903E+01  -9.27866876E-01  -1.04810345E+00   5.60342903E+01   5.60342903E+01  -9.27866876E-01  -1.04810345E+00   5.70823936E+01  -1.80194397E+01   5.70220833E+01  -7.72930205E-01   5.58793526E+01  -1.04810345E+00   2.96673632E+00
             1893                3   5.72518196E+01   5.61873131E+01   5.61873131E+01  -1.08089244E+00  -1.04810345E+00   5.61873131E+01   5.61873131E+01  -1.04810345E+00  -1.08089244E+00   5.72682076E+01  -1.80194397E+01   5.72517967E+01  -8.94742727E-01   5.60011635E+01  -1.04810345E+00   3.25974011E+00
             1893                4   5.73450737E+01   5.62494507E+01   5.62494507E+01  -1.14302766E+00  -1.04810345E+00   5.62494507E+01   5.62494507E+01  -1.04810345E+00  -1.14302766E+00   5.73924789E+01  -1.80194397E+01   5.73448982E+01  -9.80206609E-01   5.60866280E+01  -1.04810345E+00   3.05258131E+00
             1894                1   6.66459961E+01   6.24702950E+01   6.24702950E+01  -4.00796080E+00  -4.34218740E+00   6.24702950E+01   6.24702950E+01  -4.00796080E+00  -4.34218740E+00   6.68124847E+01  -1.80400486E+01   6.66441116E+01  -3.57108402E+00   6.20334167E+01  -4.34218740E+00   5.37140512E+00
             1894                2   6.68462982E+01   6.26040955E+01   6.26040955E+01  -4.14176416E+00  -4.34218740E+00   6.26040955E+01   6.26040955E+01  -4.14176416E+00  -4.34218740E+00   6.69462814E+01  -1.80400486E+01   6.68456192E+01  -3.73511767E+00   6.21974487E+01  -4.34218740E+00   5.19390583E+00
             1894                3   6.69479599E+01   6.26719551E+01   6.26719551E+01  -4.20962334E+00  -4.34218740E+00   6.26719551E+01   6.26719551E+01  -4.20962334E+00  -4.34218740E+00   6.70141449E+01  -1.80400486E+01   6.69476624E+01  -3.74814677E+00   6.22104797E+01  -4.34218740E+00   5.53636742E+00
             1894                4   6.71473541E+01   6.28049507E+01   6.28049507E+01  -4.34261703E+00  -4.34218740E+00   6.28049507E+01   6.28049507E+01  -4.34218740E+00  -4.34261703E+00   6.71475677E+01  -1.80400486E+01   6.71473541E+01  -3.91217899E+00   6.23745117E+01  -4.34218740E+00   5.35888624E+00
             1895                1   2.58733273E+01   3.99161606E+01   3.99161606E+01   1.39227848E+01   1.41645727E+01   3.99161606E+01   3.99161606E+01   1.41645727E+01   1.39227848E+01   2.59933739E+01  -2.26678391E+01   2.58707867E+01   1.43855228E+01   3.94534225E+01   1.41645727E+01   3.43714714E+00
             1895                2   2.58317165E+01   3.98885422E+01   3.98885422E+01   1.39504070E+01   1.41645727E+01   3.98885422E+01   3.98885422E+01   1.41645727E+01   1.39504070E+01   2.59381332E+01  -2.26678391E+01   2.58297215E+01   1.43423071E+01   3.94966393E+01   1.41645727E+01   3.16411138E+00
             1895                3   2.62916718E+01   4.01930618E+01   4.01930618E+01   1.36458845E+01   1.41645727E+01   4.01930618E+01   4.01930618E+01   1.41645727E+01   1.36458845E+01   2.65471783E+01  -2.26678391E+01   2.62801590E+01   1.41103859E+01   3.97285614E+01   1.41645727E+01   3.48072362E+00
             1895                4   2.62507591E+01   4.01660423E+01   4.01660423E+01   1.36729031E+01   1.41645727E+01   4.01660423E+01   4.01660423E+01   1.41645727E+01   1.36729031E+01   2.64931412E+01  -2.26678391E+01   2.62404003E+01   1.40669861E+01   3.97719612E+01   1.41645727E+01   3.20705271E+00
             1896                1   2.20000000E+02   1.95104111E+02   1.95104111E+02  -3.98974457E+01  -5.94727325E+00   1.95104111E+02   1.95104111E+02  -5.94727325E+00  -3.98974457E+01   2.35001556E+02  -4.97531319E+01   2.13987152E+02  -3.93240814E+01   1.94530746E+02  -5.94727325E+00   1.15936346E+01
             1896                2   2.20000000E+02   1.95456863E+02   1.95456863E+02  -3.76297150E+01  -8.56776619E+00   1.95456863E+02   1.95456863E+02  -8.56776619E+00  -3.76297150E+01   2.33086578E+02  -4.97531281E+01   2.15617966E+02  -3.74405022E+01   1.95267654E+02  -8.56776619E+00   6.63825941E+00
             1896                3   2.20000000E+02   1.94775757E+02   1.94775757E+02  -4.17228737E+01  -3.79350162E+00   1.94775757E+02   1.94775757E+02  -3.79350162E+00  -4.17228737E+01   2.36498642E+02  -4.97531281E+01   2.12456314E+02  -4.15637970E+01   1.94616684E+02  -3.79350162E+00   6.13159466E+00
             1896                4   2.20000000E+02   1.95139481E+02   1.95139481E+02  -3.96864128E+01  -6.19367456E+00   1.95139481E+02   1.95139481E+02  -6.19367456E+00  -3.96864128E+01   2.34825897E+02  -4.97531281E+01   2.14151321E+02  -3.96803131E+01   1.95133377E+02  -6.19367456E+00   1.19681168E+00
             1897                1   1.12455971E+02   1.23243423E+02   1.23243423E+02   9.88428974E+00   1.17129288E+01   1.23243423E+02   1.23243423E+02   1.17129288E+01   9.88428974E+00   1.13359138E+02  -4.82802124E+01   1.12422508E+02   1.26302567E+01   1.20497452E+02   1.17129288E+01   1.74281540E+01
             1897                2   1.12268333E+02   1.23119293E+02   1.23119293E+02   1.00084095E+01   1.17129288E+01   1.23119293E+02   1.23119293E+02   1.17129288E+01   1.00084095E+01   1.13110878E+02  -4.82802124E+01   1.12239204E+02   1.27740831E+01   1.20353622E+02   1.17129288E+01   1.74693642E+01
             1897                3   1.12357010E+02   1.23177963E+02   1.23177963E+02   9.94973660E+00   1.17129288E+01   1.23177963E+02   1.23177963E+02   1.17129288E+01   9.94973660E+00   1.13228226E+02  -4.82802124E+01   1.12325874E+02   1.26486330E+01   1.20479073E+02   1.17129288E+01   1.72715683E+01
             1897                4   1.12173943E+02   1.23056839E+02   1.23056839E+02   1.00708780E+01   1.17129288E+01   1.23056839E+02   1.23056839E+02   1.17129288E+01   1.00708780E+01   1.12985962E+02  -4.82802124E+01   1.12146904E+02   1.27879496E+01   1.20339760E+02   1.17129288E+01   1.73092098E+01
             1898                1   4.51779289E+01   4.83455887E+01   4.83455887E+01   3.12208104E+00   3.21337795E+00   4.83455887E+01   4.83455887E+01   3.21337795E+00   3.12208104E+00   4.52235069E+01  -1.82270164E+01   4.51777229E+01   3.78297591E+00   4.76846962E+01   3.21337795E+00   5.42688942E+00
             1898                2   4.48019600E+01   4.80948486E+01   4.80948486E+01   3.37282467E+00   3.21337795E+00   4.80948486E+01   4.80948486E+01   3.37282467E+00   3.21337795E+00   4.48814697E+01  -1.82270184E+01   4.48013229E+01   4.00855207E+00   4.74591217E+01   3.21337795E+00   5.29404259E+00
             1898                3   4.52873077E+01   4.84184036E+01   4.84184036E+01   3.04926515E+00   3.21337795E+00   4.84184036E+01   4.84184036E+01   3.21337795E+00   3.04926515E+00   4.53691406E+01  -1.82270164E+01   4.52866364E+01   3.65781498E+00   4.78098564E+01   3.21337795E+00   5.21910048E+00
             1898                4   4.49110107E+01   4.81676483E+01   4.81676483E+01   3.30002499E+00   3.21337795E+00   4.81676483E+01   4.81676483E+01   3.30002499E+00   3.21337795E+00   4.49542694E+01  -1.82270184E+01   4.49108200E+01   3.88334703E+00   4.75843277E+01   3.21337795E+00   5.08251762E+00
             1899                1   2.19627594E+02   2.14712708E+02   2.14712708E+02  -2.41916466E+01   2.15732498E+01   2.14712708E+02   2.14712708E+02   2.15732498E+01  -2.41916466E+01   2.38904343E+02  -7.06980972E+01   2.08490829E+02  -2.41653652E+01   2.14686417E+02   2.15732498E+01  -2.50584984E+00
             1899                2   2.19672211E+02   2.15015747E+02   2.15015747E+02  -2.30154400E+01   2.00940018E+01   2.15015747E+02   2.15015747E+02   2.00940018E+01  -2.30154400E+01   2.38031189E+02  -7.06980972E+01   2.09836212E+02  -2.30085621E+01   2.15008865E+02   2.00940018E+01   1.27962577E+00
             1899                3   2.19619431E+02   2.15097946E+02   2.15097946E+02  -2.24560070E+01   1.94523716E+01   2.15097946E+02   2.15097946E+02   1.94523716E+01  -2.24560070E+01   2.37553955E+02  -7.06981049E+01   2.10339111E+02  -2.23557930E+01   2.14997726E+02   1.94523716E+01  -4.87821484E+00
             1899                4   2.19509109E+02   2.15291489E+02   2.15291489E+02  -2.11173096E+01   1.79201317E+01   2.15291489E+02   2.15291489E+02   1.79201317E+01  -2.11173096E+01   2.36408798E+02  -7.06981049E+01   2.11486908E+02  -2.11124325E+01   2.15286606E+02   1.79201317E+01  -1.07442725E+00
             1900                1   2.20000000E+02   2.42267914E+02   2.42267914E+02  -2.19306588E+00   6.02116280E+01   2.42267914E+02   2.42267914E+02   6.02116280E+01  -2.19306588E+00   2.44460983E+02  -1.00095490E+02   1.98574951E+02  -1.96467865E+00   2.42039520E+02   6.02116280E+01  -7.46861887E+00
             1900                2   2.20000000E+02   2.41534454E+02   2.41534454E+02  -4.23346615E+00   6.29854736E+01   2.41534454E+02   2.41534454E+02   6.29854736E+01  -4.23346615E+00   2.45767929E+02  -1.00095490E+02   1.94804779E+02  -4.23170805E+00   2.41532700E+02   6.29854736E+01  -6.57986403E-01
             1900                3   2.20000000E+02   2.42916931E+02   2.42916931E+02  -2.09184870E-01   5.75787086E+01   2.42916931E+02   2.42916931E+02   5.75787086E+01  -2.09184870E-01   2.43126114E+02  -1.00095490E+02   2.01837982E+02  -2.06276298E-01   2.42914032E+02   5.75787086E+01   8.39865625E-01
             1900                4   2.20000000E+02   2.42138290E+02   2.42138290E+02  -2.56788874E+00   6.07160606E+01   2.42138290E+02   2.42138290E+02   6.07160606E+01  -2.56788874E+00   2.44706177E+02  -1.00095490E+02   1.97915268E+02  -2.33567858E+00   2.41906082E+02   6.07160606E+01   7.53455210E+00
             1901                1   1.97468689E+02   1.60518478E+02   1.60518478E+02  -3.60622330E+01  -3.78263969E+01   1.60518478E+02   1.60518478E+02  -3.60622330E+01  -3.78263969E+01   1.98344864E+02  -2.88766117E+01   1.97450974E+02  -3.60621147E+01   1.60518356E+02  -3.78263969E+01   1.50617063E-01
             1901                2   1.97364365E+02   1.60447281E+02   1.60447281E+02  -3.58583412E+01  -3.79590836E+01   1.60447281E+02   1.60447281E+02  -3.58583412E+01  -3.79590836E+01   1.98406357E+02  -2.88766174E+01   1.97339218E+02  -3.57945633E+01   1.60383499E+02  -3.79590836E+01  -3.53770733E+00
             1901                3   1.98182419E+02   1.60993652E+02   1.60993652E+02  -3.81339569E+01  -3.62298508E+01   1.60993652E+02   1.60993652E+02  -3.62298508E+01  -3.81339569E+01   1.99127609E+02  -2.88766155E+01   1.98161835E+02  -3.81336174E+01   1.60993317E+02  -3.62298508E+01  -2.58062631E-01
             1901                4   1.98084137E+02   1.60929535E+02   1.60929535E+02  -3.79430313E+01  -3.63566513E+01   1.60929535E+02   1.60929535E+02  -3.63566513E+01  -3.79430313E+01   1.98872559E+02  -2.88766155E+01   1.98069839E+02  -3.78663521E+01   1.60852844E+02  -3.63566513E+01  -3.90440750E+00
             1902                1   1.96704163E+02   1.80321579E+02   1.80321579E+02  -1.75617237E+01  -1.51818581E+01   1.80321579E+02   1.80321579E+02  -1.51818581E+01  -1.75617237E+01   1.97883301E+02  -4.91926689E+01   1.96671768E+02  -1.74387817E+01   1.80198639E+02  -1.51818581E+01   4.93082571E+00
             1902                2   1.96076279E+02   1.79908691E+02   1.79908691E+02  -1.67049751E+01  -1.56257238E+01   1.79908691E+02   1.79908691E+02  -1.56257238E+01  -1.67049751E+01   1.96613678E+02  -4.91926689E+01   1.96069580E+02  -1.66317253E+01   1.79835449E+02  -1.56257238E+01   3.79419780E+00
             1902                3   1.97331619E+02   1.80732010E+02   1.80732010E+02  -1.83013287E+01  -1.48526850E+01   1.80732010E+02   1.80732010E+02  -1.48526850E+01  -1.83013287E+01   1.99033340E+02  -4.91926613E+01   1.97263809E+02  -1.82332134E+01   1.80663895E+02  -1.48526850E+01   3.68131232E+00
             1902                4   1.96714172E+02   1.80329483E+02   1.80329483E+02  -1.74595451E+01  -1.52919292E+01   1.80329483E+02   1.80329483E+02  -1.52919292E+01  -1.74595451E+01   1.97789032E+02  -4.91926689E+01   1.96687302E+02  -1.74268837E+01   1.80296814E+02  -1.52919292E+01   2.54162860E+00
             1903                1   2.09790680E+02   1.56178680E+02   1.56178680E+02  -5.68596497E+01  -5.02060623E+01   1.56178680E+02   1.56178680E+02  -5.02060623E+01  -5.68596497E+01   2.13038330E+02  -1.63709888E+01   2.09553085E+02  -5.68582878E+01   1.56177322E+02  -5.02060623E+01  -5.37613094E-01
             1903                2   2.09097137E+02   1.55766663E+02   1.55766663E+02  -5.40392113E+01  -5.26144714E+01   1.55766663E+02   1.55766663E+02  -5.26144714E+01  -5.40392113E+01   2.09805878E+02  -1.63709927E+01   2.09086212E+02  -5.40241585E+01   1.55751602E+02  -5.26144714E+01   1.77735031E+00
             1903                3   2.09490540E+02   1.56005783E+02   1.56005783E+02  -5.57601967E+01  -5.11326180E+01   1.56005783E+02   1.56005783E+02  -5.11326180E+01  -5.57601967E+01   2.11765991E+02  -1.63709908E+01   2.09375488E+02  -5.56017342E+01   1.55847321E+02  -5.11326180E+01  -5.79075575E+00
             1903                4   2.08767990E+02   1.55548904E+02   1.55548904E+02  -5.28220978E+01  -5.36138268E+01   1.55548904E+02   1.55548904E+02  -5.28220978E+01  -5.36138268E+01   2.09162735E+02  -1.63709927E+01   2.08764618E+02  -5.27609749E+01   1.55487778E+02  -5.36138268E+01  -3.56832814E+00
             1904                1   2.17832886E+02   1.66591003E+02   1.66591003E+02  -5.48051338E+01  -4.74945946E+01   1.66591003E+02   1.66591003E+02  -4.74945946E+01  -5.48051338E+01   2.21396133E+02  -2.14304256E+01   2.17556625E+02  -5.48019562E+01   1.66587830E+02  -4.74945946E+01  -8.38599563E-01
             1904                2   2.18471451E+02   1.66862335E+02   1.66862335E+02  -5.81480103E+01  -4.44230499E+01   1.66862335E+02   1.66862335E+02  -4.44230499E+01  -5.81480103E+01   2.25010345E+02  -2.14304256E+01   2.17498291E+02  -5.80034332E+01   1.66717758E+02  -4.44230499E+01  -5.70180035E+00
             1904                3   2.18282455E+02   1.66784332E+02   1.66784332E+02  -5.72955322E+01  -4.51975250E+01   1.66784332E+02   1.66784332E+02  -4.51975250E+01  -5.72955322E+01   2.24079865E+02  -2.14304256E+01   2.17526230E+02  -5.71571045E+01   1.66645905E+02  -4.51975250E+01   5.56772423E+00
             1904                4   2.18879562E+02   1.66979431E+02   1.66979431E+02  -6.03460960E+01  -4.23420525E+01   1.66979431E+02   1.66979431E+02  -4.23420525E+01  -6.03460960E+01   2.27325531E+02  -2.14304256E+01   2.17204254E+02  -6.03444099E+01   1.66977737E+02  -4.23420525E+01   6.20033264E-01
             1905                1   1.86844543E+02   1.69318634E+02   1.69318634E+02  -1.87333775E+01  -1.62945747E+01   1.69318634E+02   1.69318634E+02  -1.62945747E+01  -1.87333775E+01   1.88052002E+02  -4.47635612E+01   1.86808716E+02  -1.87330627E+01   1.69318314E+02  -1.62945747E+01  -2.43327960E-01
             1905                2   1.84995926E+02   1.68093735E+02   1.68093735E+02  -1.66160984E+01  -1.71869507E+01   1.68093735E+02   1.68093735E+02  -1.66160984E+01  -1.71869507E+01   1.85280685E+02  -4.47635612E+01   1.84993927E+02  -1.66147690E+01   1.68092392E+02  -1.71869507E+01   4.97079611E-01
             1905                3   1.86365158E+02   1.69002670E+02   1.69002670E+02  -1.82542267E+01  -1.64577675E+01   1.69002670E+02   1.69002670E+02  -1.64577675E+01  -1.82542267E+01   1.87256897E+02  -4.47635612E+01   1.86345673E+02  -1.81978569E+01   1.68946304E+02  -1.64577675E+01  -3.24834347E+00
             1905                4   1.84488174E+02   1.67753586E+02   1.67753586E+02  -1.61099644E+01  -1.73529396E+01   1.67753586E+02   1.67753586E+02  -1.61099644E+01  -1.73529396E+01   1.85106522E+02  -4.47635612E+01   1.84478745E+02  -1.60751572E+01   1.67718781E+02  -1.73529396E+01  -2.52926540E+00
             1906                1   3.44610481E+01   3.13963375E+01   3.13963375E+01  -4.78648543E-01  -5.17008877E+00   3.13963375E+01   3.13963375E+01  -4.78648543E-01  -5.17008877E+00   3.65664253E+01  -8.58253384E+00   3.37313652E+01   3.26208413E-01   3.05914803E+01  -5.17008877E+00   5.00070000E+00
             1906                2   3.40548782E+01   3.11026058E+01   3.11026058E+01  -1.84917897E-01  -5.17008877E+00   3.11026058E+01   3.11026058E+01  -1.84917897E-01  -5.17008877E+00   3.62726936E+01  -8.58253384E+00   3.32190704E+01   6.09898210E-01   3.03077908E+01  -5.17008877E+00   4.92301512E+00
             1906                3   3.44476051E+01   3.13866444E+01   3.13866444E+01  -4.68956530E-01  -5.17008877E+00   3.13866444E+01   3.13866444E+01  -4.68956530E-01  -5.17008877E+00   3.65567322E+01  -8.58253384E+00   3.37145576E+01   2.45585725E-01   3.06721020E+01  -5.17008877E+00   4.71716261E+00
             1906                4   3.40410156E+01   3.10925465E+01   3.10925465E+01  -1.74858361E-01  -5.17008877E+00   3.10925465E+01   3.10925465E+01  -1.74858361E-01  -5.17008877E+00   3.62626343E+01  -8.58253384E+00   3.32014160E+01   5.29434204E-01   3.03882542E+01  -5.17008877E+00   4.63954449E+00
             1907                1   1.00500839E+02   9.97012482E+01   9.97012482E+01  -9.24986064E-01  -6.73730433E-01   9.97012482E+01   9.97012482E+01  -6.73730433E-01  -9.24986064E-01   1.00626236E+02  -3.27008438E+01   1.00500130E+02  -8.84081889E-03   9.87851028E+01  -6.73730433E-01   9.55765438E+00
             1907                2   1.00597702E+02   9.97657318E+01   9.97657318E+01  -9.89469886E-01  -6.73730433E-01   9.97657318E+01   9.97657318E+01  -6.73730433E-01  -9.89469886E-01   1.00755203E+02  -3.27008438E+01   1.00596588E+02  -2.35259943E-02   9.87997894E+01  -6.73730433E-01   9.81786728E+00
             1907                3   1.00131660E+02   9.94552841E+01   9.94552841E+01  -6.79021895E-01  -6.73730433E-01   9.94552841E+01   9.94552841E+01  -6.73730433E-01  -6.79021895E-01   1.00134308E+02  -3.27008438E+01   1.00131660E+02   2.44272858E-01   9.85319901E+01  -6.73730433E-01   9.57082844E+00
             1907                4   1.00227692E+02   9.95192871E+01   9.95192871E+01  -7.43030131E-01  -6.73730433E-01   9.95192871E+01   9.95192871E+01  -6.73730433E-01  -7.43030131E-01   1.00262321E+02  -3.27008438E+01   1.00227631E+02   2.29935542E-01   9.85463257E+01  -6.73730433E-01   9.82878685E+00
             1908                1   6.87528915E+01   6.41098785E+01   6.41098785E+01  -4.46900558E+00  -4.81571770E+00   6.41098785E+01   6.41098785E+01  -4.46900558E+00  -4.81571770E+00   6.89255981E+01  -1.82750530E+01   6.87509232E+01  -4.00952959E+00   6.36504021E+01  -4.81571770E+00   5.59456348E+00
             1908                2   6.89679718E+01   6.42535477E+01   6.42535477E+01  -4.61268234E+00  -4.81571770E+00   6.42535477E+01   6.42535477E+01  -4.61268234E+00  -4.81571770E+00   6.90692673E+01  -1.82750492E+01   6.89673080E+01  -4.18306637E+00   6.38239365E+01  -4.81571770E+00   5.42230511E+00
             1908                3   6.90496674E+01   6.43080826E+01   6.43080826E+01  -4.66721487E+00  -4.81571770E+00   6.43080826E+01   6.43080826E+01  -4.66721487E+00  -4.81571770E+00   6.91238022E+01  -1.82750492E+01   6.90493164E+01  -4.18125105E+00   6.38221207E+01  -4.81571770E+00   5.76916838E+00
             1908                4   6.92637100E+01   6.44508591E+01   6.44508591E+01  -4.80998850E+00  -4.81571770E+00   6.44508591E+01   6.44508591E+01  -4.80998850E+00  -4.81571770E+00   6.92665787E+01  -1.82750492E+01   6.92637100E+01  -4.35472345E+00   6.39955940E+01  -4.81571770E+00   5.59684658E+00
             1909                1   8.22113647E+01   7.63283768E+01   7.63283768E+01  -5.92177963E+00  -5.84414005E+00   7.63283768E+01   7.63283768E+01  -5.84414005E+00  -5.92177963E+00   8.22501602E+01  -2.15208206E+01   8.22112885E+01  -5.91451645E+00   7.63211212E+01  -5.84414005E+00   7.72675157E-01
             1909                2   8.19860001E+01   7.61781387E+01   7.61781387E+01  -5.77153063E+00  -5.84414005E+00   7.61781387E+01   7.61781387E+01  -5.77153063E+00  -5.84414005E+00   8.20222778E+01  -2.15208225E+01   8.19859238E+01  -5.76466227E+00   7.61712723E+01  -5.84414005E+00   7.50130951E-01
             1909                3   8.22412262E+01   7.63482819E+01   7.63482819E+01  -5.94167280E+00  -5.84414005E+00   7.63482819E+01   7.63482819E+01  -5.84414005E+00  -5.94167280E+00   8.22899551E+01  -2.15208225E+01   8.22411041E+01  -5.93695545E+00   7.63435669E+01  -5.84414005E+00   6.22851312E-01
             1909                4   8.20159531E+01   7.61981125E+01   7.61981125E+01  -5.79150486E+00  -5.84414005E+00   7.61981125E+01   7.61981125E+01  -5.79150486E+00  -5.84414005E+00   8.20422516E+01  -2.15208225E+01   8.20159073E+01  -5.78711224E+00   7.61937180E+01  -5.84414005E+00   6.00317478E-01
             1910                1   5.47849312E+01   5.15805473E+01   5.15805473E+01  -2.57798457E+00  -3.80999899E+00   5.15805473E+01   5.15805473E+01  -2.57798457E+00  -3.80999899E+00   5.53905487E+01  -1.50641890E+01   5.47537460E+01  -9.08320904E-01   4.99108849E+01  -3.80999899E+00   9.36155605E+00
             1910                2   5.51384964E+01   5.18187065E+01   5.18187065E+01  -2.81613994E+00  -3.80999899E+00   5.18187065E+01   5.18187065E+01  -2.81613994E+00  -3.80999899E+00   5.56287079E+01  -1.50641899E+01   5.51183357E+01  -1.21725929E+00   5.02198257E+01  -3.80999899E+00   9.20859528E+00
             1910                3   5.51356354E+01   5.18167839E+01   5.18167839E+01  -2.81421494E+00  -3.80999899E+00   5.18167839E+01   5.18167839E+01  -2.81421494E+00  -3.80999899E+00   5.56267815E+01  -1.50641899E+01   5.51153946E+01  -1.03785777E+00   5.00404243E+01  -3.80999899E+00   9.68962097E+00
             1910                4   5.54810638E+01   5.20489388E+01   5.20489388E+01  -3.04637003E+00  -3.80999899E+00   5.20489388E+01   5.20489388E+01  -3.04637003E+00  -3.80999899E+00   5.58589363E+01  -1.50641899E+01   5.54692345E+01  -1.34340382E+00   5.03459702E+01  -3.80999899E+00   9.53548145E+00
             1911                1   5.45016479E+01   5.43201294E+01   5.43201294E+01  -8.15424025E-02  -2.80947834E-01   5.43201294E+01   5.43201294E+01  -8.15424025E-02  -2.80947834E-01   5.46010780E+01  -1.79858799E+01   5.45008278E+01   1.69805288E-01   5.40687828E+01  -2.80947834E-01   3.68923688E+00
             1911                2   5.46046410E+01   5.43888969E+01   5.43888969E+01  -1.50310457E-01  -2.80947834E-01   5.43888969E+01   5.43888969E+01  -1.50310457E-01  -2.80947834E-01   5.46698456E+01  -1.79858799E+01   5.46042938E+01   7.27591440E-02   5.41658287E+01  -2.80947834E-01   3.48083353E+00
             1911                3   5.48314133E+01   5.45401535E+01   5.45401535E+01  -3.01564187E-01  -2.80947834E-01   5.45401535E+01   5.45401535E+01  -2.80947834E-01  -3.01564187E-01   5.48417168E+01  -1.79858799E+01   5.48314056E+01  -3.89146805E-02   5.42775040E+01  -2.80947834E-01   3.78618765E+00
             1911                4   5.49336014E+01   5.46082458E+01   5.46082458E+01  -3.69656295E-01  -2.80947834E-01   5.46082458E+01   5.46082458E+01  -2.80947834E-01  -3.69656295E-01   5.49779015E+01  -1.79858799E+01   5.49334412E+01  -1.35827959E-01   5.43744164E+01  -2.80947834E-01   3.57782292E+00
             1912                1   5.07967148E+01   5.23529053E+01   5.23529053E+01   1.60935450E+00   1.50319529E+00   5.23529053E+01   5.23529053E+01   1.60935450E+00   1.50319529E+00   5.08497124E+01  -1.84884853E+01   5.07964630E+01   1.69311488E+00   5.22691460E+01   1.50319529E+00   2.05992818E+00
             1912                2   5.11365738E+01   5.25794640E+01   5.25794640E+01   1.38279998E+00   1.50319529E+00   5.25794640E+01   5.25794640E+01   1.50319529E+00   1.38279998E+00   5.11966667E+01  -1.84884872E+01   5.11362534E+01   1.47027791E+00   5.24919853E+01   1.50319529E+00   2.11447740E+00
             1912                3   5.07424889E+01   5.23167114E+01   5.23167114E+01   1.64554799E+00   1.50319529E+00   5.23167114E+01   5.23167114E+01   1.64554799E+00   1.50319529E+00   5.08135185E+01  -1.84884853E+01   5.07420425E+01   1.74849832E+00   5.22137642E+01   1.50319529E+00   2.28165412E+00
             1912                4   5.10831146E+01   5.25438614E+01   5.25438614E+01   1.41839957E+00   1.50319529E+00   5.25438614E+01   5.25438614E+01   1.50319529E+00   1.41839957E+00   5.11254616E+01  -1.84884853E+01   5.10829582E+01   1.52538466E+00   5.24368782E+01   1.50319529E+00   2.33626390E+00
             1913                1   9.68664703E+01   9.35772324E+01   9.35772324E+01  -3.27648020E+00  -3.30198932E+00   9.35772324E+01   9.35772324E+01  -3.27648020E+00  -3.30198932E+00   9.68792191E+01  -2.89995880E+01   9.68664627E+01  -3.26782775E+00   9.35685806E+01  -3.30198932E+00   9.15278316E-01
             1913                2   9.69020309E+01   9.36009445E+01   9.36009445E+01  -3.30019069E+00  -3.30198932E+00   9.36009445E+01   9.36009445E+01  -3.30019069E+00  -3.30198932E+00   9.69029312E+01  -2.89995880E+01   9.69020309E+01  -3.29260302E+00   9.35933533E+01  -3.30198932E+00   8.57469082E-01
             1913                3   9.69539108E+01   9.36355286E+01   9.36355286E+01  -3.33478212E+00  -3.30198932E+00   9.36355286E+01   9.36355286E+01  -3.30198932E+00  -3.33478212E+00   9.69703064E+01  -2.89995861E+01   9.69539032E+01  -3.32566547E+00   9.36264114E+01  -3.30198932E+00   9.40047085E-01
             1913                4   9.69894409E+01   9.36592102E+01   9.36592102E+01  -3.35845685E+00  -3.30198932E+00   9.36592102E+01   9.36592102E+01  -3.30198932E+00  -3.35845685E+00   9.70176620E+01  -2.89995880E+01   9.69894028E+01  -3.35043526E+00   9.36511841E+01  -3.30198932E+00   8.82246137E-01
             1914                1   9.92165070E+01   9.74185944E+01   9.74185944E+01  -1.87401330E+00  -1.72164011E+00   9.74185944E+01   9.74185944E+01  -1.72164011E+00  -1.87401330E+00   9.92926025E+01  -3.12743130E+01   9.92162399E+01  -1.24736953E+00   9.67919464E+01  -1.72164011E+00   7.86311483E+00
             1914                2   9.93078461E+01   9.74794312E+01   9.74794312E+01  -1.93484211E+00  -1.72164011E+00   9.74794312E+01   9.74794312E+01  -1.72164011E+00  -1.93484211E+00   9.94142685E+01  -3.12743149E+01   9.93073273E+01  -1.27529478E+00   9.68198776E+01  -1.72164011E+00   8.07054806E+00
             1914                3   9.89185410E+01   9.72200012E+01   9.72200012E+01  -1.67542088E+00  -1.72164011E+00   9.72200012E+01   9.72200012E+01  -1.67542088E+00  -1.72164011E+00   9.89416428E+01  -3.12743130E+01   9.89185181E+01  -1.04228032E+00   9.65868607E+01  -1.72164011E+00   7.88756371E+00
             1914                4   9.90100784E+01   9.72810364E+01   9.72810364E+01  -1.73645592E+00  -1.72164011E+00   9.72810364E+01   9.72810364E+01  -1.72164011E+00  -1.73645592E+00   9.90174942E+01  -3.12743130E+01   9.90100861E+01  -1.07019460E+00   9.66147766E+01  -1.72164011E+00   8.09489250E+00
             1915                1   2.12353821E+02   2.00559891E+02   2.00559891E+02  -1.96671848E+01  -2.93018007E+00   2.00559891E+02   2.00559891E+02  -2.93018007E+00  -1.96671848E+01   2.20227066E+02  -5.93208427E+01   2.10862213E+02  -1.96534500E+01   2.00546158E+02  -2.93018007E+00   1.73865378E+00
             1915                2   2.12952805E+02   2.00806625E+02   2.00806625E+02  -2.15525875E+01  -1.29152465E+00   2.00806625E+02   2.00806625E+02  -1.29152465E+00  -2.15525875E+01   2.22359222E+02  -5.93208427E+01   2.10767944E+02  -2.13745518E+01   2.00628601E+02  -1.29152465E+00   6.28926086E+00
             1915                3   2.11489380E+02   2.00107803E+02   2.00107803E+02  -1.76701603E+01  -4.47511530E+00   2.00107803E+02   2.00107803E+02  -4.47511530E+00  -1.76701603E+01   2.17777954E+02  -5.93208427E+01   2.10560272E+02  -1.75185108E+01   1.99956146E+02  -4.47511530E+00   5.74484158E+00
             1915                4   2.12578491E+02   2.00697998E+02   2.00697998E+02  -1.98871021E+01  -2.84837031E+00   2.00697998E+02   2.00697998E+02  -2.84837031E+00  -1.98871021E+01   2.20585098E+02  -5.93208427E+01   2.11033981E+02  -1.94002209E+01   2.00211121E+02  -2.84837031E+00   1.03518782E+01
             1916                1   2.20000000E+02   2.16298340E+02   2.16298340E+02  -2.26027832E+01   2.20500965E+01   2.16298340E+02   2.16298340E+02   2.20500965E+01  -2.26027832E+01   2.38901123E+02  -7.19152145E+01   2.09437225E+02  -2.26018238E+01   2.16297379E+02   2.20500965E+01   4.79013801E-01
             1916                2   2.20000000E+02   2.15879669E+02   2.15879669E+02  -2.43365250E+01   2.42024994E+01   2.15879669E+02   2.15879669E+02   2.42024994E+01  -2.43365250E+01   2.40216202E+02  -7.19152145E+01   2.07432724E+02  -2.42270546E+01   2.15770203E+02   2.42024994E+01  -5.12693453E+00
             1916                3   2.20000000E+02   2.15722351E+02   2.15722351E+02  -2.49476395E+01   2.49709492E+01   2.15722351E+02   2.15722351E+02   2.49709492E+01  -2.49476395E+01   2.40669983E+02  -7.19152145E+01   2.06673447E+02  -2.48686562E+01   2.15643356E+02   2.49709492E+01   4.35932207E+00
             1916                4   2.20000000E+02   2.15304840E+02   2.15304840E+02  -2.64796658E+01   2.69204559E+01   2.15304840E+02   2.15304840E+02   2.69204559E+01  -2.64796658E+01   2.41784515E+02  -7.19152145E+01   2.04642258E+02  -2.64739628E+01   2.15299149E+02   2.69204559E+01  -1.17366803E+00
             1917                1   1.02358803E+02   1.02129700E+02   1.02129700E+02  -2.31032535E-01  -2.27173105E-01   1.02129700E+02   1.02129700E+02  -2.27173105E-01  -2.31032535E-01   1.02360733E+02  -3.38904991E+01   1.02358803E+02  -2.21976802E-01   1.02120644E+02  -2.27173105E-01   9.62717354E-01
             1917                2   1.02392487E+02   1.02152153E+02   1.02152153E+02  -2.53480196E-01  -2.27173105E-01   1.02152153E+02   1.02152153E+02  -2.27173105E-01  -2.53480196E-01   1.02405632E+02  -3.38904991E+01   1.02392471E+02  -2.44448796E-01   1.02143120E+02  -2.27173105E-01   9.61816669E-01
             1917                3   1.02360794E+02   1.02131027E+02   1.02131027E+02  -2.32360557E-01  -2.27173105E-01   1.02131027E+02   1.02131027E+02  -2.27173105E-01  -2.32360557E-01   1.02363388E+02  -3.38904991E+01   1.02360794E+02  -2.22877741E-01   1.02121544E+02  -2.27173105E-01   9.85204577E-01
             1917                4   1.02394478E+02   1.02153481E+02   1.02153481E+02  -2.54815340E-01  -2.27173105E-01   1.02153481E+02   1.02153481E+02  -2.27173105E-01  -2.54815340E-01   1.02408295E+02  -3.38904991E+01   1.02394470E+02  -2.45353743E-01   1.02144020E+02  -2.27173105E-01   9.84307408E-01
             1918                1   2.11248871E+02   2.00893661E+02   2.00893661E+02  -1.75127926E+01  -2.38426185E+00   2.00893661E+02   2.00893661E+02  -2.38426185E+00  -1.75127926E+01   2.18406464E+02  -6.03322029E+01   2.10024887E+02  -1.70584908E+01   2.00439362E+02  -2.38426185E+00   9.95072937E+00
             1918                2   2.10677582E+02   2.00615295E+02   2.00615295E+02  -1.57678738E+01  -3.85082150E+00   2.00615295E+02   2.00615295E+02  -3.85082150E+00  -1.57678738E+01   2.16383179E+02  -6.03322029E+01   2.09917252E+02  -1.55965691E+01   2.00444000E+02  -3.85082150E+00   6.08583117E+00
             1918                3   2.11724869E+02   2.01095993E+02   2.01095993E+02  -1.90851021E+01  -1.01428676E+00   2.01095993E+02   2.01095993E+02  -1.01428676E+00  -1.90851021E+01   2.20181091E+02  -6.03322029E+01   2.09979309E+02  -1.88968830E+01   2.00907776E+02  -1.01428676E+00   6.43484545E+00
             1918                4   2.11187653E+02   2.00856064E+02   2.00856064E+02  -1.74480038E+01  -2.41145062E+00   2.00856064E+02   2.00856064E+02  -2.41145062E+00  -1.74480038E+01   2.18304077E+02  -6.03322029E+01   2.09978226E+02  -1.74181690E+01   2.00826233E+02  -2.41145062E+00   2.55199695E+00
             1919                1   1.14164658E+02   1.30227112E+02   1.30227112E+02   1.57833557E+01   1.63436260E+01   1.30227112E+02   1.30227112E+02   1.63436260E+01   1.57833557E+01   1.14443756E+02  -5.41180305E+01   1.14161552E+02   1.62179070E+01   1.29792557E+02   1.63436260E+01   7.03870201E+00
             1919                2   1.14317619E+02   1.30328812E+02   1.30328812E+02   1.56816511E+01   1.63436260E+01   1.30328812E+02   1.30328812E+02   1.63436260E+01   1.56816511E+01   1.14647163E+02  -5.41180305E+01   1.14313309E+02   1.61209793E+01   1.29889496E+02   1.63436260E+01   7.08338308E+00
             1919                3   1.14111794E+02   1.30191956E+02   1.30191956E+02   1.58185120E+01   1.63436260E+01   1.30191956E+02   1.30191956E+02   1.63436260E+01   1.58185120E+01   1.14373444E+02  -5.41180305E+01   1.14109077E+02   1.62652798E+01   1.29745193E+02   1.63436260E+01   7.13431978E+00
             1919                4   1.14264824E+02   1.30293716E+02   1.30293716E+02   1.57167444E+01   1.63436260E+01   1.30293716E+02   1.30293716E+02   1.63436260E+01   1.57167444E+01   1.14576981E+02  -5.41180305E+01   1.14260956E+02   1.61683388E+01   1.29842133E+02   1.63436260E+01   7.17899179E+00
             1920                1   3.61720390E+01   3.87148132E+01   3.87148132E+01   7.87112951E-01   4.60060215E+00   3.87148132E+01   3.87148132E+01   4.60060215E+00   7.87112951E-01   3.79277000E+01  -1.47008429E+01   3.57155762E+01   1.68219590E+00   3.78197289E+01   4.60060215E+00   5.75737143E+00
             1920                2   3.61381035E+01   3.86932335E+01   3.86932335E+01   8.08687985E-01   4.60060215E+00   3.86932335E+01   3.86932335E+01   4.60060215E+00   8.08687985E-01   3.78845482E+01  -1.47008410E+01   3.56864128E+01   1.72315311E+00   3.77787704E+01   4.60060215E+00   5.81444883E+00
             1920                3   3.60646057E+01   3.86464844E+01   3.86464844E+01   8.55440378E-01   4.60060215E+00   3.86464844E+01   3.86464844E+01   4.60060215E+00   8.55440378E-01   3.77910461E+01  -1.47008429E+01   3.56231651E+01   1.74045014E+00   3.77614746E+01   4.60060215E+00   5.71509075E+00
             1920                4   3.60311241E+01   3.86251831E+01   3.86251831E+01   8.76743495E-01   4.60060215E+00   3.86251831E+01   3.86251831E+01   4.60060215E+00   8.76743495E-01   3.77484398E+01  -1.47008429E+01   3.55943260E+01   1.78096795E+00   3.77209587E+01   4.60060215E+00   5.77195215E+00
             1921                1   5.50554237E+01   5.38828316E+01   5.38828316E+01  -1.09102881E+00  -1.25379825E+00   5.38828316E+01   5.38828316E+01  -1.09102881E+00  -1.25379825E+00   5.51366272E+01  -1.71793346E+01   5.50548859E+01  -3.54934245E-01   5.31467361E+01  -1.25379825E+00   6.31855202E+00
             1921                2   5.47271767E+01   5.36634521E+01   5.36634521E+01  -8.71650875E-01  -1.25379825E+00   5.36634521E+01   5.36634521E+01  -8.71650875E-01  -1.25379825E+00   5.49172516E+01  -1.71793346E+01   5.47241783E+01  -1.68825746E-01   5.29606285E+01  -1.25379825E+00   6.15098429E+00
             1921                3   5.52372093E+01   5.40041351E+01   5.40041351E+01  -1.21233213E+00  -1.25379825E+00   5.40041351E+01   5.40041351E+01  -1.21233213E+00  -1.25379825E+00   5.52579308E+01  -1.71793346E+01   5.52371788E+01  -5.22551417E-01   5.33143539E+01  -1.25379825E+00   6.13281345E+00
             1921                4   5.49100151E+01   5.37857018E+01   5.37857018E+01  -9.93902147E-01  -1.25379825E+00   5.37857018E+01   5.37857018E+01  -9.93902147E-01  -1.25379825E+00   5.50395012E+01  -1.71793346E+01   5.49086304E+01  -3.36475998E-01   5.31282768E+01  -1.25379825E+00   5.96501207E+00
             1922                1   2.75085201E+01   2.29690704E+01   2.29690704E+01   3.72774117E-02  -7.53148651E+00   2.29690704E+01   2.29690704E+01   3.72774117E-02  -7.53148651E+00   3.05005569E+01  -5.15828705E+00   2.50001202E+01   1.73135936E-01   2.28332119E+01  -7.53148651E+00   1.75983465E+00
             1922                2   2.71739864E+01   2.27000065E+01   2.27000065E+01   3.06340545E-01  -7.53148651E+00   2.27000065E+01   2.27000065E+01   3.06340545E-01  -7.53148651E+00   3.02314930E+01  -5.15828705E+00   2.44301014E+01   4.28891808E-01   2.25774555E+01  -7.53148651E+00   1.65207756E+00
             1922                3   2.75974102E+01   2.30400524E+01   2.30400524E+01  -3.37048881E-02  -7.53148651E+00   2.30400524E+01   2.30400524E+01  -3.37048881E-02  -7.53148651E+00   3.05715389E+01  -5.15828705E+00   2.51484184E+01   6.47825748E-02   2.29415646E+01  -7.53148651E+00   1.50425661E+00
             1922                4   2.72639122E+01   2.27726402E+01   2.27726402E+01   2.33708188E-01  -7.53148651E+00   2.27726402E+01   2.27726402E+01   2.33708188E-01  -7.53148651E+00   3.03041267E+01  -5.15828705E+00   2.45852413E+01   3.20571721E-01   2.26857758E+01  -7.53148651E+00   1.39652061E+00
             1923                1   1.11921005E+02   1.23575630E+02   1.23575630E+02   1.14089460E+01   1.19019146E+01   1.23575630E+02   1.23575630E+02   1.19019146E+01   1.14089460E+01   1.12166679E+02  -4.89621620E+01   1.11918556E+02   1.18759022E+01   1.23108665E+02   1.19019146E+01   7.22212172E+00
             1923                2   1.11784149E+02   1.23484566E+02   1.23484566E+02   1.14999924E+01   1.19019146E+01   1.23484566E+02   1.23484566E+02   1.19019146E+01   1.14999924E+01   1.11984573E+02  -4.89621582E+01   1.11782532E+02   1.19718132E+01   1.23012749E+02   1.19019146E+01   7.25352526E+00
             1923                3   1.11860176E+02   1.23535156E+02   1.23535156E+02   1.14494057E+01   1.19019146E+01   1.23535156E+02   1.23535156E+02   1.19019146E+01   1.14494057E+01   1.12085747E+02  -4.89621582E+01   1.11858116E+02   1.19043159E+01   1.23080246E+02   1.19019146E+01   7.12612104E+00
             1923                4   1.11723213E+02   1.23444008E+02   1.23444008E+02   1.15405531E+01   1.19019146E+01   1.23444008E+02   1.23444008E+02   1.19019146E+01   1.15405531E+01   1.11903450E+02  -4.89621582E+01   1.11721901E+02   1.20002489E+01   1.22984314E+02   1.19019146E+01   7.15752172E+00
             1924                1   2.18042557E+02   2.29315582E+02   2.29315582E+02  -2.55081868E+00   2.84057159E+01   2.29315582E+02   2.29315582E+02   2.84057159E+01  -2.55081868E+00   2.31866409E+02  -8.50568314E+01   2.13014328E+02  -2.53662181E+00   2.29301392E+02   2.84057159E+01   1.81432152E+00
             1924                2   2.18289627E+02   2.29177719E+02   2.29177719E+02  -4.47730017E+00   3.04700623E+01   2.29177719E+02   2.29177719E+02   3.04700623E+01  -4.47730017E+00   2.33655029E+02  -8.50568314E+01   2.11858337E+02  -4.46679878E+00   2.29167221E+02   3.04700623E+01  -1.56653130E+00
             1924                3   2.18210938E+02   2.29201080E+02   2.29201080E+02  -4.01030064E+00   2.99797001E+01   2.29201080E+02   2.29201080E+02   2.99797001E+01  -4.01030064E+00   2.33211380E+02  -8.50568314E+01   2.12132202E+02  -3.82780313E+00   2.29018585E+02   2.99797001E+01   6.52126455E+00
             1924                4   2.18446213E+02   2.29047775E+02   2.29047775E+02  -5.81198502E+00   3.19346790E+01   2.29047775E+02   2.29047775E+02   3.19346790E+01  -5.81198502E+00   2.34859772E+02  -8.50568237E+01   2.10921005E+02  -5.77083635E+00   2.29006638E+02   3.19346790E+01   3.10818434E+00
             1925                1   7.73884659E+01   7.18236847E+01   7.18236847E+01  -5.51022673E+00  -5.61921024E+00   7.18236847E+01   7.18236847E+01  -5.51022673E+00  -5.61921024E+00   7.74429016E+01  -2.02314167E+01   7.73882904E+01  -5.47654963E+00   7.17900085E+01  -5.61921024E+00   1.61351085E+00
             1925                2   7.74512177E+01   7.18655472E+01   7.18655472E+01  -5.55208397E+00  -5.61921024E+00   7.18655472E+01   7.18655472E+01  -5.55208397E+00  -5.61921024E+00   7.74847565E+01  -2.02314167E+01   7.74511490E+01  -5.52500391E+00   7.18384628E+01  -5.61921024E+00   1.44773400E+00
             1925                3   7.76399994E+01   7.19914017E+01   7.19914017E+01  -5.67794418E+00  -5.61921024E+00   7.19914017E+01   7.19914017E+01  -5.61921024E+00  -5.67794418E+00   7.76693497E+01  -2.02314167E+01   7.76399460E+01  -5.64235878E+00   7.19558182E+01  -5.61921024E+00   1.66215575E+00
             1925                4   7.77025681E+01   7.20330963E+01   7.20330963E+01  -5.71963596E+00  -5.61921024E+00   7.20330963E+01   7.20330963E+01  -5.61921024E+00  -5.71963596E+00   7.77527313E+01  -2.02314167E+01   7.77024231E+01  -5.69082737E+00   7.20042877E+01  -5.61921024E+00   1.49638736E+00
             1926                1   2.87165260E+01   3.83314896E+01   3.83314896E+01   8.21451759E+00   1.12578144E+01   3.83314896E+01   3.83314896E+01   1.12578144E+01   8.21451759E+00   3.01169739E+01  -1.92679424E+01   2.83503132E+01   1.18704367E+01   3.46755714E+01   1.12578144E+01   9.83562374E+00
             1926                2   2.85343590E+01   3.82156181E+01   3.82156181E+01   8.33039570E+00   1.12578144E+01   3.82156181E+01   3.82156181E+01   1.12578144E+01   8.33039570E+00   2.98852215E+01  -1.92679424E+01   2.81935444E+01   1.18491573E+01   3.46968536E+01   1.12578144E+01   9.63209724E+00
             1926                3   2.89837284E+01   3.85011787E+01   3.85011787E+01   8.04483128E+00   1.12578144E+01   3.85011787E+01   3.85011787E+01   1.12578144E+01   8.04483128E+00   3.04563465E+01  -1.92679424E+01   2.85789452E+01   1.16659689E+01   3.48800392E+01   1.12578144E+01   9.85768700E+00
             1926                4   2.88032150E+01   3.83865814E+01   3.83865814E+01   8.15942955E+00   1.12578144E+01   3.83865814E+01   3.83865814E+01   1.12578144E+01   8.15942955E+00   3.02271500E+01  -1.92679424E+01   2.84246616E+01   1.16447382E+01   3.49012718E+01   1.12578144E+01   9.65419865E+00
             1927                1   8.95360489E+01   8.52542267E+01   8.52542267E+01  -4.03752613E+00  -4.52413893E+00   8.52542267E+01   8.52542267E+01  -4.03752613E+00  -4.52413893E+00   8.97783661E+01  -2.55641861E+01   8.95330734E+01  -1.81794465E+00   8.30346451E+01  -4.52413893E+00   1.39019260E+01
             1927                2   9.01691208E+01   8.56769257E+01   8.56769257E+01  -4.46022511E+00  -4.52413893E+00   8.56769257E+01   8.56769257E+01  -4.46022511E+00  -4.52413893E+00   9.02010651E+01  -2.55641861E+01   9.01690750E+01  -2.28451252E+00   8.35012131E+01  -4.52413893E+00   1.38339643E+01
             1927                3   8.98451080E+01   8.54607086E+01   8.54607086E+01  -4.24400997E+00  -4.52413893E+00   8.54607086E+01   8.54607086E+01  -4.24400997E+00  -4.52413893E+00   8.99848480E+01  -2.55641861E+01   8.98441315E+01  -1.87725496E+00   8.30939560E+01  -4.52413893E+00   1.43773184E+01
             1927                4   9.04753036E+01   8.58809967E+01   8.58809967E+01  -4.66430140E+00  -4.52413893E+00   8.58809967E+01   8.58809967E+01  -4.52413893E+00  -4.66430140E+00   9.05453033E+01  -2.55641861E+01   9.04750519E+01  -2.34394360E+00   8.35606384E+01  -4.52413893E+00   1.43078194E+01
             1928                1   2.13973267E+02   1.91459488E+02   1.91459488E+02  -2.95786705E+01  -1.46689939E+01   1.91459488E+02   1.91459488E+02  -1.46689939E+01  -2.95786705E+01   2.21038147E+02  -4.90706062E+01   2.12799835E+02  -2.94907799E+01   1.91371597E+02  -1.46689939E+01   4.40664148E+00
             1928                2   2.14382812E+02   1.91561798E+02   1.91561798E+02  -3.17766190E+01  -1.25733690E+01   1.91561798E+02   1.91561798E+02  -1.25733690E+01  -3.17766190E+01   2.23338425E+02  -4.90706062E+01   2.12434891E+02  -3.17765598E+01   1.91561752E+02  -1.25733690E+01  -1.08401120E-01
             1928                3   2.14532623E+02   1.91650223E+02   1.91650223E+02  -3.19509697E+01  -1.24874144E+01   1.91650223E+02   1.91650223E+02  -1.24874144E+01  -3.19509697E+01   2.23601196E+02  -4.90706139E+01   2.12532578E+02  -3.15681343E+01   1.91267380E+02  -1.24874144E+01   9.24428177E+00
             1928                4   2.14903534E+02   1.91701569E+02   1.91701569E+02  -3.39417305E+01  -1.05480137E+01   1.91701569E+02   1.91701569E+02  -1.05480137E+01  -3.39417305E+01   2.25643311E+02  -4.90706062E+01   2.12010529E+02  -3.38436546E+01   1.91603500E+02  -1.05480137E+01   4.70317984E+00
             1929                1   2.06341019E+02   1.89940598E+02   1.89940598E+02  -2.16815548E+01  -1.06790342E+01   1.89940598E+02   1.89940598E+02  -1.06790342E+01  -2.16815548E+01   2.11622162E+02  -5.25266724E+01   2.05679474E+02  -2.15020409E+01   1.89761093E+02  -1.06790342E+01   6.16083622E+00
             1929                2   2.05635468E+02   1.89522980E+02   1.89522980E+02  -2.03673840E+01  -1.15755692E+01   1.89522980E+02   1.89522980E+02  -1.15755692E+01  -2.03673840E+01   2.09890366E+02  -5.25266724E+01   2.05211960E+02  -2.00376892E+01   1.89193283E+02  -1.15755692E+01   8.31210136E+00
             1929                3   2.05788025E+02   1.89624146E+02   1.89624146E+02  -2.04321728E+01  -1.16119547E+01   1.89624146E+02   1.89624146E+02  -1.16119547E+01  -2.04321728E+01   2.10056320E+02  -5.25266724E+01   2.05362091E+02  -2.03667889E+01   1.89558762E+02  -1.16119547E+01   3.70532966E+00
             1929                4   2.05058426E+02   1.89180405E+02   1.89180405E+02  -1.90615692E+01  -1.25388184E+01   1.89180405E+02   1.89180405E+02  -1.25388184E+01  -1.90615692E+01   2.08241974E+02  -5.25266724E+01   2.04824814E+02  -1.88971977E+01   1.89016037E+02  -1.25388184E+01   5.84819078E+00
             1930                1   1.99343201E+02   1.58106735E+02   1.58106735E+02  -4.02621269E+01  -4.21967278E+01   1.58106735E+02   1.58106735E+02  -4.02621269E+01  -4.21967278E+01   2.00303467E+02  -2.52159634E+01   1.99322067E+02  -4.02616653E+01   1.58106277E+02  -4.21967278E+01   3.01302433E-01
             1930                2   1.99222733E+02   1.58024414E+02   1.58024414E+02  -4.00319099E+01  -4.23446045E+01   1.58024414E+02   1.58024414E+02  -4.00319099E+01  -4.23446045E+01   2.00369019E+02  -2.52159653E+01   1.99192520E+02  -3.99609146E+01   1.57953415E+02  -4.23446045E+01  -3.74903202E+00
             1930                3   2.00122787E+02   1.58625687E+02   1.58625687E+02  -4.25347290E+01  -4.04430618E+01   1.58625687E+02   1.58625687E+02  -4.04430618E+01  -4.25347290E+01   2.01160416E+02  -2.52159653E+01   2.00098175E+02  -4.25346107E+01   1.58625565E+02  -4.04430618E+01  -1.56065717E-01
             1930                4   2.00038422E+02   1.58571136E+02   1.58571136E+02  -4.23301926E+01  -4.05930595E+01   1.58571136E+02   1.58571136E+02  -4.05930595E+01  -4.23301926E+01   2.00901337E+02  -2.52159634E+01   2.00021454E+02  -4.22441711E+01   1.58485123E+02  -4.05930595E+01  -4.15623283E+00
             1931                1   2.18264481E+02   2.26407135E+02   2.26407135E+02  -6.77667522E+00   2.70000095E+01   2.26407135E+02   2.26407135E+02   2.70000095E+01  -6.77667522E+00   2.33183807E+02  -8.22101593E+01   2.12264893E+02  -6.75441742E+00   2.26384872E+02   2.70000095E+01  -2.27846360E+00
             1931                2   2.18559875E+02   2.26283676E+02   2.26283676E+02  -8.66592789E+00   2.90127106E+01   2.26283676E+02   2.26283676E+02   2.90127106E+01  -8.66592789E+00   2.34949600E+02  -8.22101517E+01   2.11066559E+02  -8.39354134E+00   2.26011292E+02   2.90127106E+01  -7.99520350E+00
             1931                3   2.18601349E+02   2.26233337E+02   2.26233337E+02  -9.08461666E+00   2.94817314E+01   2.26233337E+02   2.26233337E+02   2.94817314E+01  -9.08461666E+00   2.35317963E+02  -8.22101517E+01   2.10742569E+02  -9.06684685E+00   2.26215576E+02   2.94817314E+01   2.04469776E+00
             1931                4   2.18792053E+02   2.26034302E+02   2.26034302E+02  -1.07403316E+01   3.13364849E+01   2.26034302E+02   2.26034302E+02   3.13364849E+01  -1.07403316E+01   2.36774643E+02  -8.22101517E+01   2.09396835E+02  -1.06854963E+01   2.25979477E+02   3.13364849E+01  -3.60271788E+00
             1932                1   6.66693115E+01   6.02304955E+01   6.02304955E+01  -4.86078882E+00  -7.91206360E+00   6.02304955E+01   6.02304955E+01  -4.86078882E+00  -7.91206360E+00   6.81425552E+01  -1.58192139E+01   6.65119400E+01   3.46398950E-01   5.50233078E+01  -7.91206360E+00   1.76586418E+01
             1932                2   6.75776215E+01   6.08490639E+01   6.08490639E+01  -5.47935534E+00  -7.91206360E+00   6.08490639E+01   6.08490639E+01  -5.47935534E+00  -7.91206360E+00   6.87611313E+01  -1.58192148E+01   6.74789963E+01  -4.60613698E-01   5.58303223E+01  -7.91206360E+00   1.75413074E+01
             1932                3   6.73420792E+01   6.06889687E+01   6.06889687E+01  -5.31925917E+00  -7.91206360E+00   6.06889687E+01   6.06889687E+01  -5.31925917E+00  -7.91206360E+00   6.86010284E+01  -1.58192148E+01   6.72296295E+01   3.61541390E-01   5.50081673E+01  -7.91206360E+00   1.85123768E+01
             1932                4   6.82293472E+01   6.12909203E+01   6.12909203E+01  -5.92121315E+00  -7.91206360E+00   6.12909203E+01   6.12909203E+01  -5.92121315E+00  -7.91206360E+00   6.92029877E+01  -1.58192148E+01   6.81639481E+01  -4.61365372E-01   5.58310738E+01  -7.91206360E+00   1.83618660E+01
             1933                1   2.80430260E+01   2.45961685E+01   2.45961685E+01  -8.72490332E-02  -5.89652061E+00   2.45961685E+01   2.45961685E+01  -8.72490332E-02  -5.89652061E+00   3.04926891E+01  -6.20413256E+00   2.66382771E+01  -8.16489533E-02   2.45905685E+01  -5.89652061E+00   3.71722132E-01
             1933                2   2.79260292E+01   2.45074196E+01   2.45074196E+01   1.49998209E-03  -5.89652061E+00   2.45074196E+01   2.45074196E+01   1.49998209E-03  -5.89652061E+00   3.04039402E+01  -6.20413256E+00   2.64697132E+01   1.53435525E-02   2.44935760E+01  -5.89652061E+00   5.82269013E-01
             1933                3   2.77628746E+01   2.43831997E+01   2.43831997E+01   1.25718221E-01  -5.89652061E+00   2.43831997E+01   2.43831997E+01   1.25718221E-01  -5.89652061E+00   3.02797203E+01  -6.20413256E+00   2.62322063E+01   1.28835201E-01   2.43800831E+01  -5.89652061E+00   2.74976075E-01
             1933                4   2.76446438E+01   2.42928467E+01   2.42928467E+01   2.16072902E-01  -5.89652061E+00   2.42928467E+01   2.42928467E+01   2.16072902E-01  -5.89652061E+00   3.01893673E+01  -6.20413256E+00   2.60582619E+01   2.25869372E-01   2.42830486E+01  -5.89652061E+00   4.85581756E-01
             1934                1   2.14803574E+02   2.13054108E+02   2.13054108E+02  -1.11738348E+01   9.11452389E+00   2.13054108E+02   2.13054108E+02   9.11452389E+00  -1.11738348E+01   2.24227951E+02  -7.03315964E+01   2.12631927E+02  -1.07245483E+01   2.12604828E+02   9.11452389E+00   1.00270042E+01
             1934                2   2.14119675E+02   2.12734131E+02   2.12734131E+02  -9.44577408E+00   7.70644379E+00   2.12734131E+02   2.12734131E+02   7.70644379E+00  -9.44577408E+00   2.22179916E+02  -7.03316040E+01   2.12565765E+02  -9.29289436E+00   2.12581253E+02   7.70644379E+00   5.82613564E+00
             1934                3   2.15157028E+02   2.13133621E+02   2.13133621E+02  -1.27542496E+01   1.06154327E+01   2.13133621E+02   2.13133621E+02   1.06154327E+01  -1.27542496E+01   2.25887878E+02  -7.03316040E+01   2.12273468E+02  -1.26102781E+01   2.12989655E+02   1.06154327E+01   5.70099163E+00
             1934                4   2.14776657E+02   2.13019791E+02   2.13019791E+02  -1.13274212E+01   9.30243397E+00   2.13019791E+02   2.13019791E+02   9.30243397E+00  -1.13274212E+01   2.24347214E+02  -7.03315964E+01   2.12530441E+02  -1.13141918E+01   2.13006561E+02   9.30243397E+00   1.72262299E+00
             1935                1   4.94765587E+01   4.98066292E+01   4.98066292E+01   4.07915473E-01   2.52592504E-01   4.98066292E+01   4.98066292E+01   4.07915473E-01   2.52592504E-01   4.95540390E+01  -1.68223801E+01   4.94760094E+01   1.49723041E+00   4.87173157E+01   2.52592504E-01   7.25425100E+00
             1935                2   4.91128731E+01   4.95634880E+01   4.95634880E+01   6.51058555E-01   2.52592504E-01   4.95634880E+01   4.95634880E+01   6.51058555E-01   2.52592504E-01   4.93108940E+01  -1.68223801E+01   4.91092377E+01   1.69408071E+00   4.85204659E+01   2.52592504E-01   7.06603384E+00
             1935                3   4.96431007E+01   4.99177704E+01   4.99177704E+01   2.96776831E-01   2.52592504E-01   4.99177704E+01   4.99177704E+01   2.96776831E-01   2.52592504E-01   4.96651764E+01  -1.68223801E+01   4.96430550E+01   1.32922459E+00   4.88853226E+01   2.52592504E-01   7.08273172E+00
             1935                4   4.92885895E+01   4.96810379E+01   4.96810379E+01   5.33507764E-01   2.52592504E-01   4.96810379E+01   4.96810379E+01   5.33507764E-01   2.52592504E-01   4.94284477E+01  -1.68223801E+01   4.92867851E+01   1.51808715E+00   4.86964607E+01   2.52592504E-01   6.88623047E+00
             1936                1   2.05142868E+02   1.71331390E+02   1.71331390E+02  -3.53244820E+01  -3.22642326E+01   1.71331390E+02   1.71331390E+02  -3.22642326E+01  -3.53244820E+01   2.06655869E+02  -3.45808907E+01   2.05091507E+02  -3.51919670E+01   1.71198883E+02  -3.22642326E+01  -5.23128557E+00
             1936                2   2.05970856E+02   1.71829376E+02   1.71829376E+02  -3.77136879E+01  -3.03729897E+01   1.71829376E+02   1.71829376E+02  -3.03729897E+01  -3.77136879E+01   2.09543060E+02  -3.45809021E+01   2.05676208E+02  -3.74127274E+01   1.71528412E+02  -3.03729897E+01  -7.93567467E+00
             1936                3   2.05721786E+02   1.71690262E+02   1.71690262E+02  -3.67877655E+01  -3.11598015E+01   1.71690262E+02   1.71690262E+02  -3.11598015E+01  -3.67877655E+01   2.08478027E+02  -3.45808983E+01   2.05548477E+02  -3.67821960E+01   1.71684692E+02  -3.11598015E+01  -1.07765567E+00
             1936                4   2.06512238E+02   1.72140778E+02   1.72140778E+02  -3.90702477E+01  -2.93278408E+01   1.72140778E+02   1.72140778E+02  -2.93278408E+01  -3.90702477E+01   2.11211029E+02  -3.45808945E+01   2.05994247E+02  -3.90010452E+01   1.72071579E+02  -2.93278408E+01  -3.82230711E+00
             1937                1   2.20000000E+02   1.96426529E+02   1.96426529E+02  -3.78656654E+01  -5.75116491E+00   1.96426529E+02   1.96426529E+02  -5.75116491E+00  -3.78656654E+01   2.34292206E+02  -5.09365692E+01   2.14631393E+02  -3.71605492E+01   1.95721420E+02  -5.75116491E+00   1.28337679E+01
             1937                2   2.20000000E+02   1.96759460E+02   1.96759460E+02  -3.55798492E+01  -8.36990452E+00   1.96759460E+02   1.96759460E+02  -8.36990452E+00  -3.55798492E+01   2.32339310E+02  -5.09365692E+01   2.16165665E+02  -3.53069916E+01   1.96486603E+02  -8.36990452E+00   7.95747328E+00
             1937                3   2.20000000E+02   1.96105515E+02   1.96105515E+02  -3.97535782E+01  -3.54222751E+00   1.96105515E+02   1.96105515E+02  -3.54222751E+00  -3.97535782E+01   2.35859100E+02  -5.09365730E+01   2.13140030E+02  -3.95289803E+01   1.95880920E+02  -3.54222751E+00   7.27486849E+00
             1937                4   2.20000000E+02   1.96443008E+02   1.96443008E+02  -3.77616005E+01  -5.87168694E+00   1.96443008E+02   1.96443008E+02  -5.87168694E+00  -3.77616005E+01   2.34204605E+02  -5.09365730E+01   2.14707581E+02  -3.77394447E+01   1.96420853E+02  -5.87168694E+00   2.27795720E+00
             1938                1   2.20000000E+02   1.88846756E+02   1.88846756E+02  -4.29505501E+01  -1.70658226E+01   1.88846756E+02   1.88846756E+02  -1.70658226E+01  -4.29505501E+01   2.31797302E+02  -4.29434624E+01   2.16534332E+02  -4.22313919E+01   1.88127609E+02  -1.70658226E+01   1.28910770E+01
             1938                2   2.20000000E+02   1.89112213E+02   1.89112213E+02  -4.05981636E+01  -1.96836681E+01   1.89112213E+02   1.89112213E+02  -1.96836681E+01  -4.05981636E+01   2.29710388E+02  -4.29434624E+01   2.17746536E+02  -4.03574333E+01   1.88871490E+02  -1.96836681E+01   7.43233871E+00
             1938                3   2.20000000E+02   1.88555176E+02   1.88555176E+02  -4.50694199E+01  -1.46553764E+01   1.88555176E+02   1.88555176E+02  -1.46553764E+01  -4.50694199E+01   2.33624603E+02  -4.29434624E+01   2.15193939E+02  -4.48334770E+01   1.88319244E+02  -1.46553764E+01   7.42059803E+00
             1938                4   2.19999985E+02   1.88838760E+02   1.88838760E+02  -4.30139198E+01  -1.69944592E+01   1.88838760E+02   1.88838760E+02  -1.69944592E+01  -4.30139198E+01   2.31852676E+02  -4.29434624E+01   2.16497711E+02  -4.29977379E+01   1.88822586E+02  -1.69944592E+01   1.93665051E+00
             1939                1   2.03898438E+02   1.61035233E+02   1.61035233E+02  -4.53940163E+01  -4.02344704E+01   1.61035233E+02   1.61035233E+02  -4.02344704E+01  -4.53940163E+01   2.06429245E+02  -2.51355801E+01   2.03751480E+02  -4.53817062E+01   1.61022919E+02  -4.02344704E+01  -1.59381604E+00
             1939                2   2.03075623E+02   1.60518494E+02   1.60518494E+02  -4.29710312E+01  -4.21407051E+01   1.60518494E+02   1.60518494E+02  -4.21407051E+01  -4.29710312E+01   2.03489517E+02  -2.51355839E+01   2.03071808E+02  -4.29709015E+01   1.60518356E+02  -4.21407051E+01   1.62781790E-01
             1939                3   2.03510956E+02   1.60793411E+02   1.60793411E+02  -4.45060844E+01  -4.08805809E+01   1.60793411E+02   1.60793411E+02  -4.08805809E+01  -4.45060844E+01   2.05299500E+02  -2.51355801E+01   2.03438293E+02  -4.43357544E+01   1.60623077E+02  -4.08805809E+01  -5.91098070E+00
             1939                4   2.02660309E+02   1.60241638E+02   1.60241638E+02  -4.20098228E+01  -4.28250656E+01   1.60241638E+02   1.60241638E+02  -4.20098228E+01  -4.28250656E+01   2.03066696E+02  -2.51355820E+01   2.02656616E+02  -4.19221611E+01   1.60153976E+02  -4.28250656E+01  -4.20963192E+00
             1940                1   2.14277313E+02   2.06994614E+02   2.06994614E+02  -1.79510078E+01   5.27853107E+00   2.06994614E+02   2.06994614E+02   5.27853107E+00  -1.79510078E+01   2.24945633E+02  -6.47740479E+01   2.11416626E+02  -1.78104610E+01   2.06854065E+02   5.27853107E+00   5.62111712E+00
             1940                2   2.14144455E+02   2.07060577E+02   2.07060577E+02  -1.64616241E+01   3.72319245E+00   2.07060577E+02   2.07060577E+02   3.72319245E+00  -1.64616241E+01   2.23522202E+02  -6.47740479E+01   2.11988373E+02  -1.58006811E+01   2.06399628E+02   3.72319245E+00   1.21367302E+01
             1940                3   2.13650482E+02   2.06782867E+02   2.06782867E+02  -1.57503672E+01   3.28963423E+00   2.06782867E+02   2.06782867E+02   3.28963423E+00  -1.57503672E+01   2.22533234E+02  -6.47740402E+01   2.11729111E+02  -1.57503653E+01   2.06782867E+02   3.28963423E+00  -1.64543837E-02
             1940                4   2.13359909E+02   2.06728180E+02   2.06728180E+02  -1.40080261E+01   1.60198009E+00   2.06728180E+02   2.06728180E+02   1.60198009E+00  -1.40080261E+01   2.20736206E+02  -6.47740402E+01   2.12069458E+02  -1.38104944E+01   2.06530655E+02   1.60198009E+00   6.60015154E+00
             1941                1   9.28243790E+01   8.82054367E+01   8.82054367E+01  -4.59789085E+00  -4.63997650E+00   8.82054367E+01   8.82054367E+01  -4.59789085E+00  -4.63997650E+00   9.28454132E+01  -2.63225231E+01   9.28243484E+01  -4.58967972E+00   8.81972198E+01  -4.63997650E+00   8.73095632E-01
             1941                2   9.28596268E+01   8.82289352E+01   8.82289352E+01  -4.62140131E+00  -4.63997650E+00   8.82289352E+01   8.82289352E+01  -4.62140131E+00  -4.63997650E+00   9.28689117E+01  -2.63225193E+01   9.28596268E+01  -4.61479902E+00   8.82223358E+01  -4.63997650E+00   7.82906890E-01
             1941                3   9.29604263E+01   8.82961349E+01   8.82961349E+01  -4.68858767E+00  -4.63997650E+00   8.82961349E+01   8.82961349E+01  -4.63997650E+00  -4.68858767E+00   9.29847183E+01  -2.63225231E+01   9.29603958E+01  -4.67991257E+00   8.82874527E+01  -4.63997650E+00   8.98289323E-01
             1941                4   9.29956436E+01   8.83196030E+01   8.83196030E+01  -4.71205997E+00  -4.63997650E+00   8.83196030E+01   8.83196030E+01  -4.63997650E+00  -4.71205997E+00   9.30316620E+01  -2.63225231E+01   9.29955826E+01  -4.70504284E+00   8.83125839E+01  -4.63997650E+00   8.08106303E-01
             1942                1   4.61192932E+01   4.95220261E+01   4.95220261E+01   3.45173740E+00   3.35388017E+00   4.95220261E+01   4.95220261E+01   3.45173740E+00   3.35388017E+00   4.61681442E+01  -1.87758808E+01   4.61190605E+01   3.65423274E+00   4.93195305E+01   3.35388017E+00   3.04761910E+00
             1942                2   4.64722023E+01   4.97572479E+01   4.97572479E+01   3.21651578E+00   3.35388017E+00   4.97572479E+01   4.97572479E+01   3.35388017E+00   3.21651578E+00   4.65407295E+01  -1.87758808E+01   4.64717407E+01   3.42681384E+00   4.95469475E+01   3.35388017E+00   3.12141800E+00
             1942                3   4.60552063E+01   4.94792442E+01   4.94792442E+01   3.49451756E+00   3.35388017E+00   4.94792442E+01   4.94792442E+01   3.49451756E+00   3.35388017E+00   4.61253662E+01  -1.87758808E+01   4.60547218E+01   3.72863007E+00   4.92451324E+01   3.35388017E+00   3.27273393E+00
             1942                4   4.64082031E+01   4.97146339E+01   4.97146339E+01   3.25912690E+00   3.35388017E+00   4.97146339E+01   4.97146339E+01   3.35388017E+00   3.25912690E+00   4.64555092E+01  -1.87758808E+01   4.64079857E+01   3.50140166E+00   4.94723625E+01   3.35388017E+00   3.34607577E+00
             1943                1   2.20000000E+02   2.43141098E+02   2.43141098E+02  -2.34196997E+00   6.37996788E+01   2.43141098E+02   2.43141098E+02   6.37996788E+01  -2.34196997E+00   2.45483078E+02  -1.01532936E+02   1.95682663E+02  -2.11741328E+00   2.42916550E+02   6.37996788E+01  -7.42116594E+00
             1943                2   2.20000000E+02   2.42389938E+02   2.42389938E+02  -4.29062605E+00   6.64994888E+01   2.42389938E+02   2.42389938E+02   6.64994888E+01  -4.29062605E+00   2.46680573E+02  -1.01532936E+02   1.91745773E+02  -4.28988504E+00   2.42389206E+02   6.64994888E+01  -4.27102327E-01
             1943                3   2.20000000E+02   2.43820633E+02   2.43820633E+02  -4.16630894E-01   6.11948128E+01   2.43820633E+02   2.43820633E+02   6.11948128E+01  -4.16630894E-01   2.44237274E+02  -1.01532936E+02   1.99159378E+02  -4.12247479E-01   2.43816254E+02   6.11948128E+01   1.03477776E+00
             1943                4   2.20000000E+02   2.43013336E+02   2.43013336E+02  -2.68568349E+00   6.42711639E+01   2.43013336E+02   2.43013336E+02   6.42711639E+01  -2.68568349E+00   2.45699020E+02  -1.01532936E+02   1.95020203E+02  -2.43092966E+00   2.42758575E+02   6.42711639E+01   7.90755272E+00
             1944                1   2.20000000E+02   2.32479874E+02   2.32479874E+02  -1.14935694E+01   4.91928940E+01   2.32479874E+02   2.32479874E+02   4.91928940E+01  -1.14935694E+01   2.43973434E+02  -9.00597305E+01   1.99828171E+02  -1.14459658E+01   2.32432266E+02   4.91928940E+01   3.40749288E+00
             1944                2   2.20000000E+02   2.31935806E+02   2.31935806E+02  -1.30764112E+01   5.13198013E+01   2.31935806E+02   2.31935806E+02   5.13198013E+01  -1.30764112E+01   2.45012207E+02  -9.00597305E+01   1.97062592E+02  -1.30172091E+01   2.31876602E+02   5.13198013E+01  -3.80802679E+00
             1944                3   2.20000000E+02   2.31824875E+02   2.31824875E+02  -1.33853369E+01   5.17396660E+01   2.31824875E+02   2.31824875E+02   5.17396660E+01  -1.33853369E+01   2.45210220E+02  -9.00597305E+01   1.96492722E+02  -1.30467577E+01   2.31486298E+02   5.17396660E+01   9.10547161E+00
             1944                4   2.20000000E+02   2.31331833E+02   2.31331833E+02  -1.47080936E+01   5.35554657E+01   2.31331833E+02   2.31331833E+02   5.35554657E+01  -1.47080936E+01   2.46039917E+02  -9.00597305E+01   1.93933975E+02  -1.46906490E+01   2.31314377E+02   5.35554657E+01   2.07197738E+00
             1945                1   6.93255386E+01   6.46985626E+01   6.46985626E+01  -4.48603153E+00  -4.76706123E+00   6.46985626E+01   6.46985626E+01  -4.48603153E+00  -4.76706123E+00   6.94656219E+01  -1.84818249E+01   6.93242493E+01  -4.15072727E+00   6.43632584E+01  -4.76706123E+00   4.80473852E+00
             1945                2   6.95087585E+01   6.48209076E+01   6.48209076E+01  -4.60837269E+00  -4.76706123E+00   6.48209076E+01   6.48209076E+01  -4.60837269E+00  -4.76706123E+00   6.95879669E+01  -1.84818249E+01   6.95083466E+01  -4.29843950E+00   6.45109711E+01  -4.76706123E+00   4.62843657E+00
             1945                3   6.96177673E+01   6.48936386E+01   6.48936386E+01  -4.68110991E+00  -4.76706123E+00   6.48936386E+01   6.48936386E+01  -4.68110991E+00  -4.76706123E+00   6.96607056E+01  -1.84818249E+01   6.96176453E+01  -4.32663059E+00   6.45391617E+01  -4.76706123E+00   4.95350456E+00
             1945                4   6.98001862E+01   6.50152817E+01   6.50152817E+01  -4.80275011E+00  -4.76706123E+00   6.50152817E+01   6.50152817E+01  -4.76706123E+00  -4.80275011E+00   6.98180313E+01  -1.84818211E+01   6.98001709E+01  -4.47433186E+00   6.46868591E+01  -4.76706123E+00   4.77719545E+00
             1946                1   2.02340225E+02   1.58017120E+02   1.58017120E+02  -4.60055428E+01  -4.25976410E+01   1.58017120E+02   1.58017120E+02  -4.25976410E+01  -4.60055428E+01   2.04022659E+02  -2.31379776E+01   2.02275635E+02  -4.60043411E+01   1.58015915E+02  -4.25976410E+01  -4.94140774E-01
             1946                2   2.01602020E+02   1.57538284E+02   1.57538284E+02  -4.36032066E+01  -4.45211449E+01   1.57538284E+02   1.57538284E+02  -4.36032066E+01  -4.45211449E+01   2.02059418E+02  -2.31379757E+01   2.01597321E+02  -4.36012383E+01   1.57536316E+02  -4.45211449E+01   6.28479719E-01
             1946                3   2.02102921E+02   1.57865875E+02   1.57865875E+02  -4.54472008E+01  -4.30047455E+01   1.57865875E+02   1.57865875E+02  -4.30047455E+01  -4.54472008E+01   2.03313080E+02  -2.31379776E+01   2.02069702E+02  -4.53337631E+01   1.57752441E+02  -4.30047455E+01  -4.80102777E+00
             1946                4   2.01347366E+02   1.57364822E+02   1.57364822E+02  -4.29985161E+01  -4.49523582E+01   1.57364822E+02   1.57364822E+02  -4.29985161E+01  -4.49523582E+01   2.02317184E+02  -2.31379795E+01   2.01326035E+02  -4.29287415E+01   1.57295044E+02  -4.49523582E+01  -3.73837256E+00
             1947                1   3.82105904E+01   3.15706730E+01   3.15706730E+01  -2.54470038E+00  -9.71830177E+00   3.15706730E+01   3.15706730E+01  -2.54470038E+00  -9.71830177E+00   4.12889748E+01  -6.43589020E+00   3.66493568E+01   7.31909692E-01   2.82940636E+01  -9.71830177E+00   1.00521927E+01
             1947                2   3.75588531E+01   3.10811501E+01   3.10811501E+01  -2.05517483E+00  -9.71830177E+00   3.10811501E+01   3.10811501E+01  -2.05517483E+00  -9.71830177E+00   4.07994499E+01  -6.43589067E+00   3.57359123E+01   1.24658871E+00   2.77793846E+01  -9.71830177E+00   9.92505360E+00
             1947                3   3.79235153E+01   3.13557663E+01   3.13557663E+01  -2.32979488E+00  -9.71830177E+00   3.13557663E+01   3.13557663E+01  -2.32979488E+00  -9.71830177E+00   4.10740700E+01  -6.43589020E+00   3.62507439E+01   6.13332748E-01   2.84126396E+01  -9.71830177E+00   9.51204014E+00
             1947                4   3.72762222E+01   3.08670025E+01   3.08670025E+01  -1.84102917E+00  -9.71830177E+00   3.08670025E+01   3.08670025E+01  -1.84102917E+00  -9.71830177E+00   4.05853043E+01  -6.43589020E+00   3.53300018E+01   1.12611818E+00   2.78998547E+01  -9.71830177E+00   9.39391136E+00
             1948                1   4.61789017E+01   3.96001472E+01   3.96001472E+01  -3.55252337E+00  -9.10322666E+00   3.96001472E+01   3.96001472E+01  -3.55252337E+00  -9.10322666E+00   4.87033730E+01  -8.98146534E+00   4.54192772E+01   1.57243073E-01   3.58903809E+01  -9.10322666E+00   1.20964422E+01
             1948                2   4.65304680E+01   3.98504639E+01   3.98504639E+01  -3.80284381E+00  -9.10322666E+00   3.98504639E+01   3.98504639E+01  -3.80284381E+00  -9.10322666E+00   4.89536896E+01  -8.98146439E+00   4.58438988E+01   2.30252996E-01   3.58173676E+01  -9.10322666E+00   1.26408892E+01
             1948                3   4.54676857E+01   3.90906448E+01   3.90906448E+01  -3.04302168E+00  -9.10322666E+00   3.90906448E+01   3.90906448E+01  -3.04302168E+00  -9.10322666E+00   4.81938705E+01  -8.98146534E+00   4.45454597E+01   7.23672867E-01   3.53239479E+01  -9.10322666E+00   1.20215111E+01
             1948                4   4.58238220E+01   3.93463058E+01   3.93463058E+01  -3.29868460E+00  -9.10322666E+00   3.93463058E+01   3.93463058E+01  -3.29868460E+00  -9.10322666E+00   4.84495354E+01  -8.98146534E+00   4.49855652E+01   7.97946393E-01   3.52496758E+01  -9.10322666E+00   1.25665598E+01
             1949                1   8.87552414E+01   8.32629166E+01   8.32629166E+01  -5.52331591E+00  -5.46129656E+00   8.32629166E+01   8.32629166E+01  -5.46129656E+00  -5.52331591E+00   8.87862320E+01  -2.40927677E+01   8.87551880E+01  -5.51516628E+00   8.32547684E+01  -5.46129656E+00   8.50547016E-01
             1949                2   8.85780945E+01   8.31448212E+01   8.31448212E+01  -5.40522242E+00  -5.46129656E+00   8.31448212E+01   8.31448212E+01  -5.40522242E+00  -5.46129656E+00   8.86061172E+01  -2.40927677E+01   8.85780563E+01  -5.39751434E+00   8.31371155E+01  -5.46129656E+00   8.26117575E-01
             1949                3   8.87885818E+01   8.32851410E+01   8.32851410E+01  -5.54553747E+00  -5.46129656E+00   8.32851410E+01   8.32851410E+01  -5.46129656E+00  -5.54553747E+00   8.88306732E+01  -2.40927677E+01   8.87884979E+01  -5.53948784E+00   8.32790909E+01  -5.46129656E+00   7.32932091E-01
             1949                4   8.86115265E+01   8.31671219E+01   8.31671219E+01  -5.42751122E+00  -5.46129656E+00   8.31671219E+01   8.31671219E+01  -5.42751122E+00  -5.46129656E+00   8.86284180E+01  -2.40927715E+01   8.86115112E+01  -5.42184782E+00   8.31614532E+01  -5.46129656E+00   7.08514333E-01
             1950                1   2.06178436E+02   1.65404266E+02   1.65404266E+02  -4.44642754E+01  -3.68744736E+01   1.65404266E+02   1.65404266E+02  -3.68744736E+01  -4.44642754E+01   2.09868546E+02  -2.80218372E+01   2.05863770E+02  -4.44318237E+01   1.65371811E+02  -3.68744736E+01  -2.60954356E+00
             1950                2   2.05174301E+02   1.64792038E+02   1.64792038E+02  -4.19753761E+01  -3.87511559E+01   1.64792038E+02   1.64792038E+02  -3.87511559E+01  -4.19753761E+01   2.06767426E+02  -2.80218353E+01   2.05117310E+02  -4.19750938E+01   1.64791763E+02  -3.87511559E+01  -2.40041882E-01
             1950                3   2.05612808E+02   1.65060104E+02   1.65060104E+02  -4.32526779E+01  -3.77419281E+01   1.65060104E+02   1.65060104E+02  -3.77419281E+01  -4.32526779E+01   2.08312790E+02  -2.80218353E+01   2.05446548E+02  -4.30192375E+01   1.64826675E+02  -3.77419281E+01  -6.96944189E+00
             1950                4   2.04568802E+02   1.64399826E+02   1.64399826E+02  -4.06645088E+01  -3.96698112E+01   1.64399826E+02   1.64399826E+02  -3.96698112E+01  -4.06645088E+01   2.05064346E+02  -2.80218353E+01   2.04563370E+02  -4.05590820E+01   1.64294403E+02  -3.96698112E+01  -4.64849758E+00
             1951                1   7.77782364E+01   7.21227798E+01   7.21227798E+01  -5.69824457E+00  -5.61258698E+00   7.21227798E+01   7.21227798E+01  -5.61258698E+00  -5.69824457E+00   7.78210297E+01  -2.02706509E+01   7.77781296E+01  -5.69158125E+00   7.21161194E+01  -5.61258698E+00   7.20049620E-01
             1951                2   7.75280762E+01   7.19560165E+01   7.19560165E+01  -5.53147888E+00  -5.61258698E+00   7.19560165E+01   7.19560165E+01  -5.53147888E+00  -5.61258698E+00   7.75686035E+01  -2.02706509E+01   7.75279846E+01  -5.52516603E+00   7.19497070E+01  -5.61258698E+00   6.99189126E-01
             1951                3   7.78053360E+01   7.21408386E+01   7.21408386E+01  -5.71630192E+00  -5.61258698E+00   7.21408386E+01   7.21408386E+01  -5.61258698E+00  -5.71630192E+00   7.78571396E+01  -2.02706509E+01   7.78051834E+01  -5.71236515E+00   7.21369019E+01  -5.61258698E+00   5.53670585E-01
             1951                4   7.75552521E+01   7.19741364E+01   7.19741364E+01  -5.54960632E+00  -5.61258698E+00   7.19741364E+01   7.19741364E+01  -5.54960632E+00  -5.61258698E+00   7.75867233E+01  -2.02706470E+01   7.75551987E+01  -5.54594040E+00   7.19704742E+01  -5.61258698E+00   5.32808721E-01
             1952                1   2.12462128E+02   2.06873581E+02   2.06873581E+02  -1.22886248E+01   1.81423473E+00   2.06873581E+02   2.06873581E+02   1.81423473E+00  -1.22886248E+01   2.19162216E+02  -6.54664001E+01   2.11405167E+02  -1.20804052E+01   2.06665359E+02   1.81423473E+00   6.75217628E+00
             1952                2   2.12867905E+02   2.07031204E+02   2.07031204E+02  -1.39066992E+01   3.27467132E+00   2.07031204E+02   2.07031204E+02   3.27467132E+00  -1.39066992E+01   2.20937912E+02  -6.54663925E+01   2.11299438E+02  -1.39044571E+01   2.07028976E+02   3.27467132E+00   7.02642679E-01
             1952                3   2.13236435E+02   2.07242126E+02   2.07242126E+02  -1.44393511E+01   3.59641242E+00   2.07242126E+02   2.07242126E+02   3.59641242E+00  -1.44393511E+01   2.21681488E+02  -6.54663925E+01   2.11510162E+02  -1.38270903E+01   2.06629868E+02   3.59641242E+00   1.16341143E+01
             1952                4   2.13577713E+02   2.07341522E+02   2.07341522E+02  -1.58985796E+01   4.95623636E+00   2.07341522E+02   2.07341522E+02   4.95623636E+00  -1.58985796E+01   2.23240112E+02  -6.54663925E+01   2.11268753E+02  -1.57519512E+01   2.07194901E+02   4.95623636E+00   5.71938610E+00
             1953                1   2.06178741E+02   1.87912247E+02   1.87912247E+02  -2.16610813E+01  -1.46953697E+01   1.87912247E+02   1.87912247E+02  -1.46953697E+01  -2.16610813E+01   2.09573318E+02  -5.05185966E+01   2.05913742E+02  -2.14994526E+01   1.87750610E+02  -1.46953697E+01   5.81783199E+00
             1953                2   2.07261948E+02   1.88584244E+02   1.88584244E+02  -2.32660923E+01  -1.37623520E+01   1.88584244E+02   1.88584244E+02  -1.37623520E+01  -2.32660923E+01   2.11850327E+02  -5.05185966E+01   2.06770859E+02  -2.32152119E+01   1.88533356E+02  -1.37623520E+01   3.28282571E+00
             1953                3   2.07181641E+02   1.88527405E+02   1.88527405E+02  -2.33081360E+01  -1.36634817E+01   1.88527405E+02   1.88527405E+02  -1.36634817E+01  -2.33081360E+01   2.11835541E+02  -5.05185966E+01   2.06675659E+02  -2.29604893E+01   1.88179764E+02  -1.36634817E+01   8.57449913E+00
             1953                4   2.07988754E+02   1.89002991E+02   1.89002991E+02  -2.47508430E+01  -1.26963730E+01   1.89002991E+02   1.89002991E+02  -1.26963730E+01  -2.47508430E+01   2.13753830E+02  -5.05185966E+01   2.07200623E+02  -2.45812511E+01   1.88833405E+02  -1.26963730E+01   6.01845026E+00
             1954                1   7.55566177E+01   7.01424561E+01   7.01424561E+01  -5.45864677E+00  -5.36960125E+00   7.01424561E+01   7.01424561E+01  -5.36960125E+00  -5.45864677E+00   7.56010971E+01  -1.97714024E+01   7.55564957E+01  -5.45227289E+00   7.01360779E+01  -5.36960125E+00   6.94266617E-01
             1954                2   7.52959671E+01   6.99686890E+01   6.99686890E+01  -5.28488159E+00  -5.36960125E+00   6.99686890E+01   6.99686890E+01  -5.28488159E+00  -5.36960125E+00   7.53382874E+01  -1.97714024E+01   7.52958603E+01  -5.27883959E+00   6.99626465E+01  -5.36960125E+00   6.74290359E-01
             1954                3   7.55822754E+01   7.01595459E+01   7.01595459E+01  -5.47573948E+00  -5.36960125E+00   7.01595459E+01   7.01595459E+01  -5.36960125E+00  -5.47573948E+00   7.56352844E+01  -1.97714024E+01   7.55821075E+01  -5.47215605E+00   7.01559601E+01  -5.36960125E+00   5.20845592E-01
             1954                4   7.53217468E+01   6.99858856E+01   6.99858856E+01  -5.30207682E+00  -5.36960125E+00   6.99858856E+01   6.99858856E+01  -5.30207682E+00  -5.36960125E+00   7.53554840E+01  -1.97714024E+01   7.53216782E+01  -5.29874611E+00   6.99825516E+01  -5.36960125E+00   5.00880778E-01
             1955                1   1.23286903E+02   1.47573364E+02   1.47573364E+02   2.31621647E+01   2.54423885E+01   1.47573364E+02   1.47573364E+02   2.54423885E+01   2.31621647E+01   1.24411201E+02  -6.53926392E+01   1.23239456E+02   2.40517292E+01   1.46683807E+02   2.54423885E+01   1.04823723E+01
             1955                2   1.23322189E+02   1.47596680E+02   1.47596680E+02   2.31388569E+01   2.54423885E+01   1.47596680E+02   1.47596680E+02   2.54423885E+01   2.31388569E+01   1.24457817E+02  -6.53926392E+01   1.23273773E+02   2.40891876E+01   1.46646347E+02   2.54423885E+01   1.08338757E+01
             1955                3   1.22753189E+02   1.47220535E+02   1.47220535E+02   2.35149994E+01   2.54423885E+01   1.47220535E+02   1.47220535E+02   2.54423885E+01   2.35149994E+01   1.23705536E+02  -6.53926392E+01   1.22719139E+02   2.43991985E+01   1.46336334E+02   2.54423885E+01   1.04210672E+01
             1955                4   1.22786697E+02   1.47242691E+02   1.47242691E+02   2.34928226E+01   2.54423885E+01   1.47242691E+02   1.47242691E+02   2.54423885E+01   2.34928226E+01   1.23749878E+02  -6.53926315E+01   1.22751877E+02   2.44378071E+01   1.46297714E+02   2.54423885E+01   1.07725821E+01
             1956                1   3.78266411E+01   3.05617847E+01   3.05617847E+01  -2.77137446E+00  -1.05492210E+01   3.05617847E+01   3.05617847E+01  -2.77137446E+00  -1.05492210E+01   4.11110077E+01  -5.74706316E+00   3.59609032E+01   1.85335410E+00   2.59370575E+01  -1.05492210E+01   1.15225296E+01
             1956                2   3.70890579E+01   2.99997425E+01   2.99997425E+01  -2.20933151E+00  -1.05492210E+01   2.99997425E+01   2.99997425E+01  -2.20933151E+00  -1.05492210E+01   4.05489616E+01  -5.74706316E+00   3.48845253E+01   2.47300220E+00   2.53174095E+01  -1.05492210E+01   1.13529453E+01
             1956                3   3.74144440E+01   3.02487049E+01   3.02487049E+01  -2.45829320E+00  -1.05492210E+01   3.02487049E+01   3.02487049E+01  -2.45829320E+00  -1.05492210E+01   4.07979240E+01  -5.74706316E+00   3.53648376E+01   1.65011024E+00   2.61403008E+01  -1.05492210E+01   1.08394909E+01
             1956                4   3.66701279E+01   2.96767159E+01   2.96767159E+01  -1.88630533E+00  -1.05492210E+01   2.96767159E+01   2.96767159E+01  -1.88630533E+00  -1.05492210E+01   4.02259369E+01  -5.74706316E+00   3.42524529E+01   2.27324295E+00   2.55171680E+01  -1.05492210E+01   1.06764259E+01
             1957                1   7.30663071E+01   6.80612335E+01   6.80612335E+01  -4.96100569E+00  -5.04906607E+00   6.80612335E+01   6.80612335E+01  -4.96100569E+00  -5.04906607E+00   7.31102982E+01  -1.93503876E+01   7.30661850E+01  -4.95521545E+00   6.80554428E+01  -5.04906607E+00   6.50217831E-01
             1957                2   7.30904999E+01   6.80773697E+01   6.80773697E+01  -4.97714138E+00  -5.04906607E+00   6.80773697E+01   6.80773697E+01  -4.97714138E+00  -5.04906607E+00   7.31264343E+01  -1.93503876E+01   7.30904160E+01  -4.97411203E+00   6.80743408E+01  -5.04906607E+00   4.70296115E-01
             1957                3   7.33367081E+01   6.82415009E+01   6.82415009E+01  -5.14126682E+00  -5.04906607E+00   6.82415009E+01   6.82415009E+01  -5.04906607E+00  -5.14126682E+00   7.33827667E+01  -1.93503895E+01   7.33365784E+01  -5.13516474E+00   6.82353973E+01  -5.04906607E+00   6.69166803E-01
             1957                4   7.33608093E+01   6.82575607E+01   6.82575607E+01  -5.15732670E+00  -5.04906607E+00   6.82575607E+01   6.82575607E+01  -5.04906607E+00  -5.15732670E+00   7.34148865E+01  -1.93503895E+01   7.33606262E+01  -5.15406561E+00   6.82542953E+01  -5.04906607E+00   4.89248991E-01
             1958                1   2.80361843E+01   3.86485214E+01   3.86485214E+01   9.69559669E+00   1.16291780E+01   3.86485214E+01   3.86485214E+01   1.16291780E+01   9.69559669E+00   2.89529228E+01  -1.99910984E+01   2.78855782E+01   1.22993097E+01   3.60448074E+01   1.16291780E+01   8.28285980E+00
             1958                2   2.79531269E+01   3.85948830E+01   3.85948830E+01   9.74923420E+00   1.16291780E+01   3.85948830E+01   3.85948830E+01   1.16291780E+01   9.74923420E+00   2.88456478E+01  -1.99910984E+01   2.78103657E+01   1.22267685E+01   3.61173477E+01   1.16291780E+01   8.08256721E+00
             1958                3   2.83564415E+01   3.88549728E+01   3.88549728E+01   9.48914337E+00   1.16291780E+01   3.88549728E+01   3.88549728E+01   1.16291780E+01   9.48914337E+00   2.93658295E+01  -1.99910984E+01   2.81739025E+01   1.20987263E+01   3.62453918E+01   1.16291780E+01   8.35599327E+00
             1958                4   2.82742271E+01   3.88020287E+01   3.88020287E+01   9.54209042E+00   1.16291780E+01   3.88020287E+01   3.88020287E+01   1.16291780E+01   9.54209042E+00   2.92599392E+01  -1.99910984E+01   2.81001358E+01   1.20263052E+01   3.63178139E+01   1.16291780E+01   8.15577602E+00
             1959                1   2.16480911E+02   1.54157135E+02   1.54157135E+02  -6.62827225E+01  -5.81347427E+01   1.54157135E+02   1.54157135E+02  -5.81347427E+01  -6.62827225E+01   2.20439865E+02  -9.91322613E+00   2.16135498E+02  -6.62775116E+01   1.54151932E+02  -5.81347427E+01   1.07174754E+00
             1959                2   2.15982849E+02   1.53896683E+02   1.53896683E+02  -6.31296997E+01  -6.10272942E+01   1.53896683E+02   1.53896683E+02  -6.10272942E+01  -6.31296997E+01   2.17026382E+02  -9.91322708E+00   2.15959824E+02  -6.30574875E+01   1.53824463E+02  -6.10272942E+01   3.95805621E+00
             1959                3   2.16192062E+02   1.54004959E+02   1.54004959E+02  -6.49343338E+01  -5.93309441E+01   1.54004959E+02   1.54004959E+02  -5.93309441E+01  -6.49343338E+01   2.18939285E+02  -9.91322422E+00   2.16028580E+02  -6.48170319E+01   1.53887650E+02  -5.93309441E+01  -5.06639338E+00
             1959                4   2.15420029E+02   1.53525955E+02   1.53525955E+02  -6.15282669E+01  -6.22580261E+01   1.53525955E+02   1.53525955E+02  -6.15282669E+01  -6.22580261E+01   2.15783981E+02  -9.91322327E+00   2.15417252E+02  -6.15033073E+01   1.53501007E+02  -6.22580261E+01  -2.31643105E+00
             1960                1   2.17821228E+02   1.74396957E+02   1.74396957E+02  -4.90985374E+01  -3.72677765E+01   1.74396957E+02   1.74396957E+02  -3.72677765E+01  -4.90985374E+01   2.23495499E+02  -2.93435497E+01   2.17096588E+02  -4.90926590E+01   1.74391083E+02  -3.72677765E+01  -1.14650607E+00
             1960                2   2.18313461E+02   1.74512970E+02   1.74512970E+02  -5.22579842E+01  -3.42243347E+01   1.74512970E+02   1.74512970E+02  -3.42243347E+01  -5.22579842E+01   2.26770950E+02  -2.93435497E+01   2.16628189E+02  -5.20646896E+01   1.74319672E+02  -3.42243347E+01  -6.61782408E+00
             1960                3   2.18086884E+02   1.74401566E+02   1.74401566E+02  -5.17054367E+01  -3.46654892E+01   1.74401566E+02   1.74401566E+02  -3.46654892E+01  -5.17054367E+01   2.26107010E+02  -2.93435497E+01   2.16581558E+02  -5.15923042E+01   1.74288437E+02  -3.46654892E+01   5.05648136E+00
             1960                4   2.18547104E+02   1.74452118E+02   1.74452118E+02  -5.45497437E+01  -3.18717308E+01   1.74452118E+02   1.74452118E+02  -3.18717308E+01  -5.45497437E+01   2.29001862E+02  -2.93435459E+01   2.15876144E+02  -5.45488396E+01   1.74451218E+02  -3.18717308E+01  -4.54362273E-01
             1961                1   3.60182991E+01   3.29656639E+01   3.29656639E+01  -6.99399590E-01  -5.01670122E+00   3.29656639E+01   3.29656639E+01  -6.99399590E-01  -5.01670122E+00   3.79823685E+01  -9.08318806E+00   3.54291611E+01   3.31574738E-01   3.19346905E+01  -5.01670122E+00   5.80042505E+00
             1961                2   3.56067810E+01   3.26712456E+01   3.26712456E+01  -4.04979706E-01  -5.01670122E+00   3.26712456E+01   3.26712456E+01  -4.04979706E-01  -5.01670122E+00   3.76879463E+01  -9.08318806E+00   3.49253922E+01   6.21145666E-01   3.16451187E+01  -5.01670122E+00   5.73475695E+00
             1961                3   3.59733734E+01   3.29336128E+01   3.29336128E+01  -6.67345285E-01  -5.01670122E+00   3.29336128E+01   3.29336128E+01  -6.67345285E-01  -5.01670122E+00   3.79503136E+01  -9.08318806E+00   3.53745804E+01   2.62264580E-01   3.20040016E+01  -5.01670122E+00   5.51104307E+00
             1961                4   3.55610199E+01   3.26383934E+01   3.26383934E+01  -3.72127056E-01  -5.01670122E+00   3.26383934E+01   3.26383934E+01  -3.72127056E-01  -5.01670122E+00   3.76550941E+01  -9.08318806E+00   3.48688354E+01   5.52075148E-01   3.17141895E+01  -5.01670122E+00   5.44557190E+00
             1962                1   7.11198273E+01   6.64164963E+01   6.64164963E+01  -4.75084639E+00  -4.65572405E+00   6.64164963E+01   6.64164963E+01  -4.65572405E+00  -4.75084639E+00   7.11673431E+01  -1.90033092E+01   7.11196823E+01  -4.74500132E+00   6.64106522E+01  -4.65572405E+00   6.44849658E-01
             1962                2   7.08406219E+01   6.62303619E+01   6.62303619E+01  -4.56471252E+00  -4.65572405E+00   6.62303619E+01   6.62303619E+01  -4.56471252E+00  -4.65572405E+00   7.08860855E+01  -1.90033092E+01   7.08404922E+01  -4.55916595E+00   6.62248154E+01  -4.65572405E+00   6.26613200E-01
             1962                3   7.11427917E+01   6.64317932E+01   6.64317932E+01  -4.76614189E+00  -4.65572405E+00   6.64317932E+01   6.64317932E+01  -4.65572405E+00  -4.76614189E+00   7.11979370E+01  -1.90033092E+01   7.11425934E+01  -4.76318026E+00   6.64288330E+01  -4.65572405E+00   4.59078521E-01
             1962                4   7.08636322E+01   6.62457123E+01   6.62457123E+01  -4.58005238E+00  -4.65572405E+00   6.62457123E+01   6.62457123E+01  -4.58005238E+00  -4.65572405E+00   7.09014359E+01  -1.90033112E+01   7.08635330E+01  -4.57731056E+00   6.62429657E+01  -4.65572405E+00   4.40824270E-01
             1963                1   5.32771225E+01   4.69025421E+01   4.69025421E+01  -4.25019598E+00  -8.27112103E+00   4.69025421E+01   4.69025421E+01  -4.25019598E+00  -8.27112103E+00   5.51736641E+01  -1.14604082E+01   5.29341316E+01  -2.75469720E-01   4.29278183E+01  -8.27112103E+00   1.36937809E+01
             1963                2   5.28556328E+01   4.66093559E+01   4.66093559E+01  -3.95700979E+00  -8.27112103E+00   4.66093559E+01   4.66093559E+01  -3.95700979E+00  -8.27112103E+00   5.48804779E+01  -1.14604082E+01   5.24573288E+01  -2.90957719E-01   4.29433060E+01  -8.27112103E+00   1.31125498E+01
             1963                3   5.39457359E+01   4.73655205E+01   4.73655205E+01  -4.71316862E+00  -8.27112103E+00   4.73655205E+01   4.73655205E+01  -4.71316862E+00  -8.27112103E+00   5.56366425E+01  -1.14604101E+01   5.36808014E+01  -8.30986738E-01   4.34833374E+01  -8.27112103E+00   1.36787291E+01
             1963                4   5.35275078E+01   4.70762177E+01   4.70762177E+01  -4.42386913E+00  -8.27112103E+00   4.70762177E+01   4.70762177E+01  -4.42386913E+00  -8.27112103E+00   5.53473396E+01  -1.14604082E+01   5.32151070E+01  -8.43063653E-01   4.34954109E+01  -8.27112103E+00   1.30992231E+01
             1964                1   2.01479019E+02   1.80510605E+02   1.80510605E+02  -2.39133186E+01  -1.78883629E+01   1.80510605E+02   1.80510605E+02  -1.78883629E+01  -2.39133186E+01   2.04423920E+02  -4.62363091E+01   2.01276184E+02  -2.38006325E+01   1.80397919E+02  -1.78883629E+01   4.79831409E+00
             1964                2   2.00829239E+02   1.80097488E+02   1.80097488E+02  -2.29340363E+01  -1.84545212E+01   1.80097488E+02   1.80097488E+02  -1.84545212E+01  -2.29340363E+01   2.03031525E+02  -4.62363091E+01   2.00716797E+02  -2.27142887E+01   1.79877747E+02  -1.84545212E+01   6.67579603E+00
             1964                3   2.00823486E+02   1.80097672E+02   1.80097672E+02  -2.27460976E+01  -1.86426449E+01   1.80097672E+02   1.80097672E+02  -1.86426449E+01  -2.27460976E+01   2.02843765E+02  -4.62363129E+01   2.00729126E+02  -2.26982841E+01   1.80049866E+02  -1.86426449E+01   3.11374664E+00
             1964                4   1.99937454E+02   1.79520065E+02   1.79520065E+02  -2.16608677E+01  -1.91502705E+01   1.79520065E+02   1.79520065E+02  -1.91502705E+01  -2.16608677E+01   2.01180923E+02  -4.62363091E+01   1.99901978E+02  -2.15367546E+01   1.79395950E+02  -1.91502705E+01   4.99530315E+00
             1965                1   3.49513321E+01   3.99784889E+01   3.99784889E+01   3.28276992E+00   7.08195448E+00   3.99784889E+01   3.99784889E+01   7.08195448E+00   3.28276992E+00   3.66957169E+01  -1.67810707E+01   3.44821930E+01   5.89556885E+00   3.73656883E+01   7.08195448E+00   9.43672657E+00
             1965                2   3.50784302E+01   4.00591621E+01   4.00591621E+01   3.20209980E+00   7.08195448E+00   4.00591621E+01   4.00591621E+01   7.08195448E+00   3.20209980E+00   3.68570595E+01  -1.67810726E+01   3.45907555E+01   5.69537973E+00   3.75658798E+01   7.08195448E+00   9.25627041E+00
             1965                3   3.53410492E+01   4.02256622E+01   4.02256622E+01   3.03559613E+00   7.08195448E+00   4.02256622E+01   4.02256622E+01   7.08195448E+00   3.03559613E+00   3.71900635E+01  -1.67810707E+01   3.48141747E+01   5.72270346E+00   3.75385551E+01   7.08195448E+00   9.62876606E+00
             1965                4   3.54664841E+01   4.03050995E+01   4.03050995E+01   2.95615745E+00   7.08195448E+00   4.03050995E+01   4.03050995E+01   7.08195448E+00   2.95615745E+00   3.73489418E+01  -1.67810707E+01   3.49204636E+01   5.52394819E+00   3.77373085E+01   7.08195448E+00   9.45043564E+00
             1966                1   3.80007935E+01   3.31340714E+01   3.31340714E+01  -1.70011032E+00  -7.39135599E+00   3.31340714E+01   3.31340714E+01  -1.70011032E+00  -7.39135599E+00   4.05254250E+01  -8.01420116E+00   3.70237312E+01   1.43666267E-01   3.12902946E+01  -7.39135599E+00   7.79916048E+00
             1966                2   3.74858170E+01   3.27580223E+01   3.27580223E+01  -1.32405937E+00  -7.39135599E+00   3.27580223E+01   3.27580223E+01  -1.32405937E+00  -7.39135599E+00   4.01493759E+01  -8.01420212E+00   3.63564377E+01   5.37264168E-01   3.08966980E+01  -7.39135599E+00   7.74423933E+00
             1966                3   3.78491135E+01   3.30236282E+01   3.30236282E+01  -1.58966577E+00  -7.39135599E+00   3.30236282E+01   3.30236282E+01  -1.58966577E+00  -7.39135599E+00   4.04149818E+01  -8.01420212E+00   3.68287544E+01   7.11197555E-02   3.13628426E+01  -7.39135599E+00   7.39777231E+00
             1966                4   3.73310509E+01   3.26443939E+01   3.26443939E+01  -1.21043277E+00  -7.39135599E+00   3.26443939E+01   3.26443939E+01  -1.21043277E+00  -7.39135599E+00   4.00357513E+01  -8.01420212E+00   3.61528664E+01   4.65011746E-01   3.09689503E+01  -7.39135599E+00   7.34266758E+00
             1967                1   7.98369827E+01   7.37677612E+01   7.37677612E+01  -5.59946442E+00  -6.53082228E+00   7.37677612E+01   7.37677612E+01  -5.59946442E+00  -6.53082228E+00   8.02985840E+01  -2.05458241E+01   7.98247528E+01  -3.49987388E+00   7.16681671E+01  -6.53082228E+00   1.27369804E+01
             1967                2   8.04285736E+01   7.41639862E+01   7.41639862E+01  -5.99568939E+00  -6.53082228E+00   7.41639862E+01   7.41639862E+01  -5.99568939E+00  -6.53082228E+00   8.06948090E+01  -2.05458241E+01   8.04245758E+01  -3.94909644E+00   7.21173935E+01  -6.53082228E+00   1.26437998E+01
             1967                3   8.01811676E+01   7.39984055E+01   7.39984055E+01  -5.83011055E+00  -6.53082228E+00   7.39984055E+01   7.39984055E+01  -5.83011055E+00  -6.53082228E+00   8.05292282E+01  -2.05458241E+01   8.01742783E+01  -3.58721447E+00   7.17555084E+01  -6.53082228E+00   1.31915388E+01
             1967                4   8.07699356E+01   7.43921585E+01   7.43921585E+01  -6.22386217E+00  -6.53082228E+00   7.43921585E+01   7.43921585E+01  -6.22386217E+00  -6.53082228E+00   8.09229813E+01  -2.05458241E+01   8.07686234E+01  -4.03661394E+00   7.22049103E+01  -6.53082228E+00   1.30974512E+01
             1968                1   2.20000000E+02   1.69592850E+02   1.69592850E+02  -5.53025131E+01  -4.51610413E+01   1.69592850E+02   1.69592850E+02  -4.51610413E+01  -5.53025131E+01   2.24895355E+02  -2.30430965E+01   2.19473160E+02  -5.52653503E+01   1.69555679E+02  -4.51610413E+01   2.89079237E+00
             1968                2   2.20000000E+02   1.69388840E+02   1.69388840E+02  -5.85278397E+01  -4.17316971E+01   1.69388840E+02   1.69388840E+02  -4.17316971E+01  -5.85278397E+01   2.27916672E+02  -2.30430984E+01   2.18550491E+02  -5.84977150E+01   1.69358704E+02  -4.17316971E+01  -2.62034130E+00
             1968                3   2.20000000E+02   1.69433197E+02   1.69433197E+02  -5.79484138E+01  -4.23555031E+01   1.69433197E+02   1.69433197E+02  -4.23555031E+01  -5.79484138E+01   2.27381607E+02  -2.30430965E+01   2.18751541E+02  -5.75351448E+01   1.69019928E+02  -4.23555031E+01   9.68502426E+00
             1968                4   2.20000000E+02   1.69179413E+02   1.69179413E+02  -6.08171005E+01  -3.92330093E+01   1.69179413E+02   1.69179413E+02  -3.92330093E+01  -6.08171005E+01   2.29996506E+02  -2.30430984E+01   2.17598755E+02  -6.07442055E+01   1.69106506E+02  -3.92330093E+01   4.09405327E+00
             1969                1   9.78102875E+01   9.51303406E+01   9.51303406E+01  -2.72255206E+00  -2.63727927E+00   9.51303406E+01   9.51303406E+01  -2.63727927E+00  -2.72255206E+00   9.78528976E+01  -2.99235058E+01   9.78102036E+01  -2.32076716E+00   9.47285614E+01  -2.63727927E+00   6.25732183E+00
             1969                2   9.79107513E+01   9.51972809E+01   9.51972809E+01  -2.78948951E+00  -2.63727927E+00   9.51972809E+01   9.51972809E+01  -2.63727927E+00  -2.78948951E+00   9.79867706E+01  -2.99235058E+01   9.79104843E+01  -2.36594510E+00   9.47737350E+01  -2.63727927E+00   6.42825556E+00
             1969                3   9.75651703E+01   9.49669418E+01   9.49669418E+01  -2.55913949E+00  -2.63727927E+00   9.49669418E+01   9.49669418E+01  -2.55913949E+00  -2.63727927E+00   9.76042175E+01  -2.99235077E+01   9.75650940E+01  -2.15027857E+00   9.45580750E+01  -2.63727927E+00   6.30140209E+00
             1969                4   9.76658707E+01   9.50340881E+01   9.50340881E+01  -2.62629414E+00  -2.63727927E+00   9.50340881E+01   9.50340881E+01  -2.62629414E+00  -2.63727927E+00   9.76713638E+01  -2.99235058E+01   9.76658707E+01  -2.19543934E+00   9.46032333E+01  -2.63727927E+00   6.47236586E+00
             1970                1   6.89087143E+01   6.46652756E+01   6.46652756E+01  -4.29228306E+00  -4.19448090E+00   6.46652756E+01   6.46652756E+01  -4.19448090E+00  -4.29228306E+00   6.89575577E+01  -1.87261715E+01   6.89085541E+01  -4.28668261E+00   6.46596756E+01  -4.19448090E+00   6.21448100E-01
             1970                2   6.86214828E+01   6.44737930E+01   6.44737930E+01  -4.10079813E+00  -4.19448090E+00   6.44737930E+01   6.44737930E+01  -4.10079813E+00  -4.19448090E+00   6.86682739E+01  -1.87261715E+01   6.86213379E+01  -4.09547472E+00   6.44684677E+01  -4.19448090E+00   6.04191422E-01
             1970                3   6.89300537E+01   6.46794968E+01   6.46794968E+01  -4.30649948E+00  -4.19448090E+00   6.46794968E+01   6.46794968E+01  -4.19448090E+00  -4.30649948E+00   6.89860001E+01  -1.87261715E+01   6.89298477E+01  -4.30381489E+00   6.46768112E+01  -4.19448090E+00   4.30269748E-01
             1970                4   6.86429596E+01   6.44881210E+01   6.44881210E+01  -4.11512709E+00  -4.19448090E+00   6.44881210E+01   6.44881210E+01  -4.11512709E+00  -4.19448090E+00   6.86826019E+01  -1.87261715E+01   6.86428604E+01  -4.11263847E+00   6.44856339E+01  -4.19448090E+00   4.13023859E-01
             1971                1   2.01475754E+02   1.56368210E+02   1.56368210E+02  -4.62320557E+01  -4.39638786E+01   1.56368210E+02   1.56368210E+02  -4.39638786E+01  -4.62320557E+01   2.02600266E+02  -2.20574245E+01   2.01447021E+02  -4.62320404E+01   1.56368195E+02  -4.39638786E+01  -5.70220239E-02
             1971                2   2.00745041E+02   1.55881958E+02   1.55881958E+02  -4.38063202E+01  -4.59033775E+01   1.55881958E+02   1.55881958E+02  -4.38063202E+01  -4.59033775E+01   2.01785339E+02  -2.20574245E+01   2.00720383E+02  -4.38053055E+01   1.55880951E+02  -4.59033775E+01   4.50789571E-01
             1971                3   2.01398438E+02   1.56318680E+02   1.56318680E+02  -4.60116539E+01  -4.41347427E+01   1.56318680E+02   1.56318680E+02  -4.41347427E+01  -4.60116539E+01   2.02330322E+02  -2.20574265E+01   2.01378754E+02  -4.59163513E+01   1.56223373E+02  -4.41347427E+01  -4.39015484E+00
             1971                4   2.00660660E+02   1.55823303E+02   1.55823303E+02  -4.35664749E+01  -4.60845490E+01   1.55823303E+02   1.55823303E+02  -4.35664749E+01  -4.60845490E+01   2.01907852E+02  -2.20574245E+01   2.00625107E+02  -4.34883919E+01   1.55745209E+02  -4.60845490E+01  -3.94509673E+00
             1972                1   5.53624878E+01   5.27815590E+01   5.27815590E+01  -2.15520239E+00  -2.99704576E+00   5.27815590E+01   5.27815590E+01  -2.15520239E+00  -2.99704576E+00   5.57786064E+01  -1.58764372E+01   5.53480835E+01  -8.21081042E-01   5.14474373E+01  -2.99704576E+00   8.45650768E+00
             1972                2   5.56496010E+01   5.29742775E+01   5.29742775E+01  -2.34792280E+00  -2.99704576E+00   5.29742775E+01   5.29742775E+01  -2.34792280E+00  -2.99704576E+00   5.59713211E+01  -1.58764353E+01   5.56410828E+01  -1.07148254E+00   5.16978378E+01  -2.99704576E+00   8.30578899E+00
             1972                3   5.56895714E+01   5.30010796E+01   5.30010796E+01  -2.37472177E+00  -2.99704576E+00   5.30010796E+01   5.30010796E+01  -2.37472177E+00  -2.99704576E+00   5.59981270E+01  -1.58764372E+01   5.56817474E+01  -9.68171537E-01   5.15945282E+01  -2.99704576E+00   8.71266556E+00
             1972                4   5.59797058E+01   5.31954231E+01   5.31954231E+01  -2.56906819E+00  -2.99704576E+00   5.31954231E+01   5.31954231E+01  -2.56906819E+00  -2.99704576E+00   5.61924667E+01  -1.58764353E+01   5.59760284E+01  -1.22054935E+00   5.18469048E+01  -2.99704576E+00   8.56626511E+00
             1973                1   5.46738853E+01   5.19783096E+01   5.19783096E+01  -2.32450676E+00  -3.05923724E+00   5.19783096E+01   5.19783096E+01  -2.32450676E+00  -3.05923724E+00   5.50375481E+01  -1.55315218E+01   5.46627769E+01  -7.68928766E-01   5.04227333E+01  -3.05923724E+00   9.05828094E+00
             1973                2   5.43292656E+01   5.17467384E+01   5.17467384E+01  -2.09293246E+00  -3.05923724E+00   5.17467384E+01   5.17467384E+01  -2.09293246E+00  -3.05923724E+00   5.48059731E+01  -1.55315218E+01   5.43099289E+01  -6.24446094E-01   5.02782516E+01  -3.05923724E+00   8.76962566E+00
             1973                3   5.49815483E+01   5.21846199E+01   5.21846199E+01  -2.53081131E+00  -3.05923724E+00   5.21846199E+01   5.21846199E+01  -2.53081131E+00  -3.05923724E+00   5.52438583E+01  -1.55315237E+01   5.49758339E+01  -1.03958309E+00   5.06933899E+01  -3.05923724E+00   8.90895748E+00
             1973                4   5.46348000E+01   5.19520721E+01   5.19520721E+01  -2.29826808E+00  -3.05923724E+00   5.19520721E+01   5.19520721E+01  -2.29826808E+00  -3.05923724E+00   5.50113106E+01  -1.55315218E+01   5.46228752E+01  -8.93771172E-01   5.05475769E+01  -3.05923724E+00   8.61520576E+00
             1974                1   2.05820038E+02   1.59104553E+02   1.59104553E+02  -4.94490089E+01  -4.38684578E+01   1.59104553E+02   1.59104553E+02  -4.38684578E+01  -4.94490089E+01   2.08553558E+02  -2.19290257E+01   2.05649719E+02  -4.94407883E+01   1.59096329E+02  -4.38684578E+01  -1.30963564E+00
             1974                2   2.05165894E+02   1.58705215E+02   1.58705215E+02  -4.69258041E+01  -4.59923401E+01   1.58705215E+02   1.58705215E+02  -4.59923401E+01  -4.69258041E+01   2.05631027E+02  -2.19290257E+01   2.05161102E+02  -4.69237976E+01   1.58703217E+02  -4.59923401E+01   6.42162740E-01
             1974                3   2.05521484E+02   1.58925079E+02   1.58925079E+02  -4.85069084E+01  -4.46310768E+01   1.58925079E+02   1.58925079E+02  -4.46310768E+01  -4.85069084E+01   2.07431976E+02  -2.19290314E+01   2.05439224E+02  -4.83358917E+01   1.58754059E+02  -4.46310768E+01  -5.95354891E+00
             1974                4   2.04841705E+02   1.58489151E+02   1.58489151E+02  -4.58961716E+01  -4.68059044E+01   1.58489151E+02   1.58489151E+02  -4.58961716E+01  -4.68059044E+01   2.05295059E+02  -2.19290257E+01   2.04837173E+02  -4.58150635E+01   1.58408051E+02  -4.68059044E+01  -4.07066917E+00
             1975                1   2.17325668E+02   2.19314209E+02   2.19314209E+02  -1.14383001E+01   1.85248470E+01   2.19314209E+02   2.19314209E+02   1.85248470E+01  -1.14383001E+01   2.30752518E+02  -7.54669189E+01   2.12604050E+02  -1.10265713E+01   2.18902481E+02   1.85248470E+01   9.73855019E+00
             1975                2   2.16999329E+02   2.19351746E+02   2.19351746E+02  -9.47937775E+00   1.65283680E+01   2.19351746E+02   2.19351746E+02   1.65283680E+01  -9.47937775E+00   2.28831131E+02  -7.54669113E+01   2.13450684E+02  -9.39769936E+00   2.19270081E+02   1.65283680E+01   4.32233095E+00
             1975                3   2.17608459E+02   2.19209915E+02   2.19209915E+02  -1.33734579E+01   2.05642891E+01   2.19209915E+02   2.19209915E+02   2.05642891E+01  -1.33734579E+01   2.32583374E+02  -7.54669113E+01   2.11531311E+02  -1.32741623E+01   2.19110626E+02   2.05642891E+01   4.80447578E+00
             1975                4   2.17310226E+02   2.19277679E+02   2.19277679E+02  -1.16072454E+01   1.87303028E+01   2.19277679E+02   2.19277679E+02   1.87303028E+01  -1.16072454E+01   2.30884933E+02  -7.54669113E+01   2.12467560E+02  -1.16056662E+01   2.19276108E+02   1.87303028E+01  -6.03584945E-01
             1976                1   2.20000000E+02   2.37114410E+02   2.37114410E+02  -5.03500748E+00   4.95359879E+01   2.37114410E+02   2.37114410E+02   4.95359879E+01  -5.03500748E+00   2.42149429E+02  -9.38717957E+01   2.03921158E+02  -5.03474569E+00   2.37114151E+02   4.95359879E+01   2.52472430E-01
             1976                2   2.20000000E+02   2.36469238E+02   2.36469238E+02  -7.13907909E+00   5.22852325E+01   2.36469238E+02   2.36469238E+02   5.22852325E+01  -7.13907909E+00   2.43608307E+02  -9.38717957E+01   2.00719193E+02  -6.87195730E+00   2.36202118E+02   5.22852325E+01  -8.06227016E+00
             1976                3   2.20000000E+02   2.36353424E+02   2.36353424E+02  -7.49496126E+00   5.27569275E+01   2.36353424E+02   2.36353424E+02   5.27569275E+01  -7.49496126E+00   2.43848389E+02  -9.38717957E+01   2.00137756E+02  -7.29293871E+00   2.36151398E+02   5.27569275E+01   7.01585531E+00
             1976                4   2.20000000E+02   2.35748245E+02   2.35748245E+02  -9.26331806E+00   5.51304626E+01   2.35748245E+02   2.35748245E+02   5.51304626E+01  -9.26331806E+00   2.45011566E+02  -9.38717957E+01   1.97064514E+02  -9.25750065E+00   2.35742432E+02   5.51304626E+01  -1.19318295E+00
             1977                1   2.20000000E+02   1.97312500E+02   1.97312500E+02  -3.59907608E+01  -6.38617659E+00   1.97312500E+02   1.97312500E+02  -6.38617659E+00  -3.59907608E+01   2.33303268E+02  -5.16451912E+01   2.15450241E+02  -3.52425385E+01   1.96564285E+02  -6.38617659E+00   1.31910086E+01
             1977                2   2.20000000E+02   1.97584671E+02   1.97584671E+02  -3.39571419E+01  -8.69196606E+00   1.97584671E+02   1.97584671E+02  -8.69196606E+00  -3.39571419E+01   2.31541809E+02  -5.16451874E+01   2.16700043E+02  -3.36325226E+01   1.97260056E+02  -8.69196606E+00   8.66357422E+00
             1977                3   2.20000000E+02   1.97049393E+02   1.97049393E+02  -3.76866684E+01  -4.42713833E+00   1.97049393E+02   1.97049393E+02  -4.42713833E+00  -3.76866684E+01   2.34736053E+02  -5.16451912E+01   2.14234085E+02  -3.73826485E+01   1.96745361E+02  -4.42713833E+00   8.44233704E+00
             1977                4   2.20000000E+02   1.97336197E+02   1.97336197E+02  -3.58266525E+01  -6.57398033E+00   1.97336197E+02   1.97336197E+02  -6.57398033E+00  -3.58266525E+01   2.33162857E+02  -5.16451912E+01   2.15559387E+02  -3.57586060E+01   1.97268158E+02  -6.57398033E+00   3.98259449E+00
             1978                1   2.07159821E+02   1.70075806E+02   1.70075806E+02  -3.87710266E+01  -3.53547325E+01   1.70075806E+02   1.70075806E+02  -3.53547325E+01  -3.87710266E+01   2.08846832E+02  -3.19833469E+01   2.07096420E+02  -3.86583595E+01   1.69963135E+02  -3.53547325E+01  -4.84959698E+00
             1978                2   2.07850159E+02   1.70471909E+02   1.70471909E+02  -4.12923088E+01  -3.32295570E+01   1.70471909E+02   1.70471909E+02  -3.32295570E+01  -4.12923088E+01   2.11764206E+02  -3.19833469E+01   2.07497864E+02  -4.09960289E+01   1.70175629E+02  -3.32295570E+01  -7.91535759E+00
             1978                3   2.07671890E+02   1.70382614E+02   1.70382614E+02  -4.03950157E+01  -3.40375519E+01   1.70382614E+02   1.70382614E+02  -3.40375519E+01  -4.03950157E+01   2.10777634E+02  -3.19833469E+01   2.07452774E+02  -4.03944702E+01   1.70382065E+02  -3.40375519E+01  -3.39649379E-01
             1978                4   2.08325256E+02   1.70727005E+02   1.70727005E+02  -4.27847366E+01  -3.19922237E+01   1.70727005E+02   1.70727005E+02  -3.19922237E+01  -4.27847366E+01   2.13511734E+02  -3.19833450E+01   2.07694870E+02  -4.27288666E+01   1.70671127E+02  -3.19922237E+01  -3.45342612E+00
             1979                1   4.03259087E+01   3.49990997E+01   3.49990997E+01  -2.28182960E+00  -7.80286789E+00   3.49990997E+01   3.49990997E+01  -2.28182960E+00  -7.80286789E+00   4.28019676E+01  -8.30480099E+00   3.94621658E+01   4.99049909E-02   3.26673660E+01  -7.80286789E+00   9.02730370E+00
             1979                2   3.97640266E+01   3.45923004E+01   3.45923004E+01  -1.87503123E+00  -7.80286789E+00   3.45923004E+01   3.45923004E+01  -1.87503123E+00  -7.80286789E+00   4.23951683E+01  -8.30480099E+00   3.87512245E+01   4.81185913E-01   3.22360840E+01  -7.80286789E+00   8.96510983E+00
             1979                3   4.01249275E+01   3.48539619E+01   3.48539619E+01  -2.13669324E+00  -7.80286789E+00   3.48539619E+01   3.48539619E+01  -2.13669324E+00  -7.80286789E+00   4.26568298E+01  -8.30480099E+00   3.92096825E+01  -2.13498138E-02   3.27386208E+01  -7.80286789E+00   8.58913422E+00
             1979                4   3.95616074E+01   3.44449348E+01   3.44449348E+01  -1.72766387E+00  -7.80286789E+00   3.44449348E+01   3.44449348E+01  -1.72766387E+00  -7.80286789E+00   4.22478027E+01  -8.30480099E+00   3.84911308E+01   4.10771906E-01   3.23064995E+01  -7.80286789E+00   8.53111076E+00
             1980                1   2.20000000E+02   2.24973022E+02   2.24973022E+02  -1.58769169E+01   3.45946198E+01   2.24973022E+02   2.24973022E+02   3.45946198E+01  -1.58769169E+01   2.40849930E+02  -8.12302399E+01   2.06361938E+02  -1.57306461E+01   2.24826752E+02   3.45946198E+01   5.93351030E+00
             1980                2   2.20000000E+02   2.24604507E+02   2.24604507E+02  -1.72188053E+01   3.63050423E+01   2.24604507E+02   2.24604507E+02   3.63050423E+01  -1.72188053E+01   2.41823303E+02  -8.12302475E+01   2.04566971E+02  -1.72180538E+01   2.24603745E+02   3.63050423E+01   4.27847832E-01
             1980                3   2.20000000E+02   2.24481415E+02   2.24481415E+02  -1.76470966E+01   3.68564034E+01   2.24481415E+02   2.24481415E+02   3.68564034E+01  -1.76470966E+01   2.42128510E+02  -8.12302399E+01   2.03963242E+02  -1.72484455E+01   2.24082764E+02   3.68564034E+01   9.81664085E+00
             1980                4   2.20000000E+02   2.24142456E+02   2.24142456E+02  -1.87812138E+01   3.83294830E+01   2.24142456E+02   2.24142456E+02   3.83294830E+01  -1.87812138E+01   2.42923660E+02  -8.12302399E+01   2.02289154E+02  -1.86948814E+01   2.24056122E+02   3.83294830E+01   4.57863235E+00
             1981                1   8.31686554E+01   7.71583252E+01   7.71583252E+01  -5.87554169E+00  -6.14446735E+00   7.71583252E+01   7.71583252E+01  -5.87554169E+00  -6.14446735E+00   8.33027954E+01  -2.17127705E+01   8.31676788E+01  -2.95598960E+00   7.42387695E+01  -6.14446735E+00   1.52937307E+01
             1981                2   8.24560776E+01   7.66818008E+01   7.66818008E+01  -5.39902782E+00  -6.14446735E+00   7.66818008E+01   7.66818008E+01  -5.39902782E+00  -6.14446735E+00   8.28262711E+01  -2.17127686E+01   8.24485016E+01  -2.41441822E+00   7.36971970E+01  -6.14446735E+00   1.53646069E+01
             1981                3   8.27881241E+01   7.69040298E+01   7.69040298E+01  -5.62124300E+00  -6.14446735E+00   7.69040298E+01   7.69040298E+01  -5.62124300E+00  -6.14446735E+00   8.30484924E+01  -2.17127705E+01   8.27844009E+01  -2.89421177E+00   7.41769943E+01  -6.14446735E+00   1.47516899E+01
             1981                4   8.20675964E+01   7.64214172E+01   7.64214172E+01  -5.13864231E+00  -6.14446735E+00   7.64214172E+01   7.64214172E+01  -5.13864231E+00  -6.14446735E+00   8.25658875E+01  -2.17127686E+01   8.20537338E+01  -2.35024667E+00   7.36330261E+01  -6.14446735E+00   1.48204689E+01
             1982                1   4.18055649E+01   3.92757759E+01   3.92757759E+01  -1.25075972E+00  -3.70103812E+00   3.92757759E+01   3.92757759E+01  -1.25075972E+00  -3.70103812E+00   4.29768143E+01  -1.14413261E+01   4.16435471E+01   4.42718357E-01   3.75822983E+01  -3.70103812E+00   8.10943508E+00
             1982                2   4.14396820E+01   3.90236893E+01   3.90236893E+01  -9.98673379E-01  -3.70103812E+00   3.90236893E+01   3.90236893E+01  -9.98673379E-01  -3.70103812E+00   4.27247276E+01  -1.14413261E+01   4.12407379E+01   7.18403101E-01   3.73066139E+01  -3.70103812E+00   8.11006165E+00
             1982                3   4.16536560E+01   3.91712265E+01   3.91712265E+01  -1.14621019E+00  -3.70103812E+00   3.91712265E+01   3.91712265E+01  -1.14621019E+00  -3.70103812E+00   4.28722649E+01  -1.14413261E+01   4.14768257E+01   4.38018501E-01   3.75869980E+01  -3.70103812E+00   7.83340740E+00
             1982                4   4.12861710E+01   3.89176407E+01   3.89176407E+01  -8.92622530E-01  -3.70103812E+00   3.89176407E+01   3.89176407E+01  -8.92622530E-01  -3.70103812E+00   4.26186790E+01  -1.14413261E+01   4.10704422E+01   7.13815033E-01   3.73112030E+01  -3.70103812E+00   7.83402920E+00
             1983                1   6.67041550E+01   6.29846039E+01   6.29846039E+01  -3.76966000E+00  -3.66933799E+00   6.29846039E+01   6.29846039E+01  -3.66933799E+00  -3.76966000E+00   6.67542648E+01  -1.85152016E+01   6.67039871E+01  -3.76428127E+00   6.29792252E+01  -3.66933799E+00   5.99132359E-01
             1983                2   6.64092712E+01   6.27880135E+01   6.27880135E+01  -3.57306910E+00  -3.66933799E+00   6.27880135E+01   6.27880135E+01  -3.57306910E+00  -3.66933799E+00   6.64573517E+01  -1.85152016E+01   6.64091110E+01  -3.56795096E+00   6.27828941E+01  -3.66933799E+00   5.82761049E-01
             1983                3   6.67242050E+01   6.29979553E+01   6.29979553E+01  -3.78301311E+00  -3.66933799E+00   6.29979553E+01   6.29979553E+01  -3.66933799E+00  -3.78301311E+00   6.67809677E+01  -1.85152016E+01   6.67239838E+01  -3.78058243E+00   6.29955254E+01  -3.66933799E+00   4.02876735E-01
             1983                4   6.64293594E+01   6.28014145E+01   6.28014145E+01  -3.58647108E+00  -3.66933799E+00   6.28014145E+01   6.28014145E+01  -3.58647108E+00  -3.66933799E+00   6.64707489E+01  -1.85152016E+01   6.64292450E+01  -3.58421898E+00   6.27991638E+01  -3.66933799E+00   3.86490524E-01
             1984                1   1.98265076E+02   1.76283737E+02   1.76283737E+02  -2.34532986E+01  -2.04758244E+01   1.76283737E+02   1.76283737E+02  -2.04758244E+01  -2.34532986E+01   1.99737045E+02  -4.41182060E+01   1.98214767E+02  -2.32954884E+01   1.76125931E+02  -2.04758244E+01   5.61213064E+00
             1984                2   1.97629517E+02   1.75869873E+02   1.75869873E+02  -2.22739639E+01  -2.12412872E+01   1.75869873E+02   1.75869873E+02  -2.12412872E+01  -2.22739639E+01   1.98143829E+02  -4.41182060E+01   1.97623444E+02  -2.21815319E+01   1.75777435E+02  -2.12412872E+01   4.27856159E+00
             1984                3   1.98892456E+02   1.76690903E+02   1.76690903E+02  -2.42727928E+01  -2.00634861E+01   1.76690903E+02   1.76690903E+02  -2.00634861E+01  -2.42727928E+01   2.00963684E+02  -4.41182060E+01   1.98792191E+02  -2.42033749E+01   1.76621475E+02  -2.00634861E+01   3.73452067E+00
             1984                4   1.98272156E+02   1.76292969E+02   1.76292969E+02  -2.31192532E+01  -2.08191071E+01   1.76292969E+02   1.76292969E+02  -2.08191071E+01  -2.31192532E+01   1.99412231E+02  -4.41182060E+01   1.98242142E+02  -2.30905113E+01   1.76264236E+02  -2.08191071E+01   2.39373636E+00
             1985                1   5.62865677E+01   5.37271614E+01   5.37271614E+01  -2.18957067E+00  -2.92209792E+00   5.37271614E+01   5.37271614E+01  -2.18957067E+00  -2.92209792E+00   5.66492577E+01  -1.62051640E+01   5.62758446E+01  -9.99193490E-01   5.25367851E+01  -2.92209792E+00   8.07124043E+00
             1985                2   5.65615158E+01   5.39115143E+01   5.39115143E+01  -2.37392235E+00  -2.92209792E+00   5.39115143E+01   5.39115143E+01  -2.37392235E+00  -2.92209792E+00   5.68336105E+01  -1.62051640E+01   5.65555344E+01  -1.23715329E+00   5.27747421E+01  -2.92209792E+00   7.91778803E+00
             1985                3   5.66089401E+01   5.39432793E+01   5.39432793E+01  -2.40569043E+00  -2.92209792E+00   5.39432793E+01   5.39432793E+01  -2.40569043E+00  -2.92209792E+00   5.68653793E+01  -1.62051640E+01   5.66036415E+01  -1.15222883E+00   5.26898193E+01  -2.92209792E+00   8.31023979E+00
             1985                4   5.68829765E+01   5.41266594E+01   5.41266594E+01  -2.58907104E+00  -2.92209792E+00   5.41266594E+01   5.41266594E+01  -2.58907104E+00  -2.92209792E+00   5.70487595E+01  -1.62051640E+01   5.68807831E+01  -1.39047062E+00   5.29280624E+01  -2.92209792E+00   8.15737438E+00
             1986                1   2.20000000E+02   1.85735428E+02   1.85735428E+02  -4.52318802E+01  -2.13483200E+01   1.85735428E+02   1.85735428E+02  -2.13483200E+01  -4.52318802E+01   2.30967300E+02  -3.97184067E+01   2.17054550E+02  -4.51461830E+01   1.85649719E+02  -2.13483200E+01   4.44825840E+00
             1986                2   2.20000000E+02   1.85395462E+02   1.85395462E+02  -4.78503494E+01  -1.83899021E+01   1.85395462E+02   1.85395462E+02  -1.83899021E+01  -4.78503494E+01   2.33245819E+02  -3.97184067E+01   2.15495132E+02  -4.78359032E+01   1.85381027E+02  -1.83899021E+01  -1.83524477E+00
             1986                3   2.20000000E+02   1.85383698E+02   1.85383698E+02  -4.79314156E+01  -1.82970695E+01   1.85383698E+02   1.85383698E+02  -1.82970695E+01  -4.79314156E+01   2.33315109E+02  -3.97184029E+01   2.15440948E+02  -4.74804268E+01   1.84932709E+02  -1.82970695E+01   1.02479181E+01
             1986                4   2.20000015E+02   1.85021942E+02   1.85021942E+02  -5.02104187E+01  -1.56563053E+01   1.85021942E+02   1.85021942E+02  -1.56563053E+01  -5.02104187E+01   2.35232361E+02  -3.97184067E+01   2.13766739E+02  -5.01424980E+01   1.84954025E+02  -1.56563053E+01   3.99645042E+00
             1987                1   2.04529282E+02   1.55978821E+02   1.55978821E+02  -5.03396339E+01  -4.67130623E+01   1.55978821E+02   1.55978821E+02  -4.67130623E+01  -5.03396339E+01   2.06318466E+02  -1.96420422E+01   2.04456924E+02  -5.03392906E+01   1.55978485E+02  -4.67130623E+01  -2.65143245E-01
             1987                2   2.03867523E+02   1.55552444E+02   1.55552444E+02  -4.78023338E+01  -4.88239708E+01   1.55552444E+02   1.55552444E+02  -4.78023338E+01  -4.88239708E+01   2.04376419E+02  -1.96420460E+01   2.03861755E+02  -4.77982063E+01   1.55548309E+02  -4.88239708E+01   9.16694462E-01
             1987                3   2.04313553E+02   1.55842712E+02   1.55842712E+02  -4.97664261E+01  -4.71501503E+01   1.55842712E+02   1.55842712E+02  -4.71501503E+01  -4.97664261E+01   2.05609131E+02  -1.96420422E+01   2.04275864E+02  -4.96499481E+01   1.55726227E+02  -4.71501503E+01  -4.89241838E+00
             1987                4   2.03499435E+02   1.55302856E+02   1.55302856E+02  -4.71325417E+01  -4.92441788E+01   1.55302856E+02   1.55302856E+02  -4.71325417E+01  -4.92441788E+01   2.04547028E+02  -1.96420441E+01   2.03474777E+02  -4.70618210E+01   1.55232132E+02  -4.92441788E+01  -3.78311276E+00
             1988                1   4.22146301E+01   3.72368355E+01   3.72368355E+01  -2.42691731E+00  -7.13409519E+00   3.72368355E+01   3.72368355E+01  -2.42691731E+00  -7.13409519E+00   4.43709297E+01  -9.22527409E+00   4.16180496E+01  -1.21297039E-01   3.49312134E+01  -7.13409519E+00   9.28082466E+00
             1988                2   4.16736717E+01   3.68517189E+01   3.68517189E+01  -2.04180598E+00  -7.13409519E+00   3.68517189E+01   3.68517189E+01  -2.04180598E+00  -7.13409519E+00   4.39858131E+01  -9.22527313E+00   4.09649277E+01   2.93266863E-01   3.45166473E+01  -7.13409519E+00   9.23940659E+00
             1988                3   4.20087585E+01   3.70905762E+01   3.70905762E+01  -2.28066254E+00  -7.13409519E+00   3.70905762E+01   3.70905762E+01  -2.28066254E+00  -7.13409519E+00   4.42246704E+01  -9.22527313E+00   4.13709335E+01  -1.74020812E-01   3.49839363E+01  -7.13409519E+00   8.86019707E+00
             1988                4   4.14665642E+01   3.67035828E+01   3.67035828E+01  -1.89366949E+00  -7.13409519E+00   3.67035828E+01   3.67035828E+01  -1.89366949E+00  -7.13409519E+00   4.38376770E+01  -9.22527313E+00   4.07115784E+01   2.41265669E-01   3.45686493E+01  -7.13409519E+00   8.82296085E+00
             1989                1   2.20000000E+02   2.43819229E+02   2.43819229E+02  -2.43224907E+00   6.66549835E+01   2.43819229E+02   2.43819229E+02   6.66549835E+01  -2.43224907E+00   2.46251480E+02  -1.02680656E+02   1.93233551E+02  -2.22265220E+00   2.43609634E+02   6.66549835E+01  -7.18112946E+00
             1989                2   2.20000000E+02   2.43073074E+02   2.43073074E+02  -4.26891661E+00   6.92378006E+01   2.43073074E+02   2.43073074E+02   6.92378006E+01  -4.26891661E+00   2.47341980E+02  -1.02680656E+02   1.89257553E+02  -4.26881266E+00   2.43072968E+02   6.92378006E+01  -1.59228608E-01
             1989                3   2.20000000E+02   2.44505661E+02   2.44505661E+02  -5.98238111E-01   6.41345291E+01   2.44505661E+02   2.44505661E+02   6.41345291E+01  -5.98238111E-01   2.45103897E+02  -1.02680656E+02   1.96800537E+02  -5.91826677E-01   2.44499252E+02   6.41345291E+01   1.25349772E+00
             1989                4   2.20000000E+02   2.43696030E+02   2.43696030E+02  -2.74596167E+00   6.70918884E+01   2.43696030E+02   2.43696030E+02   6.70918884E+01  -2.74596167E+00   2.46442001E+02  -1.02680656E+02   1.92584427E+02  -2.47603822E+00   2.43426117E+02   6.70918884E+01   8.15145683E+00
             1990                1   2.12159134E+02   2.07388153E+02   2.07388153E+02  -1.09863634E+01   2.04514885E+00   2.07388153E+02   2.07388153E+02   2.04514885E+00  -1.09863634E+01   2.18374527E+02  -6.61489792E+01   2.11255875E+02  -1.07613506E+01   2.07163147E+02   2.04514885E+00   7.00613451E+00
             1990                2   2.12352142E+02   2.07427322E+02   2.07427322E+02  -1.23302412E+01   3.34986353E+00   2.07427322E+02   2.07427322E+02   3.34986353E+00  -1.23302412E+01   2.19757553E+02  -6.61489792E+01   2.11043762E+02  -1.23170185E+01   2.07414093E+02   3.34986353E+00   1.70472312E+00
             1990                3   2.12757370E+02   2.07679092E+02   2.07679092E+02  -1.27084560E+01   3.47629142E+00   2.07679092E+02   2.07679092E+02   3.47629142E+00  -1.27084560E+01   2.20387558E+02  -6.61489792E+01   2.11365723E+02  -1.21747055E+01   2.07145355E+02   3.47629142E+00   1.08326101E+01
             1990                4   2.12895248E+02   2.07673859E+02   2.07673859E+02  -1.38957338E+01   4.66881704E+00   2.07673859E+02   2.07673859E+02   4.66881704E+00  -1.38957338E+01   2.21569595E+02  -6.61489792E+01   2.11062653E+02  -1.37591982E+01   2.07537323E+02   4.66881704E+00   5.49843550E+00
             1991                1   5.71328545E+01   5.45994606E+01   5.45994606E+01  -2.21300936E+00  -2.84847784E+00   5.45994606E+01   5.45994606E+01  -2.21300936E+00  -2.84847784E+00   5.74479408E+01  -1.65126591E+01   5.71249008E+01  -1.16849279E+00   5.35549431E+01  -2.84847784E+00   7.63221025E+00
             1991                2   5.73910713E+01   5.47724380E+01   5.47724380E+01  -2.38599157E+00  -2.84847784E+00   5.47724380E+01   5.47724380E+01  -2.38599157E+00  -2.84847784E+00   5.76209183E+01  -1.65126572E+01   5.73868790E+01  -1.39239883E+00   5.37788467E+01  -2.84847784E+00   7.47027302E+00
             1991                3   5.74560127E+01   5.48159027E+01   5.48159027E+01  -2.42945313E+00  -2.84847784E+00   5.48159027E+01   5.48159027E+01  -2.42945313E+00  -2.84847784E+00   5.76643791E+01  -1.65126572E+01   5.74525719E+01  -1.33018041E+00   5.37166290E+01  -2.84847784E+00   7.85619593E+00
             1991                4   5.77127876E+01   5.49875832E+01   5.49875832E+01  -2.60113597E+00  -2.84847784E+00   5.49875832E+01   5.49875832E+01  -2.60113597E+00  -2.84847784E+00   5.78360634E+01  -1.65126572E+01   5.77115936E+01  -1.55401158E+00   5.39404602E+01  -2.84847784E+00   7.69454622E+00
             1992                1   2.11395035E+02   1.85463318E+02   1.85463318E+02  -3.36864014E+01  -1.72131462E+01   1.85463318E+02   1.85463318E+02  -1.72131462E+01  -3.36864014E+01   2.19149719E+02  -4.48545876E+01   2.09943680E+02  -3.35693932E+01   1.85346313E+02  -1.72131462E+01   5.06242132E+00
             1992                2   2.10894928E+02   1.85243225E+02   1.85243225E+02  -3.19601173E+01  -1.87193336E+01   1.85243225E+02   1.85243225E+02  -1.87193336E+01  -3.19601173E+01   2.17203339E+02  -4.48545952E+01   2.09956680E+02  -3.16001968E+01   1.84883301E+02  -1.87193336E+01   8.83446980E+00
             1992                3   2.10806381E+02   1.85197189E+02   1.85197189E+02  -3.17258472E+01  -1.89075775E+01   1.85197189E+02   1.85197189E+02  -1.89075775E+01  -3.17258472E+01   2.16923035E+02  -4.48545876E+01   2.09926895E+02  -3.17172794E+01   1.85188629E+02  -1.89075775E+01   1.36274493E+00
             1992                4   2.10275528E+02   1.84933472E+02   1.84933472E+02  -2.98784752E+01  -2.04912052E+01   1.84933472E+02   1.84933472E+02  -2.04912052E+01  -2.98784752E+01   2.14811935E+02  -4.48545952E+01   2.09803299E+02  -2.97542648E+01   1.84809250E+02  -2.04912052E+01   5.16409588E+00
             1993                1   7.08619003E+01   6.46149826E+01   6.46149826E+01  -5.53553486E+00  -6.93750048E+00   6.46149826E+01   6.46149826E+01  -5.53553486E+00  -6.93750048E+00   7.15524826E+01  -1.73806496E+01   7.08306885E+01  -3.25495672E+00   6.23344040E+01  -6.93750048E+00   1.24411688E+01
             1993                2   7.14480667E+01   6.50091400E+01   6.50091400E+01  -5.92969513E+00  -6.93750048E+00   6.50091400E+01   6.50091400E+01  -5.92969513E+00  -6.93750048E+00   7.19466400E+01  -1.73806477E+01   7.14320755E+01  -3.71449113E+00   6.27939377E+01  -6.93750048E+00   1.23384256E+01
             1993                3   7.12273560E+01   6.48608627E+01   6.48608627E+01  -5.78141451E+00  -6.93750048E+00   6.48608627E+01   6.48608627E+01  -5.78141451E+00  -6.93750048E+00   7.17983627E+01  -1.73806477E+01   7.12062378E+01  -3.34326148E+00   6.24227066E+01  -6.93750048E+00   1.28954277E+01
             1993                4   7.18108368E+01   6.52525024E+01   6.52525024E+01  -6.17305756E+00  -6.93750048E+00   6.52525024E+01   6.52525024E+01  -6.17305756E+00  -6.93750048E+00   7.21900024E+01  -1.73806477E+01   7.18016739E+01  -3.80299401E+00   6.28824387E+01  -6.93750048E+00   1.27931986E+01
             1994                1   2.08550842E+02   1.52616608E+02   1.52616608E+02  -5.80364876E+01  -5.37664375E+01   1.52616608E+02   1.52616608E+02  -5.37664375E+01  -5.80364876E+01   2.10653091E+02  -1.36045599E+01   2.08452454E+02  -5.80361710E+01   1.52616287E+02  -5.37664375E+01   2.56685436E-01
             1994                2   2.07909958E+02   1.52210052E+02   1.52210052E+02  -5.52103310E+01  -5.61860428E+01   1.52210052E+02   1.52210052E+02  -5.52103310E+01  -5.61860428E+01   2.08396103E+02  -1.36045609E+01   2.07904800E+02  -5.51963387E+01   1.52196060E+02  -5.61860428E+01   1.70368052E+00
             1994                3   2.08357300E+02   1.52498428E+02   1.52498428E+02  -5.73559380E+01  -5.43288155E+01   1.52498428E+02   1.52498428E+02  -5.43288155E+01  -5.73559380E+01   2.09854370E+02  -1.36045570E+01   2.08307816E+02  -5.72380791E+01   1.52380569E+02  -5.43288155E+01  -4.97178125E+00
             1994                4   2.07657272E+02   1.52036179E+02   1.52036179E+02  -5.44441605E+01  -5.67783432E+01   1.52036179E+02   1.52036179E+02  -5.44441605E+01  -5.67783432E+01   2.08814529E+02  -1.36045609E+01   2.07627762E+02  -5.43804779E+01   1.51972504E+02  -5.67783432E+01  -3.62558794E+00
             1995                1   4.50222626E+01   4.05914536E+01   4.05914536E+01  -2.27665114E+00  -6.31313515E+00   4.05914536E+01   4.05914536E+01  -2.27665114E+00  -6.31313515E+00   4.69045906E+01  -1.06672239E+01   4.46124382E+01  -3.47623974E-02   3.83495674E+01  -6.31313515E+00   9.54355431E+00
             1995                2   4.55337982E+01   4.09486732E+01   4.09486732E+01  -2.63387084E+00  -6.31313515E+00   4.09486732E+01   4.09486732E+01  -2.63387084E+00  -6.31313515E+00   4.72618103E+01  -1.06672239E+01   4.51975479E+01  -4.32260782E-01   3.87470665E+01  -6.31313515E+00   9.54487419E+00
             1995                3   4.52514305E+01   4.07517204E+01   4.07517204E+01  -2.43691230E+00  -6.31313515E+00   4.07517204E+01   4.07517204E+01  -2.43691230E+00  -6.31313515E+00   4.70648537E+01  -1.06672239E+01   4.48756371E+01  -1.62471123E-02   3.83310547E+01  -6.31313515E+00   9.93406296E+00
             1995                4   4.57617226E+01   4.11072464E+01   4.11072464E+01  -2.79244375E+00  -6.31313515E+00   4.11072464E+01   4.11072464E+01  -2.79244375E+00  -6.31313515E+00   4.74203835E+01  -1.06672239E+01   4.54555206E+01  -4.13077384E-01   3.87278824E+01  -6.31313515E+00   9.93941784E+00
             1996                1   8.64021606E+01   8.07380295E+01   8.07380295E+01  -5.63301277E+00  -5.69520903E+00   8.07380295E+01   8.07380295E+01  -5.63301277E+00  -5.69520903E+00   8.64332428E+01  -2.31366043E+01   8.64021072E+01  -5.62557697E+00   8.07305984E+01  -5.69520903E+00   8.01205993E-01
             1996                2   8.64345932E+01   8.07596588E+01   8.07596588E+01  -5.65464401E+00  -5.69520903E+00   8.07596588E+01   8.07596588E+01  -5.65464401E+00  -5.69520903E+00   8.64548721E+01  -2.31366043E+01   8.64345703E+01  -5.64941835E+00   8.07544403E+01  -5.69520903E+00   6.71744525E-01
             1996                3   8.65970612E+01   8.08679657E+01   8.08679657E+01  -5.76294088E+00  -5.69520903E+00   8.08679657E+01   8.08679657E+01  -5.69520903E+00  -5.76294088E+00   8.66309052E+01  -2.31366062E+01   8.65970001E+01  -5.75508451E+00   8.08601074E+01  -5.69520903E+00   8.25131297E-01
             1996                4   8.66294174E+01   8.08895264E+01   8.08895264E+01  -5.78450680E+00  -5.69520903E+00   8.08895264E+01   8.08895264E+01  -5.69520903E+00  -5.78450680E+00   8.66740341E+01  -2.31366043E+01   8.66293106E+01  -5.77892113E+00   8.08839417E+01  -5.69520903E+00   6.95662081E-01
             1997                1   2.13060593E+02   2.12814240E+02   2.12814240E+02  -7.17623568E+00   7.43577337E+00   2.12814240E+02   2.12814240E+02   7.43577337E+00  -7.17623568E+00   2.19990479E+02  -7.10245895E+01   2.11928879E+02  -7.14097118E+00   2.12778976E+02   7.43577337E+00   2.78487563E+00
             1997                2   2.13493439E+02   2.13025726E+02   2.13025726E+02  -8.33705330E+00   8.38511086E+00   2.13025726E+02   2.13025726E+02   8.38511086E+00  -8.33705330E+00   2.21362778E+02  -7.10245972E+01   2.12012497E+02  -8.19347572E+00   2.12882156E+02   8.38511086E+00   5.63567924E+00
             1997                3   2.12596909E+02   2.12566589E+02   2.12566589E+02  -6.08775616E+00   6.59495115E+00   2.12566589E+02   2.12566589E+02   6.59495115E+00  -6.08775616E+00   2.18654343E+02  -7.10245972E+01   2.11743256E+02  -5.94217014E+00   2.12421005E+02   6.59495115E+00   5.64021158E+00
             1997                4   2.13048080E+02   2.12797928E+02   2.12797928E+02  -7.28292942E+00   7.55878639E+00   2.12797928E+02   2.12797928E+02   7.55878639E+00  -7.28292942E+00   2.20080856E+02  -7.10245972E+01   2.11880280E+02  -6.97672415E+00   2.12491730E+02   7.55878639E+00   8.20334148E+00
             1998                1   6.45055084E+01   6.13704796E+01   6.13704796E+01  -3.18637586E+00  -3.08355522E+00   6.13704796E+01   6.13704796E+01  -3.08355522E+00  -3.18637586E+00   6.45568542E+01  -1.83668499E+01   6.45053253E+01  -3.18120289E+00   6.13653069E+01  -3.08355522E+00   5.77916861E-01
             1998                2   6.42035141E+01   6.11691513E+01   6.11691513E+01  -2.98505187E+00  -3.08355522E+00   6.11691513E+01   6.11691513E+01  -2.98505187E+00  -3.08355522E+00   6.42527084E+01  -1.83668499E+01   6.42033463E+01  -2.98012519E+00   6.11642265E+01  -3.08355522E+00   5.62267363E-01
             1998                3   6.45243607E+01   6.13830376E+01   6.13830376E+01  -3.19893193E+00  -3.08355522E+00   6.13830376E+01   6.13830376E+01  -3.08355522E+00  -3.19893193E+00   6.45819702E+01  -1.83668499E+01   6.45241241E+01  -3.19673347E+00   6.13808365E+01  -3.08355522E+00   3.76961082E-01
             1998                4   6.42223892E+01   6.11817436E+01   6.11817436E+01  -2.99764109E+00  -3.08355522E+00   6.11817436E+01   6.11817436E+01  -2.99764109E+00  -3.08355522E+00   6.42652969E+01  -1.83668499E+01   6.42222519E+01  -2.99560833E+00   6.11797104E+01  -3.08355522E+00   3.61279279E-01
             1999                1   2.05684448E+02   1.91321579E+02   1.91321579E+02  -1.92004814E+01  -9.15731621E+00   1.91321579E+02   1.91321579E+02  -9.15731621E+00  -1.92004814E+01   2.10522049E+02  -5.43212585E+01   2.05131699E+02  -1.90130482E+01   1.91134140E+02  -9.15731621E+00   6.27884626E+00
             1999                2   2.04975693E+02   1.90894913E+02   1.90894913E+02  -1.79327946E+01  -9.99834728E+00   1.90894913E+02   1.90894913E+02  -9.99834728E+00  -1.79327946E+01   2.08827698E+02  -5.43212547E+01   2.04629745E+02  -1.76162262E+01   1.90578339E+02  -9.99834728E+00   8.12452888E+00
             1999                3   2.05237961E+02   1.91065491E+02   1.91065491E+02  -1.81295567E+01  -9.97216988E+00   1.91065491E+02   1.91065491E+02  -9.97216988E+00  -1.81295567E+01   2.09195038E+02  -5.43212547E+01   2.04872742E+02  -1.80539360E+01   1.90989868E+02  -9.97216988E+00   3.97653008E+00
             1999                4   2.04511414E+02   1.90618393E+02   1.90618393E+02  -1.68197861E+01  -1.08348484E+01   1.90618393E+02   1.90618393E+02  -1.08348484E+01  -1.68197861E+01   2.07438187E+02  -5.43212547E+01   2.04314240E+02  -1.66564045E+01   1.90455017E+02  -1.08348484E+01   5.81937838E+00
             2000                1   2.02234116E+02   1.78636185E+02   1.78636185E+02  -2.68860588E+01  -2.01410484E+01   1.78636185E+02   1.78636185E+02  -2.01410484E+01  -2.68860588E+01   2.05522247E+02  -4.38696899E+01   2.01980804E+02  -2.67787151E+01   1.78528839E+02  -2.01410484E+01   4.69571352E+00
             2000                2   2.01658875E+02   1.78278625E+02   1.78278625E+02  -2.58069134E+01  -2.08626499E+01   1.78278625E+02   1.78278625E+02  -2.08626499E+01  -2.58069134E+01   2.04085541E+02  -4.38696861E+01   2.01522430E+02  -2.55627995E+01   1.78034515E+02  -2.08626499E+01   7.05403948E+00
             2000                3   2.01617310E+02   1.78257782E+02   1.78257782E+02  -2.54984856E+01  -2.11502304E+01   1.78257782E+02   1.78257782E+02  -2.11502304E+01  -2.54984856E+01   2.03756256E+02  -4.38696899E+01   2.01511765E+02  -2.54624271E+01   1.78221725E+02  -2.11502304E+01   2.71009231E+00
             2000                4   2.01020782E+02   1.77875931E+02   1.77875931E+02  -2.43714542E+01  -2.18953953E+01   1.77875931E+02   1.77875931E+02  -2.18953953E+01  -2.43714542E+01   2.02247375E+02  -4.38696899E+01   2.00986481E+02  -2.42439709E+01   1.77748444E+02  -2.18953953E+01   5.07606936E+00
             2001                1   6.08178978E+01   5.84119034E+01   5.84119034E+01  -2.28590941E+00  -2.52537036E+00   5.84119034E+01   5.84119034E+01  -2.28590941E+00  -2.52537036E+00   6.09372749E+01  -1.78668747E+01   6.08168411E+01  -2.00700665E+00   5.81330032E+01  -2.52537036E+00   4.10498953E+00
             2001                2   6.09533157E+01   5.85023270E+01   5.85023270E+01  -2.37633133E+00  -2.52537036E+00   5.85023270E+01   5.85023270E+01  -2.37633133E+00  -2.52537036E+00   6.10276985E+01  -1.78668747E+01   6.09529037E+01  -2.12423682E+00   5.82502327E+01  -2.52537036E+00   3.90942478E+00
             2001                3   6.11323471E+01   5.86217690E+01   5.86217690E+01  -2.49577045E+00  -2.52537036E+00   5.86217690E+01   5.86217690E+01  -2.49577045E+00  -2.52537036E+00   6.11471405E+01  -1.78668766E+01   6.11323318E+01  -2.20260692E+00   5.83286057E+01  -2.52537036E+00   4.22274017E+00
             2001                4   6.12668839E+01   5.87114487E+01   5.87114487E+01  -2.58545399E+00  -2.52537036E+00   5.87114487E+01   5.87114487E+01  -2.52537036E+00  -2.58545399E+00   6.12969055E+01  -1.78668747E+01   6.12668190E+01  -2.31972027E+00   5.84457169E+01  -2.52537036E+00   4.02715588E+00
             2002                1   2.04710526E+02   1.83358734E+02   1.83358734E+02  -2.57500343E+01  -1.66500168E+01   1.83358734E+02   1.83358734E+02  -1.66500168E+01  -2.57500343E+01   2.09108780E+02  -4.69862251E+01   2.04254700E+02  -2.56078529E+01   1.83216553E+02  -1.66500168E+01   5.45088482E+00
             2002                2   2.03989609E+02   1.82918015E+02   1.82918015E+02  -2.45151176E+01  -1.74442177E+01   1.82918015E+02   1.82918015E+02  -1.74442177E+01  -2.45151176E+01   2.07433121E+02  -4.69862251E+01   2.03713593E+02  -2.42227821E+01   1.82625671E+02  -1.74442177E+01   7.78173113E+00
             2002                3   2.04084229E+02   1.82986847E+02   1.82986847E+02  -2.43803711E+01  -1.76477966E+01   1.82986847E+02   1.82986847E+02  -1.76477966E+01  -2.43803711E+01   2.07367218E+02  -4.69862251E+01   2.03834152E+02  -2.43309727E+01   1.82937454E+02  -1.76477966E+01   3.19998646E+00
             2002                4   2.03339035E+02   1.82519287E+02   1.82519287E+02  -2.30926819E+01  -1.84679356E+01   1.82519287E+02   1.82519287E+02  -1.84679356E+01  -2.30926819E+01   2.05611969E+02  -4.69862213E+01   2.03220673E+02  -2.29434891E+01   1.82370102E+02  -1.84679356E+01   5.53640795E+00
             2003                1   8.01145020E+01   7.41585541E+01   7.41585541E+01  -5.41159630E+00  -6.48942375E+00   7.41585541E+01   7.41585541E+01  -5.41159630E+00  -6.48942375E+00   8.06479721E+01  -2.07525101E+01   8.00981827E+01  -2.79853821E+00   7.15454941E+01  -6.48942375E+00   1.41807384E+01
             2003                2   8.07894821E+01   7.46109543E+01   7.46109543E+01  -5.86399841E+00  -6.48942375E+00   7.46109543E+01   7.46109543E+01  -5.86399841E+00  -6.48942375E+00   8.11003799E+01  -2.07525101E+01   8.07840347E+01  -3.31207848E+00   7.20590363E+01  -6.48942375E+00   1.41015320E+01
             2003                3   8.04919968E+01   7.44117279E+01   7.44117279E+01  -5.66477251E+00  -6.48942375E+00   7.44117279E+01   7.44117279E+01  -5.66477251E+00  -6.48942375E+00   8.09011536E+01  -2.07525101E+01   8.04824905E+01  -2.86928129E+00   7.16162338E+01  -6.48942375E+00   1.46982527E+01
             2003                4   8.11648102E+01   7.48619537E+01   7.48619537E+01  -6.11499882E+00  -6.48942375E+00   7.48619537E+01   7.48619537E+01  -6.11499882E+00  -6.48942375E+00   8.13513794E+01  -2.07525101E+01   8.11628723E+01  -3.38317776E+00   7.21301346E+01  -6.48942375E+00   1.46202469E+01
             2004                1   1.85707138E+02   1.76085968E+02   1.76085968E+02  -1.25139980E+01  -6.58639383E+00   1.76085968E+02   1.76085968E+02  -6.58639383E+00  -1.25139980E+01   1.88599976E+02  -5.23285255E+01   1.85494110E+02  -1.25122204E+01   1.76084198E+02  -6.58639383E+00  -5.78721523E-01
             2004                2   1.84029358E+02   1.75000168E+02   1.75000168E+02  -1.06467724E+01  -7.36780643E+00   1.75000168E+02   1.75000168E+02  -7.36780643E+00  -1.06467724E+01   1.85646942E+02  -5.23285255E+01   1.83963638E+02  -1.06394920E+01   1.74992889E+02  -7.36780643E+00   1.16224062E+00
             2004                3   1.84606323E+02   1.75373795E+02   1.75373795E+02  -1.13688478E+01  -7.01936531E+00   1.75373795E+02   1.75373795E+02  -7.01936531E+00  -1.13688478E+01   1.86742645E+02  -5.23285255E+01   1.84490997E+02  -1.13125887E+01   1.75317535E+02  -7.01936531E+00  -3.24072838E+00
             2004                4   1.82857407E+02   1.74229813E+02   1.74229813E+02  -9.43929195E+00  -7.80493784E+00   1.74229813E+02   1.74229813E+02  -7.80493784E+00  -9.43929195E+00   1.83669113E+02  -5.23285332E+01   1.82840973E+02  -9.42679119E+00   1.74217316E+02  -7.80493784E+00  -1.51538622E+00
             2005                1   2.01141464E+02   1.88672424E+02   1.88672424E+02  -1.62649994E+01  -8.44500256E+00   1.88672424E+02   1.88672424E+02  -8.44500256E+00  -1.62649994E+01   2.04937424E+02  -5.46541405E+01   2.00799026E+02  -1.61801014E+01   1.88587524E+02  -8.44500256E+00  -4.17036963E+00
             2005                2   2.02299301E+02   1.89367294E+02   1.89367294E+02  -1.82651215E+01  -7.13974476E+00   1.89367294E+02   1.89367294E+02  -7.13974476E+00  -1.82651215E+01   2.07632416E+02  -5.46541443E+01   2.01609283E+02  -1.79956379E+01   1.89097809E+02  -7.13974476E+00  -7.47539091E+00
             2005                3   2.02305603E+02   1.89376495E+02   1.89376495E+02  -1.81781178E+01  -7.23596191E+00   1.89376495E+02   1.89376495E+02  -7.23596191E+00  -1.81781178E+01   2.07554611E+02  -5.46541405E+01   2.01638199E+02  -1.81722851E+01   1.89370667E+02  -7.23596191E+00  -1.10013878E+00
             2005                4   2.03414337E+02   1.90019913E+02   1.90019913E+02  -2.00674629E+01  -5.99003267E+00   1.90019913E+02   1.90019913E+02  -5.99003267E+00  -2.00674629E+01   2.10087387E+02  -5.46541405E+01   2.02314011E+02  -1.99759865E+01   1.89928436E+02  -5.99003267E+00  -4.38299751E+00
             2006                1   2.19126190E+02   2.07189377E+02   2.07189377E+02  -2.80612087E+01   8.88472939E+00   2.07189377E+02   2.07189377E+02   8.88472939E+00  -2.80612087E+01   2.35250595E+02  -6.26709709E+01   2.11948242E+02  -2.80602207E+01   2.07188400E+02   8.88472939E+00   4.80615854E-01
             2006                2   2.18986786E+02   2.07387009E+02   2.07387009E+02  -2.63610115E+01   6.98690557E+00   2.07387009E+02   2.07387009E+02   6.98690557E+00  -2.63610115E+01   2.33748016E+02  -6.26709709E+01   2.13161682E+02  -2.63501549E+01   2.07376160E+02   6.98690557E+00  -1.59269130E+00
             2006                3   2.19183029E+02   2.07000748E+02   2.07000748E+02  -2.92529335E+01   1.02651062E+01   2.07000748E+02   2.07000748E+02   1.02651062E+01  -2.92529335E+01   2.36253693E+02  -6.26709747E+01   2.10943436E+02  -2.92260494E+01   2.06973862E+02   1.02651062E+01  -2.52035928E+00
             2006                4   2.19044922E+02   2.07208191E+02   2.07208191E+02  -2.76337757E+01   8.43850517E+00   2.07208191E+02   2.07208191E+02   8.43850517E+00  -2.76337757E+01   2.34841965E+02  -6.26709747E+01   2.12207703E+02  -2.75434628E+01   2.07117874E+02   8.43850517E+00  -4.60459948E+00
             2007                1   2.20000000E+02   2.38693527E+02   2.38693527E+02  -6.03407717E+00   5.73272362E+01   2.38693527E+02   2.38693527E+02   5.73272362E+01  -6.03407717E+00   2.44727615E+02  -9.66622314E+01   1.97856613E+02  -6.02492189E+00   2.38684372E+02   5.73272362E+01   1.49716842E+00
             2007                2   2.20000000E+02   2.38021240E+02   2.38021240E+02  -7.87809515E+00   5.98435440E+01   2.38021240E+02   2.38021240E+02   5.98435440E+01  -7.87809515E+00   2.45899338E+02  -9.66622314E+01   1.94388138E+02  -7.68870783E+00   2.37831848E+02   5.98435440E+01  -6.82164860E+00
             2007                3   2.20000000E+02   2.37906189E+02   2.37906189E+02  -8.17878723E+00   6.02593002E+01   2.37906189E+02   2.37906189E+02   6.02593002E+01  -8.17878723E+00   2.46084976E+02  -9.66622314E+01   1.93786606E+02  -7.89757061E+00   2.37624969E+02   6.02593002E+01   8.31413269E+00
             2007                4   2.20000000E+02   2.37296188E+02   2.37296188E+02  -9.70890236E+00   6.23994217E+01   2.37296188E+02   2.37296188E+02   6.23994217E+01  -9.70890236E+00   2.47005081E+02  -9.66622314E+01   1.90556427E+02  -9.70885277E+00   2.37296127E+02   6.23994217E+01   1.17305517E-01
             2008                1   5.79139519E+01   5.54061623E+01   5.54061623E+01  -2.23191595E+00  -2.77977276E+00   5.54061623E+01   5.54061623E+01  -2.23191595E+00  -2.77977276E+00   5.81859360E+01  -1.67981586E+01   5.79081230E+01  -1.33311856E+00   5.45073662E+01  -2.77977276E+00   7.14122677E+00
             2008                2   5.81547279E+01   5.55673332E+01   5.55673332E+01  -2.39309025E+00  -2.77977276E+00   5.55673332E+01   5.55673332E+01  -2.39309025E+00  -2.77977276E+00   5.83471069E+01  -1.67981567E+01   5.81518402E+01  -1.54182327E+00   5.47160683E+01  -2.77977276E+00   6.97245169E+00
             2008                3   5.82361412E+01   5.56217766E+01   5.56217766E+01  -2.44753408E+00  -2.77977276E+00   5.56217766E+01   5.56217766E+01  -2.44753408E+00  -2.77977276E+00   5.84015503E+01  -1.67981567E+01   5.82340126E+01  -1.50181055E+00   5.46760559E+01  -2.77977276E+00   7.35003710E+00
             2008                4   5.84754715E+01   5.57816811E+01   5.57816811E+01  -2.60743260E+00  -2.77977276E+00   5.57816811E+01   5.57816811E+01  -2.60743260E+00  -2.77977276E+00   5.85614548E+01  -1.67981586E+01   5.84749031E+01  -1.71042597E+00   5.48846741E+01  -2.77977276E+00   7.18127966E+00
             2009                1   5.86291389E+01   5.61460495E+01   5.61460495E+01  -2.24681354E+00  -2.71654391E+00   5.61460495E+01   5.61460495E+01  -2.24681354E+00  -2.71654391E+00   5.88625908E+01  -1.70608959E+01   5.86249046E+01  -1.48956203E+00   5.53887978E+01  -2.71654391E+00   6.60640621E+00
             2009                2   5.88505020E+01   5.62941246E+01   5.62941246E+01  -2.39488983E+00  -2.71654391E+00   5.62941246E+01   5.62941246E+01  -2.39488983E+00  -2.71654391E+00   5.90106697E+01  -1.70608959E+01   5.88485222E+01  -1.68155754E+00   5.55807915E+01  -2.71654391E+00   6.43086100E+00
             2009                3   5.89504547E+01   5.63609238E+01   5.63609238E+01  -2.46169090E+00  -2.71654391E+00   5.63609238E+01   5.63609238E+01  -2.46169090E+00  -2.71654391E+00   5.90774689E+01  -1.70608959E+01   5.89492188E+01  -1.66514444E+00   5.55643806E+01  -2.71654391E+00   6.79855680E+00
             2009                4   5.91704674E+01   5.65078278E+01   5.65078278E+01  -2.60858870E+00  -2.71654391E+00   5.65078278E+01   5.65078278E+01  -2.60858870E+00  -2.71654391E+00   5.92243729E+01  -1.70608978E+01   5.91702461E+01  -1.85703075E+00   5.57562675E+01  -2.71654391E+00   6.62304115E+00
             2010                1   6.20045662E+01   5.96139374E+01   5.96139374E+01  -2.34025812E+00  -2.44087911E+00   5.96139374E+01   5.96139374E+01  -2.34025812E+00  -2.44087911E+00   6.20548134E+01  -1.82775993E+01   6.20043831E+01  -2.33550262E+00   5.96091805E+01  -2.44087911E+00   5.42773545E-01
             2010                2   6.20224037E+01   5.96258354E+01   5.96258354E+01  -2.35215902E+00  -2.44087911E+00   5.96258354E+01   5.96258354E+01  -2.35215902E+00  -2.44087911E+00   6.20667152E+01  -1.82775993E+01   6.20222626E+01  -2.35032248E+00   5.96240005E+01  -2.44087911E+00   3.37345511E-01
             2010                3   6.23132591E+01   5.98197289E+01   5.98197289E+01  -2.54605103E+00  -2.44087911E+00   5.98197289E+01   5.98197289E+01  -2.44087911E+00  -2.54605103E+00   6.23657799E+01  -1.82775993E+01   6.23130608E+01  -2.54106092E+00   5.98147392E+01  -2.44087911E+00   5.57809770E-01
             2010                4   6.23310356E+01   5.98315697E+01   5.98315697E+01  -2.55789137E+00  -2.44087911E+00   5.98315697E+01   5.98315697E+01  -2.44087911E+00  -2.55789137E+00   6.23894615E+01  -1.82775993E+01   6.23307915E+01  -2.55590010E+00   5.98295784E+01  -2.44087911E+00   3.52415472E-01
             2011                1   2.03712997E+02   1.54291855E+02   1.54291855E+02  -5.06150894E+01  -4.82058182E+01   1.54291855E+02   1.54291855E+02  -4.82058182E+01  -5.06150894E+01   2.04906952E+02  -1.84903183E+01   2.03680939E+02  -5.06150780E+01   1.54291855E+02  -4.82058182E+01   3.63941379E-02
             2011                2   2.02792068E+02   1.53678802E+02   1.53678802E+02  -4.79807930E+01  -5.02270546E+01   1.53678802E+02   1.53678802E+02  -4.79807930E+01  -5.02270546E+01   2.03905869E+02  -1.84903202E+01   2.02764069E+02  -4.79793510E+01   1.53677368E+02  -5.02270546E+01   5.38832366E-01
             2011                3   2.03664032E+02   1.54261261E+02   1.54261261E+02  -5.04119682E+01  -4.83783340E+01   1.54261261E+02   1.54261261E+02  -4.83783340E+01  -5.04119682E+01   2.04673233E+02  -1.84903183E+01   2.03641174E+02  -5.03093414E+01   1.54158630E+02  -4.83783340E+01  -4.58198881E+00
             2011                4   2.02676849E+02   1.53599548E+02   1.53599548E+02  -4.77382469E+01  -5.03903427E+01   1.53599548E+02   1.53599548E+02  -4.77382469E+01  -5.03903427E+01   2.03989883E+02  -1.84903183E+01   2.02637817E+02  -4.76526909E+01   1.53513992E+02  -5.03903427E+01  -4.14944601E+00
             2012                1   3.75988159E+01   3.45477829E+01   3.45477829E+01  -9.27744567E-01  -4.86453342E+00   3.45477829E+01   3.45477829E+01  -9.27744567E-01  -4.86453342E+00   3.94123154E+01  -9.58516788E+00   3.71308784E+01   3.23263496E-01   3.32967720E+01  -4.86453342E+00   6.54333258E+00
             2012                2   3.71854630E+01   3.42549057E+01   3.42549057E+01  -6.34869635E-01  -4.86453342E+00   3.42549057E+01   3.42549057E+01  -6.34869635E-01  -4.86453342E+00   3.91194420E+01  -9.58516788E+00   3.66384048E+01   6.17649496E-01   3.30023880E+01  -4.86453342E+00   6.49086237E+00
             2012                3   3.75232430E+01   3.44943581E+01   3.44943581E+01  -8.74320209E-01  -4.86453342E+00   3.44943581E+01   3.44943581E+01  -8.74320209E-01  -4.86453342E+00   3.93588905E+01  -9.58516788E+00   3.70414124E+01   2.66781390E-01   3.33532562E+01  -4.86453342E+00   6.24956989E+00
             2012                4   3.71088219E+01   3.42004242E+01   3.42004242E+01  -5.80385268E-01  -4.86453342E+00   3.42004242E+01   3.42004242E+01  -5.80385268E-01  -4.86453342E+00   3.90649567E+01  -9.58516788E+00   3.65462341E+01   5.61262906E-01   3.30587730E+01  -4.86453342E+00   6.19710588E+00
             2013                1   2.17430252E+02   1.59724380E+02   1.59724380E+02  -6.36956558E+01  -5.11750259E+01   1.59724380E+02   1.59724380E+02  -5.11750259E+01  -6.36956558E+01   2.23420029E+02  -1.49512329E+01   2.16616943E+02  -6.36932755E+01   1.59722000E+02  -5.11750259E+01   7.28472531E-01
             2013                2   2.16960297E+02   1.59541016E+02   1.59541016E+02  -6.06506767E+01  -5.40366364E+01   1.59541016E+02   1.59541016E+02  -5.40366364E+01  -6.06506767E+01   2.20191696E+02  -1.49512329E+01   2.16733292E+02  -6.05495567E+01   1.59439896E+02  -5.40366364E+01   4.71752214E+00
             2013                3   2.17233902E+02   1.59680206E+02   1.59680206E+02  -6.19223328E+01  -5.29041672E+01   1.59680206E+02   1.59680206E+02  -5.29041672E+01  -6.19223328E+01   2.21602539E+02  -1.49512358E+01   2.16812119E+02  -6.17900581E+01   1.59547928E+02  -5.29041672E+01  -5.41255951E+00
             2013                4   2.16738373E+02   1.59435043E+02   1.59435043E+02  -5.86434097E+01  -5.59379272E+01   1.59435043E+02   1.59435043E+02  -5.59379272E+01  -5.86434097E+01   2.18078445E+02  -1.49512358E+01   2.16700378E+02  -5.86326370E+01   1.59424271E+02  -5.59379272E+01  -1.53242362E+00
             2014                1   4.52952728E+01   4.29742584E+01   4.29742584E+01  -1.26314676E+00  -3.30951667E+00   4.29742584E+01   4.29742584E+01  -1.26314676E+00  -3.30951667E+00   4.62837753E+01  -1.28005323E+01   4.51910934E+01   6.05636418E-01   4.11054764E+01  -3.30951667E+00   8.89818954E+00
             2014                2   4.56581764E+01   4.32215919E+01   4.32215919E+01  -1.51047814E+00  -3.30951667E+00   4.32215919E+01   4.32215919E+01  -1.51047814E+00  -3.30951667E+00   4.65311089E+01  -1.28005323E+01   4.55783310E+01   3.15362602E-01   4.13957520E+01  -3.30951667E+00   8.85098171E+00
             2014                3   4.55334129E+01   4.31366463E+01   4.31366463E+01  -1.42553067E+00  -3.30951667E+00   4.31366463E+01   4.31366463E+01  -1.42553067E+00  -3.30951667E+00   4.64461632E+01  -1.28005333E+01   4.54455948E+01   5.60697734E-01   4.11504173E+01  -3.30951667E+00   9.19595718E+00
             2014                4   4.58882675E+01   4.33780060E+01   4.33780060E+01  -1.66689348E+00  -3.30951667E+00   4.33780060E+01   4.33780060E+01  -1.66689348E+00  -3.30951667E+00   4.66875229E+01  -1.28005323E+01   4.58220482E+01   2.75896072E-01   4.14352188E+01  -3.30951667E+00   9.15086079E+00
             2015                1   2.07767059E+02   1.77302994E+02   1.77302994E+02  -3.33316307E+01  -2.74725685E+01   1.77302994E+02   1.77302994E+02  -2.74725685E+01  -3.33316307E+01   2.10634613E+02  -3.88329315E+01   2.07581055E+02  -3.31960182E+01   1.77167374E+02  -2.74725685E+01  -5.34292841E+00
             2015                2   2.08872696E+02   1.77955826E+02   1.77955826E+02  -3.58486900E+01  -2.56083546E+01   1.77955826E+02   1.77955826E+02  -2.56083546E+01  -3.58486900E+01   2.13804520E+02  -3.88329277E+01   2.08306778E+02  -3.54976921E+01   1.77604828E+02  -2.56083546E+01  -8.65569019E+00
             2015                3   2.08750854E+02   1.77902878E+02   1.77902878E+02  -3.52077141E+01  -2.61963844E+01   1.77902878E+02   1.77902878E+02  -2.61963844E+01  -3.52077141E+01   2.13110596E+02  -3.88329277E+01   2.08312561E+02  -3.52019157E+01   1.77897079E+02  -2.61963844E+01  -1.11139131E+00
             2015                4   2.09356552E+02   1.78196594E+02   1.78196594E+02  -3.74353065E+01  -2.42625122E+01   1.78196594E+02   1.78196594E+02  -2.42625122E+01  -3.74353065E+01   2.15631912E+02  -3.88329277E+01   2.08421097E+02  -3.73430519E+01   1.78104340E+02  -2.42625122E+01  -4.45933676E+00
             2016                1   2.20000000E+02   2.04266953E+02   2.04266953E+02  -3.24473267E+01   6.06769228E+00   2.04266953E+02   2.04266953E+02   6.06769228E+00  -3.24473267E+01   2.36714279E+02  -5.92957726E+01   2.12215240E+02  -3.21482658E+01   2.03967896E+02   6.06769228E+00   8.40840721E+00
             2016                2   2.20000000E+02   2.04521500E+02   2.04521500E+02  -3.10779305E+01   4.44373608E+00   2.04521500E+02   2.04521500E+02   4.44373608E+00  -3.10779305E+01   2.35599442E+02  -5.92957726E+01   2.13404739E+02  -3.04281731E+01   2.03871750E+02   4.44373608E+00   1.23555460E+01
             2016                3   2.19999985E+02   2.04580994E+02   2.04580994E+02  -3.07389774E+01   4.04529953E+00   2.04580994E+02   2.04580994E+02   4.04529953E+00  -3.07389774E+01   2.35319962E+02  -5.92957726E+01   2.13681595E+02  -3.06355858E+01   2.04477600E+02   4.04529953E+00   4.93139887E+00
             2016                4   2.20000000E+02   2.04820007E+02   2.04820007E+02  -2.92889957E+01   2.35631275E+00   2.04820007E+02   2.04820007E+02   2.35631275E+00  -2.92889957E+01   2.34108994E+02  -5.92957726E+01   2.14789886E+02  -2.89636574E+01   2.04494659E+02   2.35631275E+00   8.72122574E+00
             2017                1   2.20000000E+02   1.98735779E+02   1.98735779E+02  -3.36773720E+01  -6.28573132E+00   1.98735779E+02   1.98735779E+02  -6.28573132E+00  -3.36773720E+01   2.32413147E+02  -5.29242249E+01   2.16113617E+02  -3.28252296E+01   1.97883636E+02  -6.28573132E+00   1.40471859E+01
             2017                2   2.20000000E+02   1.98976013E+02   1.98976013E+02  -3.17202854E+01  -8.48303604E+00   1.98976013E+02   1.98976013E+02  -8.48303604E+00  -3.17202854E+01   2.30696289E+02  -5.29242287E+01   2.17213287E+02  -3.13118153E+01   1.98567535E+02  -8.48303604E+00   9.69876862E+00
             2017                3   2.20000000E+02   1.98490158E+02   1.98490158E+02  -3.53911095E+01  -4.32636929E+00   1.98490158E+02   1.98490158E+02  -4.32636929E+00  -3.53911095E+01   2.33881256E+02  -5.29242249E+01   2.14982559E+02  -3.49931755E+01   1.98092224E+02  -4.32636929E+00   9.63897991E+00
             2017                4   2.20000000E+02   1.98741486E+02   1.98741486E+02  -3.36345825E+01  -6.33422565E+00   1.98741486E+02   1.98741486E+02  -6.33422565E+00  -3.36345825E+01   2.32376068E+02  -5.29242249E+01   2.16139801E+02  -3.35147896E+01   1.98621689E+02  -6.33422565E+00   5.27482271E+00
             2018                1   2.20000000E+02   2.31827133E+02   2.31827133E+02  -1.12377405E+01   4.63446808E+01   2.31827133E+02   2.31827133E+02   4.63446808E+01  -1.12377405E+01   2.43064865E+02  -8.89780273E+01   2.01975571E+02  -1.12320900E+01   2.31821472E+02   4.63446808E+01   1.17228937E+00
             2018                2   2.20000000E+02   2.31177689E+02   2.31177689E+02  -1.32309046E+01   4.89872894E+01   2.31177689E+02   2.31177689E+02   4.89872894E+01  -1.32309046E+01   2.44408585E+02  -8.89780273E+01   1.98713226E+02  -1.30365362E+01   2.30983307E+02   4.89872894E+01  -6.88978100E+00
             2018                3   2.20000000E+02   2.31066788E+02   2.31066788E+02  -1.35531683E+01   4.94204292E+01   2.31066788E+02   2.31066788E+02   4.94204292E+01  -1.35531683E+01   2.44619965E+02  -8.89780197E+01   1.98149567E+02  -1.33056936E+01   2.30819321E+02   4.94204292E+01   7.77661943E+00
             2018                4   2.20000000E+02   2.30471146E+02   2.30471146E+02  -1.52066011E+01   5.16695137E+01   2.30471146E+02   2.30471146E+02   5.16695137E+01  -1.52066011E+01   2.45677750E+02  -8.89780197E+01   1.95086334E+02  -1.52065639E+01   2.30471100E+02   5.16695137E+01  -1.02683812E-01
             2019                1   7.91879959E+01   7.30223160E+01   7.30223160E+01  -6.14366436E+00  -6.18766975E+00   7.30223160E+01   7.30223160E+01  -6.14366436E+00  -6.18766975E+00   7.92099915E+01  -2.02303295E+01   7.91879654E+01  -5.33889294E+00   7.22175446E+01  -6.18766975E+00   7.94122791E+00
             2019                2   7.88527069E+01   7.27985687E+01   7.27985687E+01  -5.91992569E+00  -6.18766975E+00   7.27985687E+01   7.27985687E+01  -5.91992569E+00  -6.18766975E+00   7.89862442E+01  -2.02303257E+01   7.88516846E+01  -5.08130360E+00   7.19599533E+01  -6.18766975E+00   8.08155632E+00
             2019                3   7.89107513E+01   7.28373260E+01   7.28373260E+01  -5.95867777E+00  -6.18766975E+00   7.28373260E+01   7.28373260E+01  -5.95867777E+00  -6.18766975E+00   7.90249939E+01  -2.02303257E+01   7.89099960E+01  -5.20266008E+00   7.20813065E+01  -6.18766975E+00   7.68112230E+00
             2019                4   7.85738449E+01   7.26122360E+01   7.26122360E+01  -5.73358774E+00  -6.18766975E+00   7.26122360E+01   7.26122360E+01  -5.73358774E+00  -6.18766975E+00   7.87999039E+01  -2.02303257E+01   7.85708923E+01  -4.94488192E+00   7.18235321E+01  -6.18766975E+00   7.82109356E+00
             2020                1   4.37444839E+01   4.18645706E+01   4.18645706E+01  -1.09051216E+00  -2.62873602E+00   4.18645706E+01   4.18645706E+01  -1.09051216E+00  -2.62873602E+00   4.44933090E+01  -1.27151079E+01   4.36835709E+01   7.33702302E-01   4.00403557E+01  -2.62873602E+00   8.66207695E+00
             2020                2   4.34336929E+01   4.16532784E+01   4.16532784E+01  -8.79222751E-01  -2.62873602E+00   4.16532784E+01   4.16532784E+01  -8.79222751E-01  -2.62873602E+00   4.42820129E+01  -1.27151070E+01   4.33543091E+01   9.82057571E-01   3.97919998E+01  -2.62873602E+00   8.70060158E+00
             2020                3   4.35411835E+01   4.17264252E+01   4.17264252E+01  -9.52367842E-01  -2.62873602E+00   4.17264252E+01   4.17264252E+01  -9.52367842E-01  -2.62873602E+00   4.43551598E+01  -1.27151070E+01   4.34684868E+01   7.73007631E-01   4.00010490E+01  -2.62873602E+00   8.40594864E+00
             2020                4   4.32279549E+01   4.15130844E+01   4.15130844E+01  -7.39029408E-01  -2.62873602E+00   4.15130844E+01   4.15130844E+01  -7.39029408E-01  -2.62873602E+00   4.41418190E+01  -1.27151070E+01   4.31348763E+01   1.02098179E+00   3.97530746E+01  -2.62873602E+00   8.44194984E+00
             2021                1   2.17707550E+02   2.23809326E+02   2.23809326E+02  -8.38477898E+00   2.42796669E+01   2.23809326E+02   2.23809326E+02   2.42796669E+01  -8.38477898E+00   2.32194107E+02  -7.99014053E+01   2.12089218E+02  -8.30221367E+00   2.23726761E+02   2.42796669E+01   4.37766266E+00
             2021                2   2.17444016E+02   2.23887253E+02   2.23887253E+02  -6.64111090E+00   2.24580841E+01   2.23887253E+02   2.23887253E+02   2.24580841E+01  -6.64111090E+00   2.30528366E+02  -7.99014053E+01   2.12997360E+02  -6.37781239E+00   2.23623947E+02   2.24580841E+01   7.78649569E+00
             2021                3   2.17516647E+02   2.23884186E+02   2.23884186E+02  -7.01915646E+00   2.28391743E+01   2.23884186E+02   2.23884186E+02   2.28391743E+01  -7.01915646E+00   2.30903351E+02  -7.99014053E+01   2.12832794E+02  -7.01913834E+00   2.23884171E+02   2.28391743E+01  -7.13382512E-02
             2021                4   2.17238510E+02   2.23942871E+02   2.23942871E+02  -5.15388012E+00   2.09152241E+01   2.23942871E+02   2.23942871E+02   2.09152241E+01  -5.15388012E+00   2.29096741E+02  -7.99014053E+01   2.13676926E+02  -5.10606337E+00   2.23895050E+02   2.09152241E+01   3.30941272E+00
             2022                1   3.53712387E+01   3.94202003E+01   3.94202003E+01   3.15858388E+00   5.01223803E+00   3.94202003E+01   3.94202003E+01   5.01223803E+00   3.15858388E+00   3.62616158E+01  -1.58636742E+01   3.52617073E+01   5.44096041E+00   3.71378250E+01   5.01223803E+00   8.80644131E+00
             2022                2   3.55595703E+01   3.95425873E+01   3.95425873E+01   3.03619766E+00   5.01223803E+00   3.95425873E+01   3.95425873E+01   5.01223803E+00   3.03619766E+00   3.65063896E+01  -1.58636742E+01   3.54357224E+01   5.28974390E+00   3.72890396E+01   5.01223803E+00   8.78580570E+00
             2022                3   3.55072174E+01   3.95085831E+01   3.95085831E+01   3.07020116E+00   5.01223803E+00   3.95085831E+01   3.95085831E+01   5.01223803E+00   3.07020116E+00   3.64383812E+01  -1.58636742E+01   3.53874321E+01   5.42145491E+00   3.71573296E+01   5.01223803E+00   8.95251369E+00
             2022                4   3.56937180E+01   3.96296539E+01   3.96296539E+01   2.94912982E+00   5.01223803E+00   3.96296539E+01   3.96296539E+01   5.01223803E+00   2.94912982E+00   3.66805267E+01  -1.58636742E+01   3.55591965E+01   5.27122116E+00   3.73075638E+01   5.01223803E+00   8.93215656E+00
             2023                1   6.19009056E+01   5.93811302E+01   5.93811302E+01  -2.56939507E+00  -2.47004008E+00   5.93811302E+01   5.93811302E+01  -2.47004008E+00  -2.56939507E+00   6.19505234E+01  -1.81138973E+01   6.19007263E+01  -2.46209860E+00   5.92738304E+01  -2.47004008E+00   2.57597589E+00
             2023                2   6.18129272E+01   5.93225060E+01   5.93225060E+01  -2.51077843E+00  -2.47004008E+00   5.93225060E+01   5.93225060E+01  -2.47004008E+00  -2.51077843E+00   6.18332863E+01  -1.81138973E+01   6.18128967E+01  -2.38576818E+00   5.91974983E+01  -2.47004008E+00   2.77743053E+00
             2023                3   6.15902481E+01   5.91740150E+01   5.91740150E+01  -2.36228323E+00  -2.47004008E+00   5.91740150E+01   5.91740150E+01  -2.36228323E+00  -2.47004008E+00   6.16440582E+01  -1.81138973E+01   6.15900345E+01  -2.26064467E+00   5.90723763E+01  -2.47004008E+00   2.49884748E+00
             2023                4   6.15016937E+01   5.91149139E+01   5.91149139E+01  -2.30318284E+00  -2.47004008E+00   5.91149139E+01   5.91149139E+01  -2.30318284E+00  -2.47004008E+00   6.15849533E+01  -1.81138973E+01   6.15011826E+01  -2.18423033E+00   5.89959602E+01  -2.47004008E+00   2.70030594E+00
             2024                1   2.16373428E+02   2.12954269E+02   2.12954269E+02  -1.55215902E+01   1.11575260E+01   2.12954269E+02   2.12954269E+02   1.11575260E+01  -1.55215902E+01   2.28475861E+02  -6.95300674E+01   2.12625748E+02  -1.55141592E+01   2.12946838E+02   1.11575260E+01  -1.30289698E+00
             2024                2   2.16850388E+02   2.12961166E+02   2.12961166E+02  -1.78487644E+01   1.34777994E+01   2.12961166E+02   2.12961166E+02   1.34777994E+01  -1.78487644E+01   2.30809921E+02  -6.95300674E+01   2.11669769E+02  -1.77294712E+01   2.12841873E+02   1.34777994E+01   5.24580574E+00
             2024                3   2.16105133E+02   2.13014496E+02   2.13014496E+02  -1.34507465E+01   9.02644825E+00   2.13014496E+02   2.13014496E+02   9.02644825E+00  -1.34507465E+01   2.26465240E+02  -6.95300674E+01   2.13451492E+02  -1.33472424E+01   2.12910995E+02   9.02644825E+00   4.84034824E+00
             2024                4   2.16598587E+02   2.13065735E+02   2.13065735E+02  -1.58924294E+01   1.14168901E+01   2.13065735E+02   2.13065735E+02   1.14168901E+01  -1.58924294E+01   2.28958160E+02  -6.95300674E+01   2.12673569E+02  -1.53644972E+01   2.12537811E+02   1.14168901E+01   1.09815531E+01
             2025                1   6.84223862E+01   6.41454010E+01   6.41454010E+01  -4.32241488E+00  -4.23146772E+00   6.41454010E+01   6.41454010E+01  -4.23146772E+00  -4.32241488E+00   6.84678192E+01  -1.85305061E+01   6.84222488E+01  -4.19643116E+00   6.40194168E+01  -4.23146772E+00   2.93425918E+00
             2025                2   6.83112793E+01   6.40713577E+01   6.40713577E+01  -4.24836874E+00  -4.23146772E+00   6.40713577E+01   6.40713577E+01  -4.23146772E+00  -4.24836874E+00   6.83197250E+01  -1.85305080E+01   6.83112717E+01  -4.10543060E+00   6.39284210E+01  -4.23146772E+00   3.12170768E+00
             2025                3   6.81306076E+01   6.39508743E+01   6.39508743E+01  -4.12788439E+00  -4.23146772E+00   6.39508743E+01   6.39508743E+01  -4.12788439E+00  -4.23146772E+00   6.81823425E+01  -1.85305080E+01   6.81304321E+01  -4.00901556E+00   6.38320045E+01  -4.23146772E+00   2.84225488E+00
             2025                4   6.80190659E+01   6.38764343E+01   6.38764343E+01  -4.05344296E+00  -4.23146772E+00   6.38764343E+01   6.38764343E+01  -4.05344296E+00  -4.23146772E+00   6.81079025E+01  -1.85305080E+01   6.80185394E+01  -3.91804290E+00   6.37410316E+01  -4.23146772E+00   3.02976871E+00
             2026                1   3.36445198E+01   2.64944859E+01   2.64944859E+01  -1.53640556E+00  -1.08159304E+01   2.64944859E+01   2.64944859E+01  -1.53640556E+00  -1.08159304E+01   3.73104172E+01  -4.71404982E+00   3.05605354E+01   2.13258123E+00   2.28254986E+01  -1.08159304E+01   9.45428562E+00
             2026                2   3.42171745E+01   2.69492321E+01   2.69492321E+01  -1.99115336E+00  -1.08159304E+01   2.69492321E+01   2.69492321E+01  -1.99115336E+00  -1.08159304E+01   3.77651634E+01  -4.71404934E+00   3.15006199E+01   1.57634342E+00   2.33817348E+01  -1.08159304E+01   9.51407909E+00
             2026                3   3.40399513E+01   2.68092251E+01   2.68092251E+01  -1.85114670E+00  -1.08159304E+01   2.68092251E+01   2.68092251E+01  -1.85114670E+00  -1.08159304E+01   3.76251564E+01  -4.71404934E+00   3.12140369E+01   2.26347589E+00   2.26946030E+01  -1.08159304E+01   1.00497007E+01
             2026                4   3.45921516E+01   2.72434254E+01   2.72434254E+01  -2.28534627E+00  -1.08159304E+01   2.72434254E+01   2.72434254E+01  -2.28534627E+00  -1.08159304E+01   3.80593567E+01  -4.71404934E+00   3.20950546E+01   1.70706713E+00   2.32510109E+01  -1.08159304E+01   1.00971136E+01
             2027                1   3.78043747E+01   3.38172760E+01   3.38172760E+01  -1.31428969E+00  -6.18732643E+00   3.38172760E+01   3.38172760E+01  -1.31428969E+00  -6.18732643E+00   4.00046043E+01  -8.77188683E+00   3.70879059E+01   1.75433531E-01   3.23275528E+01  -6.18732643E+00   7.07933998E+00
             2027                2   3.73403931E+01   3.34832878E+01   3.34832878E+01  -9.80302811E-01  -6.18732643E+00   3.34832878E+01   3.34832878E+01  -9.80302811E-01  -6.18732643E+00   3.96706161E+01  -8.77188683E+00   3.65101814E+01   5.17784238E-01   3.19852009E+01  -6.18732643E+00   7.02746201E+00
             2027                3   3.76930084E+01   3.37373161E+01   3.37373161E+01  -1.23433065E+00  -6.18732643E+00   3.37373161E+01   3.37373161E+01  -1.23433065E+00  -6.18732643E+00   3.99246445E+01  -8.77188683E+00   3.69502335E+01   1.12192981E-01   3.23907928E+01  -6.18732643E+00   6.72882318E+00
             2027                4   3.72270317E+01   3.34013329E+01   3.34013329E+01  -8.98350239E-01  -6.18732643E+00   3.34013329E+01   3.34013329E+01  -8.98350239E-01  -6.18732643E+00   3.95886612E+01  -8.77188587E+00   3.63673286E+01   4.53582287E-01   3.20494003E+01  -6.18732643E+00   6.67406559E+00
             2028                1   2.20000000E+02   2.44276459E+02   2.44276459E+02  -2.50532627E+00   6.86930084E+01   2.44276459E+02   2.44276459E+02   6.86930084E+01  -2.50532627E+00   2.46781784E+02  -1.03488045E+02   1.91381042E+02  -2.31195259E+00   2.44083084E+02   6.86930084E+01  -6.90537405E+00
             2028                2   2.20000000E+02   2.43545258E+02   2.43545258E+02  -4.24089432E+00   7.11597748E+01   2.43545258E+02   2.43545258E+02   7.11597748E+01  -4.24089432E+00   2.47786163E+02  -1.03488045E+02   1.87435287E+02  -4.24086428E+00   2.43545227E+02   7.11597748E+01   9.24521536E-02
             2028                3   2.20000000E+02   2.44958115E+02   2.44958115E+02  -7.58146584E-01   6.62641678E+01   2.44958115E+02   2.44958115E+02   6.62641678E+01  -7.58146584E-01   2.45716263E+02  -1.03488045E+02   1.94966507E+02  -7.49452233E-01   2.44949417E+02   6.62641678E+01   1.46173012E+00
             2028                4   2.20000000E+02   2.44158875E+02   2.44158875E+02  -2.79346824E+00   6.90987244E+01   2.44158875E+02   2.44158875E+02   6.90987244E+01  -2.79346824E+00   2.46952332E+02  -1.03488037E+02   1.90753754E+02  -2.51175737E+00   2.43877167E+02   6.90987244E+01   8.33594894E+00
             2029                1   3.84754601E+01   4.21612244E+01   4.21612244E+01   8.07963967E-01   7.42075109E+00   4.21612244E+01   4.21612244E+01   7.42075109E+00   8.07963967E-01   4.13532600E+01  -1.67966461E+01   3.71645546E+01   1.94787049E+00   4.10213165E+01   7.42075109E+00   6.77048969E+00
             2029                2   3.81752701E+01   4.19749107E+01   4.19749107E+01   9.94272947E-01   7.42075109E+00   4.19749107E+01   4.19749107E+01   7.42075109E+00   9.94272947E-01   4.09806404E+01  -1.67966442E+01   3.69287720E+01   2.15471983E+00   4.08144646E+01   7.42075109E+00   6.79773760E+00
             2029                3   3.83232193E+01   4.20667648E+01   4.20667648E+01   9.02419329E-01   7.42075109E+00   4.20667648E+01   4.20667648E+01   7.42075109E+00   9.02419329E-01   4.11643448E+01  -1.67966442E+01   3.70451241E+01   1.97437620E+00   4.09948082E+01   7.42075109E+00   6.55570984E+00
             2029                4   3.80244446E+01   4.18812180E+01   4.18812180E+01   1.08796775E+00   7.42075109E+00   4.18812180E+01   4.18812180E+01   7.42075109E+00   1.08796775E+00   4.07932510E+01  -1.67966442E+01   3.68098717E+01   2.17985320E+00   4.07893333E+01   7.42075109E+00   6.58401680E+00
             2030                1   7.99980469E+01   7.41842651E+01   7.41842651E+01  -5.85466814E+00  -5.77282858E+00   7.41842651E+01   7.41842651E+01  -5.77282858E+00  -5.85466814E+00   8.00389328E+01  -2.08522568E+01   7.99979477E+01  -5.84770918E+00   7.41773071E+01  -5.77282858E+00   7.46267676E-01
             2030                2   7.97596283E+01   7.40253220E+01   7.40253220E+01  -5.69572639E+00  -5.77282858E+00   7.40253220E+01   7.40253220E+01  -5.69572639E+00  -5.77282858E+00   7.97981491E+01  -2.08522568E+01   7.97595444E+01  -5.68913841E+00   7.40187378E+01  -5.77282858E+00   7.24561095E-01
             2030                3   8.00265274E+01   7.42032394E+01   7.42032394E+01  -5.87364531E+00  -5.77282858E+00   7.42032394E+01   7.42032394E+01  -5.77282858E+00  -5.87364531E+00   8.00768890E+01  -2.08522568E+01   8.00263824E+01  -5.86933041E+00   7.41989288E+01  -5.77282858E+00   5.87725759E-01
             2030                4   7.97882004E+01   7.40443802E+01   7.40443802E+01  -5.71477890E+00  -5.77282858E+00   7.40443802E+01   7.40443802E+01  -5.71477890E+00  -5.77282858E+00   7.98172073E+01  -2.08522568E+01   7.97881470E+01  -5.71076393E+00   7.40403595E+01  -5.77282858E+00   5.66025734E-01
             2031                1   1.05984665E+02   1.10745445E+02   1.10745445E+02   4.23763132E+00   5.29179192E+00   1.10745445E+02   1.10745445E+02   5.29179192E+00   4.23763132E+00   1.06507812E+02  -4.00916252E+01   1.05972870E+02   6.71246195E+00   1.08270615E+02   5.29179192E+00   1.60456905E+01
             2031                2   1.06155922E+02   1.10859024E+02   1.10859024E+02   4.12404776E+00   5.29179192E+00   1.10859024E+02   1.10859024E+02   5.29179192E+00   4.12404776E+00   1.06734978E+02  -4.00916214E+01   1.06141464E+02   6.73533964E+00   1.08247734E+02   5.29179192E+00   1.64892998E+01
             2031                3   1.05350449E+02   1.10324303E+02   1.10324303E+02   4.65877151E+00   5.29179192E+00   1.10324303E+02   1.10324303E+02   5.29179192E+00   4.65877151E+00   1.05665535E+02  -4.00916252E+01   1.05346169E+02   7.14919233E+00   1.07833885E+02   5.29179192E+00   1.60296440E+01
             2031                4   1.05530930E+02   1.10444237E+02   1.10444237E+02   4.53884411E+00   5.29179192E+00   1.10444237E+02   1.10444237E+02   5.29179192E+00   4.53884411E+00   1.05905388E+02  -4.00916252E+01   1.05524879E+02   7.16801882E+00   1.07815056E+02   5.29179192E+00   1.64782143E+01
             2032                1   5.34646301E+01   4.77595444E+01   4.77595444E+01  -3.85229087E+00  -7.38288164E+00   4.77595444E+01   4.77595444E+01  -3.85229087E+00  -7.38288164E+00   5.51424255E+01  -1.21747904E+01   5.32014084E+01  -8.26841533E-01   4.47340965E+01  -7.38288164E+00   1.21241732E+01
             2032                2   5.40715714E+01   4.81776886E+01   4.81776886E+01  -4.27043533E+00  -7.38288164E+00   4.81776886E+01   4.81776886E+01  -4.27043533E+00  -7.38288164E+00   5.55605698E+01  -1.21747904E+01   5.38694763E+01  -1.32287133E+00   4.52301254E+01  -7.38288164E+00   1.20791569E+01
             2032                3   5.38541565E+01   4.80281296E+01   4.80281296E+01  -4.12087774E+00  -7.38288164E+00   4.80281296E+01   4.80281296E+01  -4.12087774E+00  -7.38288164E+00   5.54110107E+01  -1.21747904E+01   5.36312065E+01  -8.39893460E-01   4.47471466E+01  -7.38288164E+00   1.26623545E+01
             2032                4   5.44529839E+01   4.84394493E+01   4.84394493E+01  -4.53219366E+00  -7.38288164E+00   4.84394493E+01   4.84394493E+01  -4.53219366E+00  -7.38288164E+00   5.58223343E+01  -1.21747923E+01   5.42847137E+01  -1.33729732E+00   4.52445526E+01  -7.38288164E+00   1.26107750E+01
             2033                1   8.13907166E+01   7.50970383E+01   7.50970383E+01  -6.22343588E+00  -6.36372995E+00   7.50970383E+01   7.50970383E+01  -6.22343588E+00  -6.36372995E+00   8.14607697E+01  -2.08366241E+01   8.13904419E+01  -4.79374552E+00   7.36673508E+01  -6.36372995E+00   1.06873283E+01
             2033                2   8.09259186E+01   7.47866058E+01   7.47866058E+01  -5.91301298E+00  -6.36372995E+00   7.47866058E+01   7.47866058E+01  -5.91301298E+00  -6.36372995E+00   8.11503372E+01  -2.08366222E+01   8.09231033E+01  -4.43960333E+00   7.33132019E+01  -6.36372995E+00   1.08042803E+01
             2033                3   8.10919952E+01   7.48975983E+01   7.48975983E+01  -6.02399540E+00  -6.36372995E+00   7.48975983E+01   7.48975983E+01  -6.02399540E+00  -6.36372995E+00   8.12613297E+01  -2.08366241E+01   8.10903931E+01  -4.68327522E+00   7.35568771E+01  -6.36372995E+00   1.03293676E+01
             2033                4   8.06244202E+01   7.45849152E+01   7.45849152E+01  -5.71131468E+00  -6.36372995E+00   7.45849152E+01   7.45849152E+01  -5.71131468E+00  -6.36372995E+00   8.09486465E+01  -2.08366241E+01   8.06184845E+01  -4.32880306E+00   7.32024078E+01  -6.36372995E+00   1.04450502E+01
             2034                1   1.01679596E+02   1.02000259E+02   1.02000259E+02   1.28034428E-01   5.14396548E-01   1.02000259E+02   1.02000259E+02   5.14396548E-01   1.28034428E-01   1.01872231E+02  -3.42142296E+01   1.01677948E+02   1.41214335E+00   1.00716156E+02   5.14396548E-01   1.13651114E+01
             2034                2   1.01795830E+02   1.02077591E+02   1.02077591E+02   5.07128276E-02   5.14396548E-01   1.02077591E+02   1.02077591E+02   5.14396548E-01   5.07128276E-02   1.02026878E+02  -3.42142334E+01   1.01793449E+02   1.40540409E+00   1.00722900E+02   5.14396548E-01   1.16781693E+01
             2034                3   1.01238518E+02   1.01706551E+02   1.01706551E+02   4.21749473E-01   5.14396548E-01   1.01706551E+02   1.01706551E+02   5.14396548E-01   4.21749473E-01   1.01284805E+02  -3.42142334E+01   1.01238419E+02   1.71518421E+00   1.00413116E+02   5.14396548E-01   1.13724489E+01
             2034                4   1.01354202E+02   1.01783630E+02   1.01783630E+02   3.44674379E-01   5.14396548E-01   1.01783630E+02   1.01783630E+02   5.14396548E-01   3.44674379E-01   1.01438957E+02  -3.42142334E+01   1.01353882E+02   1.70894325E+00   1.00419357E+02   5.14396548E-01   1.16845655E+01
             2035                1   1.04769341E+02   1.08009888E+02   1.08009888E+02   2.87985468E+00   3.60500407E+00   1.08009888E+02   1.08009888E+02   3.60500407E+00   2.87985468E+00   1.05130028E+02  -3.81649132E+01   1.04763695E+02   4.71101427E+00   1.06178726E+02   3.60500407E+00   1.37534237E+01
             2035                2   1.04872238E+02   1.08078239E+02   1.08078239E+02   2.81150675E+00   3.60500407E+00   1.08078239E+02   1.08078239E+02   3.60500407E+00   2.81150675E+00   1.05266731E+02  -3.81649170E+01   1.04865479E+02   4.73228931E+00   1.06157455E+02   3.60500407E+00   1.40891943E+01
             2035                3   1.04283066E+02   1.07686577E+02   1.07686577E+02   3.20317292E+00   3.60500407E+00   1.07686577E+02   1.07686577E+02   3.60500407E+00   3.20317292E+00   1.04483398E+02  -3.81649170E+01   1.04281326E+02   5.03683233E+00   1.05852913E+02   3.60500407E+00   1.37195082E+01
             2035                4   1.04388306E+02   1.07756592E+02   1.07756592E+02   3.13315821E+00   3.60500407E+00   1.07756592E+02   1.07756592E+02   3.60500407E+00   3.13315821E+00   1.04623428E+02  -3.81649170E+01   1.04385910E+02   5.05739450E+00   1.05832352E+02   3.60500407E+00   1.40576553E+01
             2036                1   2.19022858E+02   2.21816696E+02   2.21816696E+02  -1.34119787E+01   2.37560291E+01   2.21816696E+02   2.21816696E+02   2.37560291E+01  -1.34119787E+01   2.35228683E+02  -7.73869171E+01   2.11752579E+02  -1.34008722E+01   2.21805603E+02   2.37560291E+01  -1.61580944E+00
             2036                2   2.19108551E+02   2.21501678E+02   2.21501678E+02  -1.53115959E+01   2.59706860E+01   2.21501678E+02   2.21501678E+02   2.59706860E+01  -1.53115959E+01   2.36813263E+02  -7.73869247E+01   2.10089859E+02  -1.50756178E+01   2.21265701E+02   2.59706860E+01  -7.47167444E+00
             2036                3   2.19139893E+02   2.21435806E+02   2.21435806E+02  -1.57294512E+01   2.64544067E+01   2.21435806E+02   2.21435806E+02   2.64544067E+01  -1.57294512E+01   2.37165268E+02  -7.73869247E+01   2.09711197E+02  -1.56994820E+01   2.21405838E+02   2.64544067E+01   2.66604090E+00
             2036                4   2.19221848E+02   2.21099350E+02   2.21099350E+02  -1.74792366E+01   2.85406437E+01   2.21099350E+02   2.21099350E+02   2.85406437E+01  -1.74792366E+01   2.38578598E+02  -7.73869247E+01   2.07933090E+02  -1.74329700E+01   2.21053085E+02   2.85406437E+01  -3.32214928E+00
             2037                1   2.04921310E+02   1.81060684E+02   1.81060684E+02  -2.62374496E+01  -2.13980713E+01   1.81060684E+02   1.81060684E+02  -2.13980713E+01  -2.62374496E+01   2.07298141E+02  -4.44750557E+01   2.04792679E+02  -2.60877132E+01   1.80910950E+02  -2.13980713E+01   5.56945467E+00
             2037                2   2.05963593E+02   1.81721039E+02   1.81721039E+02  -2.77520275E+01  -2.05438404E+01   1.81721039E+02   1.81721039E+02  -2.05438404E+01  -2.77520275E+01   2.09473068E+02  -4.44750557E+01   2.05679504E+02  -2.77150135E+01   1.81684021E+02  -2.05438404E+01   2.78435802E+00
             2037                3   2.05918030E+02   1.81680832E+02   1.81680832E+02  -2.80022392E+01  -2.02534237E+01   1.81680832E+02   1.81680832E+02  -2.02534237E+01  -2.80022392E+01   2.09683075E+02  -4.44750557E+01   2.05589615E+02  -2.76890869E+01   1.81367676E+02  -2.02534237E+01   8.09720707E+00
             2037                4   2.06544312E+02   1.82050171E+02   1.82050171E+02  -2.93124504E+01  -1.93125610E+01   1.82050171E+02   1.82050171E+02  -1.93125610E+01  -2.93124504E+01   2.11362625E+02  -4.44750519E+01   2.05998596E+02  -2.91786613E+01   1.81916382E+02  -1.93125610E+01   5.31594896E+00
             2038                1   1.99063736E+02   1.62508926E+02   1.62508926E+02  -3.79656029E+01  -3.51133614E+01   1.62508926E+02   1.62508926E+02  -3.51133614E+01  -3.79656029E+01   2.00474533E+02  -2.98099880E+01   1.99017746E+02  -3.79620476E+01   1.62505371E+02  -3.51133614E+01  -8.43786657E-01
             2038                2   1.98336945E+02   1.62033691E+02   1.62033691E+02  -3.58713226E+01  -3.67323990E+01   1.62033691E+02   1.62033691E+02  -3.58713226E+01  -3.67323990E+01   1.98766083E+02  -2.98099880E+01   1.98332733E+02  -3.58712692E+01   1.62033630E+02  -3.67323990E+01   1.00397736E-01
             2038                3   1.98820435E+02   1.62351715E+02   1.62351715E+02  -3.74808655E+01  -3.54408875E+01   1.62351715E+02   1.62351715E+02  -3.54408875E+01  -3.74808655E+01   1.99832581E+02  -2.98099880E+01   1.98796890E+02  -3.73776550E+01   1.62248505E+02  -3.54408875E+01  -4.54024935E+00
             2038                4   1.98078995E+02   1.61858902E+02   1.61858902E+02  -3.53534203E+01  -3.70755272E+01   1.61858902E+02   1.61858902E+02  -3.53534203E+01  -3.70755272E+01   1.98934433E+02  -2.98099880E+01   1.98062149E+02  -3.52862930E+01   1.61791779E+02  -3.70755272E+01  -3.63790560E+00
             2039                1   2.04575272E+02   1.51805038E+02   1.51805038E+02  -5.15706291E+01  -5.39491043E+01   1.51805038E+02   1.51805038E+02  -5.15706291E+01  -5.39491043E+01   2.05754135E+02  -1.54284334E+01   2.04544159E+02  -5.15680962E+01   1.51802505E+02  -5.39491043E+01   7.17193902E-01
             2039                2   2.04472992E+02   1.51733887E+02   1.51733887E+02  -5.13040390E+01  -5.41445541E+01   1.51733887E+02   1.51733887E+02  -5.13040390E+01  -5.41445541E+01   2.05878448E+02  -1.54284334E+01   2.04428589E+02  -5.12145424E+01   1.51644394E+02  -5.41445541E+01  -4.26190042E+00
             2039                3   2.05335022E+02   1.52310471E+02   1.52310471E+02  -5.42923775E+01  -5.17327957E+01   1.52310471E+02   1.52310471E+02  -5.17327957E+01  -5.42923775E+01   2.06602859E+02  -1.54284334E+01   2.05299133E+02  -5.42922630E+01   1.52310364E+02  -5.17327957E+01   1.52356982E-01
             2039                4   2.05240860E+02   1.52250137E+02   1.52250137E+02  -5.40493507E+01  -5.19154854E+01   1.52250137E+02   1.52250137E+02  -5.19154854E+01  -5.40493507E+01   2.06299484E+02  -1.54284325E+01   2.05215897E+02  -5.39403763E+01   1.52141159E+02  -5.19154854E+01  -4.74008179E+00
             2040                1   2.20000000E+02   2.25049683E+02   2.25049683E+02  -1.74659309E+01   3.82966118E+01   2.25049683E+02   2.25049683E+02   3.82966118E+01  -1.74659309E+01   2.42515625E+02  -8.19601212E+01   2.03167175E+02  -1.74283714E+01   2.25012131E+02   3.82966118E+01   3.01769710E+00
             2040                2   2.20000000E+02   2.24462387E+02   2.24462387E+02  -1.93436604E+01   4.07616463E+01   2.24462387E+02   2.24462387E+02   4.07616463E+01  -1.93436604E+01   2.43806046E+02  -8.19601212E+01   2.00241531E+02  -1.92572613E+01   2.24375992E+02   4.07616463E+01  -4.58873940E+00
             2040                3   2.20000000E+02   2.24362778E+02   2.24362778E+02  -1.96458797E+01   4.11634712E+01   2.24362778E+02   2.24362778E+02   4.11634712E+01  -1.96458797E+01   2.44008667E+02  -8.19601212E+01   1.99740097E+02  -1.93329639E+01   2.24049866E+02   4.11634712E+01   8.73251534E+00
             2040                4   2.20000000E+02   2.23799332E+02   2.23799332E+02  -2.12791729E+01   4.33602180E+01   2.23799332E+02   2.23799332E+02   4.33602180E+01  -2.12791729E+01   2.45078506E+02  -8.19601212E+01   1.96873444E+02  -2.12748127E+01   2.23794968E+02   4.33602180E+01   1.03386748E+00
             2041                1   2.18156036E+02   2.19981033E+02   2.19981033E+02  -1.28793869E+01   2.03397942E+01   2.19981033E+02   2.19981033E+02   2.03397942E+01  -1.28793869E+01   2.32860413E+02  -7.58138123E+01   2.12353806E+02  -1.24411173E+01   2.19542755E+02   2.03397942E+01   1.00927639E+01
             2041                2   2.17624664E+02   2.19950989E+02   2.19950989E+02  -1.05791636E+01   1.80696068E+01   2.19950989E+02   2.19950989E+02   1.80696068E+01  -1.05791636E+01   2.30530151E+02  -7.58138123E+01   2.13320312E+02  -1.05140162E+01   2.19885849E+02   1.80696068E+01   3.87461185E+00
             2041                3   2.18379883E+02   2.19784515E+02   2.19784515E+02  -1.49043703E+01   2.25612965E+01   2.19784515E+02   2.19784515E+02   2.25612965E+01  -1.49043703E+01   2.34688889E+02  -7.58138123E+01   2.10966797E+02  -1.48160601E+01   2.19696198E+02   2.25612965E+01   4.55179644E+00
             2041                4   2.18075943E+02   2.19915192E+02   2.19915192E+02  -1.29242334E+01   2.04504871E+01   2.19915192E+02   2.19915192E+02   2.04504871E+01  -1.29242334E+01   2.32839417E+02  -7.58138123E+01   2.12215927E+02  -1.29125309E+01   2.19903488E+02   2.04504871E+01  -1.65026903E+00
             2042                1   2.20000000E+02   1.71099121E+02   1.71099121E+02  -5.38325424E+01  -4.36130180E+01   1.71099121E+02   1.71099121E+02  -4.36130180E+01  -5.38325424E+01   2.24931671E+02  -2.45511875E+01   2.19464996E+02  -5.37635956E+01   1.71030182E+02  -4.36130180E+01   3.93743229E+00
             2042                2   2.20000000E+02   1.70902969E+02   1.70902969E+02  -5.69432411E+01  -4.03061714E+01   1.70902969E+02   1.70902969E+02  -4.03061714E+01  -5.69432411E+01   2.27846222E+02  -2.45511875E+01   2.18577942E+02  -5.69352570E+01   1.70894989E+02  -4.03061714E+01  -1.34881985E+00
             2042                3   2.20000000E+02   1.70945786E+02   1.70945786E+02  -5.63789864E+01  -4.09132385E+01   1.70945786E+02   1.70945786E+02  -4.09132385E+01  -5.63789864E+01   2.27324783E+02  -2.45511875E+01   2.18771912E+02  -5.58894386E+01   1.70456238E+02  -4.09132385E+01   1.05379276E+01
             2042                4   2.20000000E+02   1.70703506E+02   1.70703506E+02  -5.91532288E+01  -3.78967133E+01   1.70703506E+02   1.70703506E+02  -3.78967133E+01  -5.91532288E+01   2.29856735E+02  -2.45511875E+01   2.17671661E+02  -5.90370750E+01   1.70587357E+02  -3.78967133E+01   5.16565657E+00
             2043                1   2.18103012E+02   1.54208267E+02   1.54208267E+02  -6.81622696E+01  -5.93607559E+01   1.54208267E+02   1.54208267E+02  -5.93607559E+01  -6.81622696E+01   2.22370544E+02  -8.89508057E+00   2.17702896E+02  -6.81467209E+01   1.54192719E+02  -5.93607559E+01   1.85922933E+00
             2043                2   2.17470474E+02   1.53868057E+02   1.53868057E+02  -6.48536377E+01  -6.23291817E+01   1.53868057E+02   1.53868057E+02  -6.23291817E+01  -6.48536377E+01   2.18721695E+02  -8.89508152E+00   2.17437500E+02  -6.47438736E+01   1.53758301E+02  -6.23291817E+01   4.89862728E+00
             2043                3   2.17888245E+02   1.54111115E+02   1.54111115E+02  -6.67665329E+01  -6.06593399E+01   1.54111115E+02   1.54111115E+02  -6.06593399E+01  -6.67665329E+01   2.20877640E+02  -8.89508057E+00   2.17695541E+02  -6.66731339E+01   1.54017715E+02  -6.06593399E+01  -4.54088736E+00
             2043                4   2.17230179E+02   1.53714920E+02   1.53714920E+02  -6.32692146E+01  -6.37604523E+01   1.53714920E+02   1.53714920E+02  -6.32692146E+01  -6.37604523E+01   2.17475372E+02  -8.89508343E+00   2.17228928E+02  -6.32567062E+01   1.53702408E+02  -6.37604523E+01  -1.64772272E+00
             2044                1   2.20000000E+02   1.99937866E+02   1.99937866E+02  -3.13635921E+01  -6.67837143E+00   1.99937866E+02   1.99937866E+02  -6.67837143E+00  -3.13635921E+01   2.31301468E+02  -5.39653015E+01   2.16851395E+02  -3.04872208E+01   1.99061493E+02  -6.67837143E+00   1.42105532E+01
             2044                2   2.20000000E+02   2.00123810E+02   2.00123810E+02  -2.96779976E+01  -8.54993057E+00   2.00123810E+02   2.00123810E+02  -8.54993057E+00  -2.96779976E+01   2.29801819E+02  -5.39652977E+01   2.17699921E+02  -2.92071629E+01   1.99652985E+02  -8.54993057E+00   1.03911419E+01
             2044                3   2.20000000E+02   1.99738052E+02   1.99738052E+02  -3.29233780E+01  -4.91876984E+00   1.99738052E+02   1.99738052E+02  -4.91876984E+00  -3.29233780E+01   2.32661423E+02  -5.39653015E+01   2.15935333E+02  -3.24498825E+01   1.99264557E+02  -4.91876984E+00   1.04851522E+01
             2044                4   2.20000000E+02   1.99937408E+02   1.99937408E+02  -3.13674412E+01  -6.67407465E+00   1.99937408E+02   1.99937408E+02  -6.67407465E+00  -3.13674412E+01   2.31304840E+02  -5.39652977E+01   2.16849289E+02  -3.11723919E+01   1.99742355E+02  -6.67407465E+00   6.71396446E+00
             2045                1   3.80816345E+01   3.67435532E+01   3.67435532E+01  -1.25857115E-01  -2.44436908E+00   3.67435532E+01   3.67435532E+01  -1.25857115E-01  -2.44436908E+00   3.91879196E+01  -1.13911085E+01   3.79223518E+01   1.08503628E+00   3.55326576E+01  -2.44436908E+00   6.57104969E+00
             2045                2   3.83809433E+01   3.69493141E+01   3.69493141E+01  -3.31618845E-01  -2.44436908E+00   3.69493141E+01   3.69493141E+01  -3.31618845E-01  -2.44436908E+00   3.93936844E+01  -1.13911085E+01   3.82497864E+01   8.71217608E-01   3.57464790E+01  -2.44436908E+00   6.58756304E+00
             2045                3   3.81672859E+01   3.68025017E+01   3.68025017E+01  -1.84805766E-01  -2.44436908E+00   3.68025017E+01   3.68025017E+01  -1.84805766E-01  -2.44436908E+00   3.92468681E+01  -1.13911085E+01   3.80163651E+01   1.10518384E+00   3.55125122E+01  -2.44436908E+00   6.78595066E+00
             2045                4   3.84656906E+01   3.70074539E+01   3.70074539E+01  -3.89757961E-01  -2.44436908E+00   3.70074539E+01   3.70074539E+01  -3.89757961E-01  -2.44436908E+00   3.94518204E+01  -1.13911085E+01   3.83419418E+01   8.91507149E-01   3.57261887E+01  -2.44436908E+00   6.80250454E+00
             2046                1   2.11496384E+02   1.61333298E+02   1.61333298E+02  -5.49579010E+01  -4.50177460E+01   1.61333298E+02   1.61333298E+02  -4.50177460E+01  -5.49579010E+01   2.16291199E+02  -2.04525509E+01   2.10969864E+02  -5.49506836E+01   1.61326080E+02  -4.50177460E+01  -1.24935639E+00
             2046                2   2.10790268E+02   1.60953171E+02   1.60953171E+02  -5.21486969E+01  -4.74468231E+01   1.60953171E+02   1.60953171E+02  -4.74468231E+01  -5.21486969E+01   2.13101868E+02  -2.04525509E+01   2.10672226E+02  -5.21318245E+01   1.60936295E+02  -4.74468231E+01   1.89639521E+00
             2046                3   2.11066452E+02   1.61102371E+02   1.61102371E+02  -5.34647255E+01  -4.62799911E+01   1.61102371E+02   1.61102371E+02  -4.62799911E+01  -5.34647255E+01   2.14567093E+02  -2.04525509E+01   2.10791046E+02  -5.32634811E+01   1.60901123E+02  -4.62799911E+01  -6.56802988E+00
             2046                4   2.10321121E+02   1.60663269E+02   1.60663269E+02  -5.04940758E+01  -4.88115463E+01   1.60663269E+02   1.60663269E+02  -4.88115463E+01  -5.04940758E+01   2.11157333E+02  -2.04525471E+01   2.10305984E+02  -5.04358788E+01   1.60605072E+02  -4.88115463E+01  -3.50488591E+00
             2047                1   8.00281143E+01   7.42604752E+01   7.42604752E+01  -5.12400436E+00  -6.39610195E+00   7.42604752E+01   7.42604752E+01  -5.12400436E+00  -6.39610195E+00   8.06565781E+01  -2.09134579E+01   8.00053635E+01  -1.90192997E+00   7.10384064E+01  -6.39610195E+00   1.56652737E+01
             2047                2   8.08488770E+01   7.48111038E+01   7.48111038E+01  -5.67462587E+00  -6.39610195E+00   7.48111038E+01   7.48111038E+01  -5.67462587E+00  -6.39610195E+00   8.12071991E+01  -2.09134579E+01   8.08416367E+01  -2.51965714E+00   7.16561356E+01  -6.39610195E+00   1.56197262E+01
             2047                3   8.04649353E+01   7.45537720E+01   7.45537720E+01  -5.41728926E+00  -6.39610195E+00   7.45537720E+01   7.45537720E+01  -5.41728926E+00  -6.39610195E+00   8.09498749E+01  -2.09134598E+01   8.04515381E+01  -1.96299994E+00   7.10994797E+01  -6.39610195E+00   1.62576523E+01
             2047                4   8.12719955E+01   7.50941925E+01   7.50941925E+01  -5.95772171E+00  -6.39610195E+00   7.50941925E+01   7.50941925E+01  -5.95772171E+00  -6.39610195E+00   8.14902954E+01  -2.09134579E+01   8.12693329E+01  -2.56965518E+00   7.17061310E+01  -6.39610195E+00   1.62212887E+01
             2048                1   2.20000000E+02   2.44563324E+02   2.44563324E+02  -2.54907656E+00   7.00013123E+01   2.44563324E+02   2.44563324E+02   7.00013123E+01  -2.54907656E+00   2.47112411E+02  -1.04005188E+02   1.90150009E+02  -2.37454391E+00   2.44388794E+02   7.00013123E+01  -6.56499338E+00
             2048                2   2.20000000E+02   2.43856506E+02   2.43856506E+02  -4.18977356E+00   7.23488235E+01   2.43856506E+02   2.43856506E+02   7.23488235E+01  -4.18977356E+00   2.48046280E+02  -1.04005188E+02   1.86304260E+02  -4.18926620E+00   2.43856003E+02   7.23488235E+01   3.53402972E-01
             2048                3   2.20000000E+02   2.45230316E+02   2.45230316E+02  -8.84645879E-01   6.76699066E+01   2.45230316E+02   2.45230316E+02   6.76699066E+01  -8.84645879E-01   2.46114960E+02  -1.04005188E+02   1.93687958E+02  -8.73400569E-01   2.45219070E+02   6.76699066E+01   1.66378713E+00
             2048                4   2.20000000E+02   2.44453552E+02   2.44453552E+02  -2.81170750E+00   7.03737259E+01   2.44453552E+02   2.44453552E+02   7.03737259E+01  -2.81170750E+00   2.47265259E+02  -1.04005188E+02   1.89559448E+02  -2.52190924E+00   2.44163757E+02   7.03737259E+01   8.46005249E+00
             2049                1   4.84621696E+01   5.09265213E+01   5.09265213E+01   2.51712942E+00   2.41174388E+00   5.09265213E+01   5.09265213E+01   2.51712942E+00   2.41174388E+00   4.85147743E+01  -1.86184635E+01   4.84619102E+01   2.65425324E+00   5.07893944E+01   2.41174388E+00   2.57281232E+00
             2049                2   4.88083572E+01   5.11572876E+01   5.11572876E+01   2.28635812E+00   2.41174388E+00   5.11572876E+01   5.11572876E+01   2.41174388E+00   2.28635812E+00   4.88709297E+01  -1.86184635E+01   4.88079948E+01   2.42914629E+00   5.10144997E+01   2.41174388E+00   2.63776016E+00
             2049                3   4.84007950E+01   5.08855515E+01   5.08855515E+01   2.55809546E+00   2.41174388E+00   5.08855515E+01   5.08855515E+01   2.55809546E+00   2.41174388E+00   4.84738045E+01  -1.86184635E+01   4.84002991E+01   2.72040534E+00   5.07232399E+01   2.41174388E+00   2.79601359E+00
             2049                4   4.87483406E+01   5.11173172E+01   5.11173172E+01   2.32632685E+00   2.41174388E+00   5.11173172E+01   5.11173172E+01   2.41174388E+00   2.32632685E+00   4.87909927E+01  -1.86184635E+01   4.87481728E+01   2.49467564E+00   5.09489708E+01   2.41174388E+00   2.86103344E+00
             2050                1   2.20000000E+02   2.38369949E+02   2.38369949E+02  -5.76850796E+00   5.54951859E+01   2.38369949E+02   2.38369949E+02   5.54951859E+01  -5.76850796E+00   2.44138458E+02  -9.60322037E+01   1.99412415E+02  -5.76402283E+00   2.38365463E+02   5.54951859E+01   1.04643548E+00
             2050                2   2.20000000E+02   2.37688919E+02   2.37688919E+02  -7.71068859E+00   5.81184082E+01   2.37688919E+02   2.37688919E+02   5.81184082E+01  -7.71068859E+00   2.45399597E+02  -9.60322037E+01   1.95933594E+02  -7.49341488E+00   2.37471634E+02   5.81184082E+01  -7.29886055E+00
             2050                3   2.20000000E+02   2.37578857E+02   2.37578857E+02  -8.00885105E+00   5.85266190E+01   2.37578857E+02   2.37578857E+02   5.85266190E+01  -8.00885105E+00   2.45587708E+02  -9.60322037E+01   1.95364075E+02  -7.75124264E+00   2.37321243E+02   5.85266190E+01   7.94989443E+00
             2050                4   2.20000000E+02   2.36955460E+02   2.36955460E+02  -9.62619877E+00   6.07673721E+01   2.36955460E+02   2.36955460E+02   6.07673721E+01  -9.62619877E+00   2.46581650E+02  -9.60322037E+01   1.92097092E+02  -9.62587070E+00   2.36955124E+02   6.07673721E+01  -2.84783632E-01
             2051                1   1.03198814E+02   1.05100082E+02   1.05100082E+02   1.77095759E+00   2.03206849E+00   1.05100082E+02   1.05100082E+02   2.03206849E+00   1.77095759E+00   1.03329124E+02  -3.63010368E+01   1.03198074E+02   3.17251110E+00   1.03698532E+02   2.03206849E+00   1.19522657E+01
             2051                2   1.03121048E+02   1.05048294E+02   1.05048294E+02   1.82275188E+00   2.03206849E+00   1.05048294E+02   1.05048294E+02   2.03206849E+00   1.82275188E+00   1.03225548E+02  -3.63010368E+01   1.03120567E+02   3.15601349E+00   1.03715034E+02   2.03206849E+00   1.16554308E+01
             2051                3   1.03630501E+02   1.05387314E+02   1.05387314E+02   1.48372948E+00   2.03206849E+00   1.05387314E+02   1.05387314E+02   2.03206849E+00   1.48372948E+00   1.03903580E+02  -3.63010368E+01   1.03627235E+02   2.88313532E+00   1.03987907E+02   2.03206849E+00   1.19768400E+01
             2051                4   1.03551956E+02   1.05335083E+02   1.05335083E+02   1.53596544E+00   2.03206849E+00   1.05335083E+02   1.05335083E+02   2.03206849E+00   1.53596544E+00   1.03799118E+02  -3.63010368E+01   1.03549286E+02   2.86614966E+00   1.04004898E+02   2.03206849E+00   1.16748695E+01
             2052                1   3.45122032E+01   4.33574066E+01   4.33574066E+01   8.79786777E+00   8.89273262E+00   4.33574066E+01   4.33574066E+01   8.89273262E+00   8.79786777E+00   3.45595398E+01  -2.03493347E+01   3.45119133E+01   9.35121632E+00   4.28040581E+01   8.89273262E+00   4.33788586E+00
             2052                2   3.45362358E+01   4.33734055E+01   4.33734055E+01   8.78186893E+00   8.89273262E+00   4.33734055E+01   4.33734055E+01   8.89273262E+00   8.78186893E+00   3.45915375E+01  -2.03493347E+01   3.45358391E+01   9.27539825E+00   4.28798752E+01   8.89273262E+00   4.10223961E+00
             2052                3   3.48946075E+01   4.36115341E+01   4.36115341E+01   8.54374027E+00   8.89273262E+00   4.36115341E+01   4.36115341E+01   8.89273262E+00   8.54374027E+00   3.50677948E+01  -2.03493347E+01   3.48906784E+01   9.10918236E+00   4.30460892E+01   8.89273262E+00   4.41691732E+00
             2052                4   3.49161720E+01   4.36258392E+01   4.36258392E+01   8.52943420E+00   8.89273262E+00   4.36258392E+01   4.36258392E+01   8.89273262E+00   8.52943420E+00   3.50964050E+01  -2.03493347E+01   3.49119225E+01   9.03418255E+00   4.31210899E+01   8.89273262E+00   4.17852831E+00
             2053                1   5.98122444E+01   5.81192360E+01   5.81192360E+01  -1.64159000E+00  -1.74429488E+00   5.81192360E+01   5.81192360E+01  -1.64159000E+00  -1.74429488E+00   5.98635292E+01  -1.82444515E+01   5.98120422E+01  -1.63698244E+00   5.81146278E+01  -1.74429488E+00   5.24745643E-01
             2053                2   5.98285866E+01   5.81301384E+01   5.81301384E+01  -1.65249348E+00  -1.74429488E+00   5.81301384E+01   5.81301384E+01  -1.65249348E+00  -1.74429488E+00   5.98744354E+01  -1.82444515E+01   5.98284264E+01  -1.65083182E+00   5.81284790E+01  -1.74429488E+00   3.15051943E-01
             2053                3   6.01273613E+01   5.83293114E+01   5.83293114E+01  -1.85166442E+00  -1.74429488E+00   5.83293114E+01   5.83293114E+01  -1.74429488E+00  -1.85166442E+00   6.01809731E+01  -1.82444515E+01   6.01271439E+01  -1.84684074E+00   5.83244858E+01  -1.74429488E+00   5.38811266E-01
             2053                4   6.01435699E+01   5.83401070E+01   5.83401070E+01  -1.86245608E+00  -1.74429488E+00   5.83401070E+01   5.83401070E+01  -1.74429488E+00  -1.86245608E+00   6.02025604E+01  -1.82444515E+01   6.01433029E+01  -1.86065853E+00   5.83383064E+01  -1.74429488E+00   3.29127669E-01
             2054                1   2.06909363E+02   1.50099045E+02   1.50099045E+02  -5.55392113E+01  -5.80584297E+01   1.50099045E+02   1.50099045E+02  -5.55392113E+01  -5.80584297E+01   2.08157471E+02  -1.21671333E+01   2.06874863E+02  -5.55353355E+01   1.50095169E+02  -5.80584297E+01   8.92388940E-01
             2054                2   2.06782196E+02   1.50010788E+02   1.50010788E+02  -5.52368202E+01  -5.82725639E+01   1.50010788E+02   1.50010788E+02  -5.52368202E+01  -5.82725639E+01   2.08283356E+02  -1.21671362E+01   2.06732056E+02  -5.51427155E+01   1.49916687E+02  -5.82725639E+01  -4.39385796E+00
             2054                3   2.07759308E+02   1.50664429E+02   1.50664429E+02  -5.84418678E+01  -5.57211533E+01   1.50664429E+02   1.50664429E+02  -5.57211533E+01  -5.84418678E+01   2.09106293E+02  -1.21671371E+01   2.07719208E+02  -5.84415321E+01   1.50664093E+02  -5.57211533E+01   2.66437173E-01
             2054                4   2.07668472E+02   1.50606705E+02   1.50606705E+02  -5.81762695E+01  -5.59290352E+01   1.50606705E+02   1.50606705E+02  -5.59290352E+01  -5.81762695E+01   2.08782974E+02  -1.21671333E+01   2.07641113E+02  -5.80602112E+01   1.50490646E+02  -5.59290352E+01  -4.92109299E+00
             2055                1   7.51622238E+01   6.98424377E+01   6.98424377E+01  -5.26394367E+00  -5.37550974E+00   6.98424377E+01   6.98424377E+01  -5.26394367E+00  -5.37550974E+00   7.52179413E+01  -1.97343273E+01   7.51620407E+01  -5.23174000E+00   6.98102341E+01  -5.37550974E+00   1.55481052E+00
             2055                2   7.52215271E+01   6.98819962E+01   6.98819962E+01  -5.30350447E+00  -5.37550974E+00   6.98819962E+01   6.98819962E+01  -5.30350447E+00  -5.37550974E+00   7.52575073E+01  -1.97343273E+01   7.52214508E+01  -5.27809525E+00   6.98565826E+01  -5.37550974E+00   1.38204241E+00
             2055                3   7.54239655E+01   7.00169525E+01   7.00169525E+01  -5.43846369E+00  -5.37550974E+00   7.00169525E+01   7.00169525E+01  -5.37550974E+00  -5.43846369E+00   7.54554214E+01  -1.97343273E+01   7.54239044E+01  -5.40446711E+00   6.99829559E+01  -5.37550974E+00   1.60133111E+00
             2055                4   7.54830093E+01   7.00562973E+01   7.00562973E+01  -5.47780943E+00  -5.37550974E+00   7.00562973E+01   7.00562973E+01  -5.37550974E+00  -5.47780943E+00   7.55341110E+01  -1.97343273E+01   7.54828568E+01  -5.45078421E+00   7.00292740E+01  -5.37550974E+00   1.42853582E+00
             2056                1   2.13671932E+01   1.29558401E+01   1.29558401E+01   2.29038894E-01  -1.17127047E+01   1.29558401E+01   1.29558401E+01   2.29038894E-01  -1.17127047E+01   2.46685448E+01  -4.90724891E-01   8.13012981E+00   6.15578055E-01   1.25693016E+01  -1.17127047E+01   2.18403077E+00
             2056                2   2.17692223E+01   1.33949080E+01   1.33949080E+01  -2.10027248E-01  -1.17127047E+01   1.33949080E+01   1.33949080E+01  -2.10027248E-01  -1.17127047E+01   2.51076126E+01  -4.90725189E-01   1.14209862E+01   1.94949821E-01   1.29899302E+01  -1.17127047E+01   2.31207347E+00
             2056                3   2.13979149E+01   1.29901600E+01   1.29901600E+01   1.94720238E-01  -1.17127047E+01   1.29901600E+01   1.29901600E+01   1.94720238E-01  -1.17127047E+01   2.47028656E+01  -4.90725189E-01   8.47881222E+00   7.48485506E-01   1.24363947E+01  -1.17127047E+01   2.60365415E+00
             2056                4   2.17991257E+01   1.34267550E+01   1.34267550E+01  -2.41876021E-01  -1.17127047E+01   1.34267550E+01   1.34267550E+01  -2.41876021E-01  -1.17127047E+01   2.51394596E+01  -4.90724891E-01   1.16009808E+01   3.27746421E-01   1.28571329E+01  -1.17127047E+01   2.73157263E+00
             2057                1   2.20000000E+02   2.17609940E+02   2.17609940E+02  -2.35936127E+01   2.79745617E+01   2.17609940E+02   2.17609940E+02   2.79745617E+01  -2.35936127E+01   2.41203552E+02  -7.39969635E+01   2.05731842E+02  -2.35410767E+01   2.17557404E+02   2.79745617E+01   3.55934978E+00
             2057                2   2.20000000E+02   2.17210251E+02   2.17210251E+02  -2.50104179E+01   2.97910671E+01   2.17210251E+02   2.17210251E+02   2.97910671E+01  -2.50104179E+01   2.42220673E+02  -7.39969635E+01   2.03776901E+02  -2.49976711E+01   2.17197495E+02   2.97910671E+01  -1.75750172E+00
             2057                3   2.20000000E+02   2.17024719E+02   2.17024719E+02  -2.56350288E+01   3.06011944E+01   2.17024719E+02   2.17024719E+02   3.06011944E+01  -2.56350288E+01   2.42659744E+02  -7.39969635E+01   2.02861710E+02  -2.54289894E+01   2.16818680E+02   3.06011944E+01   7.06794024E+00
             2057                4   2.20000000E+02   2.16646332E+02   2.16646332E+02  -2.68522835E+01   3.21968307E+01   2.16646332E+02   2.16646332E+02   3.21968307E+01  -2.68522835E+01   2.43498627E+02  -7.39969559E+01   2.00979294E+02  -2.68367043E+01   2.16630753E+02   3.21968307E+01   1.94789302E+00
             2058                1   8.44133148E+01   7.85563583E+01   7.85563583E+01  -5.89341736E+00  -5.82045507E+00   7.85563583E+01   7.85563583E+01  -5.82045507E+00  -5.89341736E+00   8.44497757E+01  -2.22808285E+01   8.44132462E+01  -5.88585615E+00   7.85487976E+01  -5.82045507E+00   7.99015999E-01
             2058                2   8.42023468E+01   7.84157104E+01   7.84157104E+01  -5.75277138E+00  -5.82045507E+00   7.84157104E+01   7.84157104E+01  -5.75277138E+00  -5.82045507E+00   8.42361679E+01  -2.22808285E+01   8.42022858E+01  -5.74561787E+00   7.84085617E+01  -5.82045507E+00   7.75760889E-01
             2058                3   8.44444580E+01   7.85771027E+01   7.85771027E+01  -5.91417217E+00  -5.82045507E+00   7.85771027E+01   7.85771027E+01  -5.82045507E+00  -5.91417217E+00   8.44912796E+01  -2.22808247E+01   8.44443436E+01  -5.90903139E+00   7.85719681E+01  -5.82045507E+00   6.58827484E-01
             2058                4   8.42335510E+01   7.84365234E+01   7.84365234E+01  -5.77358055E+00  -5.82045507E+00   7.84365234E+01   7.84365234E+01  -5.77358055E+00  -5.82045507E+00   8.42569733E+01  -2.22808285E+01   8.42335205E+01  -5.76878166E+00   7.84317245E+01  -5.82045507E+00   6.35569930E-01
             2059                1   5.31067276E+01   4.68133240E+01   4.68133240E+01  -4.49887466E+00  -7.92229128E+00   4.68133240E+01   4.68133240E+01  -4.49887466E+00  -7.92229128E+00   5.47356148E+01  -1.14640532E+01   5.28576126E+01  -9.71089184E-01   4.32855377E+01  -7.92229128E+00   1.29835739E+01
             2059                2   5.24730186E+01   4.63749390E+01   4.63749390E+01  -4.06049061E+00  -7.92229128E+00   4.63749390E+01   4.63749390E+01  -4.06049061E+00  -7.92229128E+00   5.42972298E+01  -1.14640532E+01   5.21518593E+01  -4.48884457E-01   4.27633324E+01  -7.92229128E+00   1.30042019E+01
             2059                3   5.27160072E+01   4.65433044E+01   4.65433044E+01  -4.22885847E+00  -7.92229128E+00   4.65433044E+01   4.65433044E+01  -4.22885847E+00  -7.92229128E+00   5.44655952E+01  -1.14640512E+01   5.24237175E+01  -9.77980673E-01   4.32924271E+01  -7.92229128E+00   1.24292336E+01
             2059                4   5.20761452E+01   4.60992012E+01   4.60992012E+01  -3.78475618E+00  -7.92229128E+00   4.60992012E+01   4.60992012E+01  -3.78475618E+00  -7.92229128E+00   5.40214920E+01  -1.14640512E+01   5.17044029E+01  -4.57012653E-01   4.27714577E+01  -7.92229128E+00   1.24469738E+01
             2060                1   2.11982025E+02   1.55207916E+02   1.55207916E+02  -6.02298584E+01  -5.31404915E+01   1.55207916E+02   1.55207916E+02  -5.31404915E+01  -6.02298584E+01   2.15437775E+02  -1.39458532E+01   2.11715042E+02  -6.02298508E+01   1.55207901E+02  -5.31404915E+01  -5.25683388E-02
             2060                2   2.11086197E+02   1.54666901E+02   1.54666901E+02  -5.72211151E+01  -5.56082344E+01   1.54666901E+02   1.54666901E+02  -5.56082344E+01  -5.72211151E+01   2.11888016E+02  -1.39458504E+01   2.11072327E+02  -5.71951485E+01   1.54640930E+02  -5.56082344E+01   2.34562969E+00
             2060                3   2.11641129E+02   1.55010559E+02   1.55010559E+02  -5.90800171E+01  -5.40929947E+01   1.55010559E+02   1.55010559E+02  -5.40929947E+01  -5.90800171E+01   2.14090576E+02  -1.39458494E+01   2.11508881E+02  -5.89352226E+01   1.54865768E+02  -5.40929947E+01  -5.56573439E+00
             2060                4   2.10711761E+02   1.54419785E+02   1.54419785E+02  -5.59431343E+01  -5.66390991E+01   1.54419785E+02   1.54419785E+02  -5.59431343E+01  -5.66390991E+01   2.11058884E+02  -1.39458513E+01   2.10709183E+02  -5.58923302E+01   1.54368988E+02  -5.66390991E+01  -3.26864100E+00
             2061                1   2.12245468E+02   1.66873962E+02   1.66873962E+02  -4.79380646E+01  -4.27082710E+01   1.66873962E+02   1.66873962E+02  -4.27082710E+01  -4.79380646E+01   2.14812027E+02  -2.54092102E+01   2.12100418E+02  -4.78848419E+01   1.66820740E+02  -4.27082710E+01  -3.38088489E+00
             2061                2   2.13192413E+02   1.67401260E+02   1.67401260E+02  -5.09747124E+01  -4.01989212E+01   1.67401260E+02   1.67401260E+02  -4.01989212E+01  -5.09747124E+01   2.18375961E+02  -2.54092083E+01   2.12578400E+02  -5.07407379E+01   1.67167282E+02  -4.01989212E+01  -7.14419842E+00
             2061                3   2.12811615E+02   1.67190887E+02   1.67190887E+02  -4.99233971E+01  -4.10398521E+01   1.67190887E+02   1.67190887E+02  -4.10398521E+01  -4.99233971E+01   2.17114288E+02  -2.54092102E+01   2.12393845E+02  -4.99038391E+01   1.67171326E+02  -4.10398521E+01   2.06056738E+00
             2061                4   2.13708755E+02   1.67648712E+02   1.67648712E+02  -5.27640877E+01  -3.86569977E+01   1.67648712E+02   1.67648712E+02  -3.86569977E+01  -5.27640877E+01   2.20412811E+02  -2.54092102E+01   2.12657394E+02  -5.27498932E+01   1.67634521E+02  -3.86569977E+01  -1.76879394E+00
             2062                1   2.16555588E+02   2.18921173E+02   2.18921173E+02  -9.20551395E+00   1.61730709E+01   2.18921173E+02   2.18921173E+02   1.61730709E+01  -9.20551395E+00   2.28126678E+02  -7.52962418E+01   2.13171448E+02  -9.14494324E+00   2.18860596E+02   1.61730709E+01  -3.71674252E+00
             2062                2   2.16960739E+02   2.18970779E+02   2.18970779E+02  -1.09935064E+01   1.79114552E+01   2.18970779E+02   2.18970779E+02   1.79114552E+01  -1.09935064E+01   2.29964294E+02  -7.52962418E+01   2.12564072E+02  -1.06562700E+01   2.18633545E+02   1.79114552E+01  -8.79997921E+00
             2062                3   2.16984177E+02   2.18931046E+02   2.18931046E+02  -1.13814373E+01   1.83391247E+01   2.18931046E+02   2.18931046E+02   1.83391247E+01  -1.13814373E+01   2.30312485E+02  -7.52962418E+01   2.12332382E+02  -1.13814230E+01   2.18931030E+02   1.83391247E+01  -5.48775382E-02
             2062                4   2.17250534E+02   2.18869171E+02   2.18869171E+02  -1.30041237E+01   2.00236797E+01   2.18869171E+02   2.18869171E+02   2.00236797E+01  -1.30041237E+01   2.31873306E+02  -7.52962418E+01   2.11491455E+02  -1.28889341E+01   2.18753983E+02   2.00236797E+01  -5.16689634E+00
             2063                1   2.20000000E+02   2.01280350E+02   2.01280350E+02  -2.88155270E+01  -6.99800873E+00   2.01280350E+02   2.01280350E+02  -6.99800873E+00  -2.88155270E+01   2.30095886E+02  -5.51556091E+01   2.17546097E+02  -2.78578224E+01   2.00322647E+02  -6.99800873E+00   1.48137550E+01
             2063                2   2.20000000E+02   2.01425339E+02   2.01425339E+02  -2.73176460E+01  -8.64089012E+00   2.01425339E+02   2.01425339E+02  -8.64089012E+00  -2.73176460E+01   2.28742981E+02  -5.51556053E+01   2.18205673E+02  -2.67777939E+01   2.00885498E+02  -8.64089012E+00   1.10992880E+01
             2063                3   2.20000000E+02   2.01096771E+02   2.01096771E+02  -3.04329987E+01  -5.19696093E+00   2.01096771E+02   2.01096771E+02  -5.19696093E+00  -3.04329987E+01   2.31529770E+02  -5.51556053E+01   2.16707733E+02  -2.98541241E+01   2.00517899E+02  -5.19696093E+00   1.15624819E+01
             2063                4   2.20000000E+02   2.01250534E+02   2.01250534E+02  -2.90962772E+01  -6.68742228E+00   2.01250534E+02   2.01250534E+02  -6.68742228E+00  -2.90962772E+01   2.30346802E+02  -5.51556091E+01   2.17410126E+02  -2.88303585E+01   2.00984604E+02  -6.68742228E+00   7.82202387E+00
             2064                1   7.07850113E+01   6.44001770E+01   6.44001770E+01  -5.54202795E+00  -7.19855881E+00   6.44001770E+01   6.44001770E+01  -5.54202795E+00  -7.19855881E+00   7.15987396E+01  -1.72198639E+01   7.07413788E+01  -2.80011034E+00   6.16582603E+01  -7.19855881E+00   1.35741501E+01
             2064                2   7.14343491E+01   6.48375626E+01   6.48375626E+01  -5.97941065E+00  -7.19855881E+00   6.48375626E+01   6.48375626E+01  -5.97941065E+00  -7.19855881E+00   7.20361176E+01  -1.72198639E+01   7.14109344E+01  -3.31975341E+00   6.21779022E+01  -7.19855881E+00   1.34638433E+01
             2064                3   7.11799850E+01   6.46663971E+01   6.46663971E+01  -5.80824375E+00  -7.19855881E+00   6.46663971E+01   6.46663971E+01  -5.80824375E+00  -7.19855881E+00   7.18649521E+01  -1.72198639E+01   7.11494217E+01  -2.86579752E+00   6.17239494E+01  -7.19855881E+00   1.40964489E+01
             2064                4   7.18324280E+01   6.51049957E+01   6.51049957E+01  -6.24684238E+00  -7.19855881E+00   6.51049957E+01   6.51049957E+01  -6.24684238E+00  -7.19855881E+00   7.23035507E+01  -1.72198639E+01   7.18182373E+01  -3.38945389E+00   6.22476044E+01  -7.19855881E+00   1.39898310E+01
             2065                1   4.88157616E+01   4.23391685E+01   4.23391685E+01  -4.03171635E+00  -8.60026741E+00   4.23391685E+01   4.23391685E+01  -4.03171635E+00  -8.60026741E+00   5.09394379E+01  -9.90239525E+00   4.83312836E+01  -2.45677233E-01   3.85531311E+01  -8.60026741E+00   1.26975536E+01
             2065                2   4.81444283E+01   4.18664398E+01   4.18664398E+01  -3.55898166E+00  -8.60026741E+00   4.18664398E+01   4.18664398E+01  -3.55898166E+00  -8.60026741E+00   5.04667053E+01  -9.90239620E+00   4.75451698E+01   2.95050651E-01   3.80124054E+01  -8.60026741E+00   1.26577053E+01
             2065                3   4.84513702E+01   4.20829735E+01   4.20829735E+01  -3.77551818E+00  -8.60026741E+00   4.20829735E+01   4.20829735E+01  -3.77551818E+00  -8.60026741E+00   5.06832428E+01  -9.90239620E+00   4.79064407E+01  -2.94476062E-01   3.86019325E+01  -8.60026741E+00   1.21456871E+01
             2065                4   4.77726097E+01   4.16032104E+01   4.16032104E+01  -3.29575801E+00  -8.60026741E+00   4.16032104E+01   4.16032104E+01  -3.29575801E+00  -8.60026741E+00   5.02034798E+01  -9.90239525E+00   4.71032143E+01   2.46429920E-01   3.80610237E+01  -8.60026741E+00   1.21034489E+01
             2066                1   2.19828354E+02   1.91727295E+02   1.91727295E+02  -3.97778549E+01  -1.41836262E+01   1.91727295E+02   1.91727295E+02  -1.41836262E+01  -3.97778549E+01   2.31505157E+02  -4.59219398E+01   2.16438202E+02  -3.97778015E+01   1.91727249E+02  -1.41836262E+01   1.09904438E-01
             2066                2   2.20000000E+02   1.91484863E+02   1.91484863E+02  -4.24130630E+01  -1.13059664E+01   1.91484863E+02   1.91484863E+02  -1.13059664E+01  -4.24130630E+01   2.33897919E+02  -4.59219398E+01   2.14968628E+02  -4.22550774E+01   1.91326874E+02  -1.13059664E+01  -6.07676172E+00
             2066                3   2.20000000E+02   1.91458435E+02   1.91458435E+02  -4.25841103E+01  -1.11085024E+01   1.91458435E+02   1.91458435E+02  -1.11085024E+01  -4.25841103E+01   2.34042542E+02  -4.59219398E+01   2.14846588E+02  -4.24445877E+01   1.91318909E+02  -1.11085024E+01   5.71280241E+00
             2066                4   2.20000000E+02   1.91074280E+02   1.91074280E+02  -4.48595123E+01  -8.44893646E+00   1.91074280E+02   1.91074280E+02  -8.44893646E+00  -4.48595123E+01   2.35933792E+02  -4.59219475E+01   2.13062531E+02  -4.48584633E+01   1.91073227E+02  -8.44893646E+00  -4.98445958E-01
             2067                1   2.20000000E+02   2.24376053E+02   2.24376053E+02  -2.06546211E+01   4.38092499E+01   2.24376053E+02   2.24376053E+02   4.38092499E+01  -2.06546211E+01   2.45030670E+02  -8.25102310E+01   1.97010056E+02  -2.06343727E+01   2.24355804E+02   4.38092499E+01   2.22751355E+00
             2067                2   2.20000000E+02   2.24841064E+02   2.24841064E+02  -1.93110695E+01   4.20006943E+01   2.24841064E+02   2.24841064E+02   4.20006943E+01  -1.93110695E+01   2.44152130E+02  -8.25102310E+01   1.99377518E+02  -1.90041237E+01   2.24534119E+02   4.20006943E+01   8.65147781E+00
             2067                3   2.20000000E+02   2.24977493E+02   2.24977493E+02  -1.89002800E+01   4.14534912E+01   2.24977493E+02   2.24977493E+02   4.14534912E+01  -1.89002800E+01   2.43877762E+02  -8.25102310E+01   2.00065445E+02  -1.88558559E+01   2.24933060E+02   4.14534912E+01  -3.29140782E+00
             2067                4   2.20000000E+02   2.25494446E+02   2.25494446E+02  -1.72656479E+01   3.93018990E+01   2.25494446E+02   2.25494446E+02   3.93018990E+01  -1.72656479E+01   2.42760086E+02  -8.25102310E+01   2.02646133E+02  -1.72160740E+01   2.25444870E+02   3.93018990E+01   3.46853256E+00
             2068                1   2.20000000E+02   1.96279892E+02   1.96279892E+02  -3.18768005E+01  -1.45372181E+01   1.96279892E+02   1.96279892E+02  -1.45372181E+01  -3.18768005E+01   2.28156693E+02  -4.99552917E+01   2.18454681E+02  -3.08783741E+01   1.95281464E+02  -1.45372181E+01   1.50599289E+01
             2068                2   2.20000000E+02   1.96401169E+02   1.96401169E+02  -3.02346478E+01  -1.63006382E+01   1.96401169E+02   1.96401169E+02  -1.63006382E+01  -3.02346478E+01   2.26635818E+02  -4.99552917E+01   2.19003922E+02  -2.97247868E+01   1.95891312E+02  -1.63006382E+01   1.07373972E+01
             2068                3   2.20000000E+02   1.96111160E+02   1.96111160E+02  -3.37141113E+01  -1.25311728E+01   1.96111160E+02   1.96111160E+02  -1.25311728E+01  -3.37141113E+01   2.29825272E+02  -4.99552917E+01   2.17687866E+02  -3.31344604E+01   1.95531509E+02  -1.25311728E+01   1.15274744E+01
             2068                4   2.20000000E+02   1.96247940E+02   1.96247940E+02  -3.22562485E+01  -1.41258144E+01   1.96247940E+02   1.96247940E+02  -1.41258144E+01  -3.22562485E+01   2.28504196E+02  -4.99552956E+01   2.18309692E+02  -3.20286598E+01   1.96020355E+02  -1.41258144E+01   7.20789289E+00
             2069                1   2.20000000E+02   2.44690704E+02   2.44690704E+02  -2.56176782E+00   7.05703049E+01   2.44690704E+02   2.44690704E+02   7.05703049E+01  -2.56176782E+00   2.47252472E+02  -1.04233086E+02   1.89609344E+02  -2.41127133E+00   2.44540207E+02   7.05703049E+01  -6.09821939E+00
             2069                2   2.20000000E+02   2.44015671E+02   2.44015671E+02  -4.11538124E+00   7.27989578E+01   2.44015671E+02   2.44015671E+02   7.27989578E+01  -4.11538124E+00   2.48131042E+02  -1.04233086E+02   1.85924637E+02  -4.11383677E+00   2.44014114E+02   7.27989578E+01   6.20267034E-01
             2069                3   2.20000000E+02   2.45328873E+02   2.45328873E+02  -9.89248037E-01   6.83596191E+01   2.45328873E+02   2.45328873E+02   6.83596191E+01  -9.89248037E-01   2.46318130E+02  -1.04233086E+02   1.93008469E+02  -9.74441886E-01   2.45314072E+02   6.83596191E+01   1.90968215E+00
             2069                4   2.20000000E+02   2.44585480E+02   2.44585480E+02  -2.81095266E+00   7.09247208E+01   2.44585480E+02   2.44585480E+02   7.09247208E+01  -2.81095266E+00   2.47396423E+02  -1.04233086E+02   1.89041183E+02  -2.51809645E+00   2.44292618E+02   7.09247208E+01   8.50680447E+00
             2070                1   2.13951660E+02   1.60556320E+02   1.60556320E+02  -5.85392075E+01  -4.78508148E+01   1.60556320E+02   1.60556320E+02  -4.78508148E+01  -5.85392075E+01   2.19095520E+02  -1.80554295E+01   2.13349731E+02  -5.85368500E+01   1.60553955E+02  -4.78508148E+01  -7.18802691E-01
             2070                2   2.13257202E+02   1.60194824E+02   1.60194824E+02  -5.56296349E+01  -5.03989029E+01   1.60194824E+02   1.60194824E+02  -5.03989029E+01  -5.56296349E+01   2.15824463E+02  -1.80554295E+01   2.13112808E+02  -5.55982895E+01   1.60163483E+02  -5.03989029E+01   2.60063982E+00
             2070                3   2.13506897E+02   1.60322449E+02   1.60322449E+02  -5.69684906E+01  -4.91876640E+01   1.60322449E+02   1.60322449E+02  -4.91876640E+01  -5.69684906E+01   2.17290939E+02  -1.80554314E+01   2.13187546E+02  -5.67862587E+01   1.60140213E+02  -4.91876640E+01  -6.29009247E+00
             2070                4   2.12503525E+02   1.59719604E+02   1.59719604E+02  -5.37908707E+01  -5.17624474E+01   1.59719604E+02   1.59719604E+02  -5.17624474E+01  -5.37908707E+01   2.13510468E+02  -1.80554295E+01   2.12481750E+02  -5.37469254E+01   1.59675659E+02  -5.17624474E+01  -3.06291151E+00
             2071                1   2.07766602E+02   1.86037308E+02   1.86037308E+02  -2.55970726E+01  -1.76324825E+01   1.86037308E+02   1.86037308E+02  -1.76324825E+01  -2.55970726E+01   2.11634369E+02  -4.76025848E+01   2.07422699E+02  -2.54233589E+01   1.85863586E+02  -1.76324825E+01  -6.06088877E+00
             2071                2   2.08383347E+02   1.86362045E+02   1.86362045E+02  -2.75992336E+01  -1.59550877E+01   1.86362045E+02   1.86362045E+02  -1.59550877E+01  -2.75992336E+01   2.13961288E+02  -4.76025734E+01   2.07649506E+02  -2.71943035E+01   1.85957123E+02  -1.59550877E+01  -9.29919910E+00
             2071                3   2.08418900E+02   1.86402588E+02   1.86402588E+02  -2.73108215E+01  -1.62840271E+01   1.86402588E+02   1.86402588E+02  -1.62840271E+01  -2.73108215E+01   2.13713409E+02  -4.76025810E+01   2.07761078E+02  -2.72781410E+01   1.86369904E+02  -1.62840271E+01  -2.64271522E+00
             2071                4   2.09000656E+02   1.86683990E+02   1.86683990E+02  -2.91974411E+01  -1.46788101E+01   1.86683990E+02   1.86683990E+02  -1.46788101E+01  -2.91974411E+01   2.15881424E+02  -4.76025810E+01   2.07861542E+02  -2.90372105E+01   1.86523758E+02  -1.46788101E+01  -5.87911510E+00
             2072                1   2.10544479E+02   1.51435135E+02   1.51435135E+02  -6.13387032E+01  -5.68068085E+01   1.51435135E+02   1.51435135E+02  -5.68068085E+01  -6.13387032E+01   2.12773834E+02  -1.10965395E+01   2.10434692E+02  -6.13373795E+01   1.51433807E+02  -5.68068085E+01   5.31747937E-01
             2072                2   2.09751465E+02   1.50929764E+02   1.50929764E+02  -5.83423920E+01  -5.92977371E+01   1.50929764E+02   1.50929764E+02  -5.83423920E+01  -5.92977371E+01   2.10227509E+02  -1.10965452E+01   2.09746567E+02  -5.83214302E+01   1.50908798E+02  -5.92977371E+01   2.09459519E+00
             2072                3   2.10275543E+02   1.51268188E+02   1.51268188E+02  -6.05808029E+01  -5.73977623E+01   1.51268188E+02   1.51268188E+02  -5.73977623E+01  -6.05808029E+01   2.11848999E+02  -1.10965433E+01   2.10221329E+02  -6.04655647E+01   1.51152954E+02  -5.73977623E+01  -4.93969584E+00
             2072                4   2.09459534E+02   1.50729156E+02   1.50729156E+02  -5.75026245E+01  -5.99369125E+01   1.50729156E+02   1.50729156E+02  -5.75026245E+01  -5.99369125E+01   2.10666077E+02  -1.10965395E+01   2.09427704E+02  -5.74441833E+01   1.50670715E+02  -5.99369125E+01  -3.48799896E+00
             2073                1   2.20000000E+02   2.31505508E+02   2.31505508E+02  -1.05024843E+01   4.36127968E+01   2.31505508E+02   2.31505508E+02   4.36127968E+01  -1.05024843E+01   2.42007996E+02  -8.82052689E+01   2.04204132E+02  -1.03839836E+01   2.31387009E+02   4.36127968E+01   5.35379791E+00
             2073                2   2.20000000E+02   2.31102264E+02   2.31102264E+02  -1.18556223E+01   4.53691788E+01   2.31102264E+02   2.31102264E+02   4.53691788E+01  -1.18556223E+01   2.42957886E+02  -8.82052689E+01   2.02213608E+02  -1.18542204E+01   2.31100861E+02   4.53691788E+01  -5.84299445E-01
             2073                3   2.20000000E+02   2.31013672E+02   2.31013672E+02  -1.21412287E+01   4.57433968E+01   2.31013672E+02   2.31013672E+02   4.57433968E+01  -1.21412287E+01   2.43154892E+02  -8.82052841E+01   2.01772949E+02  -1.17352476E+01   2.30607681E+02   4.57433968E+01   9.92734337E+00
             2073                4   2.20000000E+02   2.30641541E+02   2.30641541E+02  -1.32992325E+01   4.72735176E+01   2.30641541E+02   2.30641541E+02   4.72735176E+01  -1.32992325E+01   2.43940781E+02  -8.82052841E+01   1.99909454E+02  -1.32285690E+01   2.30570877E+02   4.72735176E+01   4.15144730E+00
             2074                1   5.98589439E+01   5.74197540E+01   5.74197540E+01  -2.26874042E+00  -2.60820055E+00   5.74197540E+01   5.74197540E+01  -2.26874042E+00  -2.60820055E+00   6.00279541E+01  -1.75142708E+01   5.98567810E+01  -1.77263188E+00   5.69236450E+01  -2.60820055E+00   5.41902304E+00
             2074                2   6.00390816E+01   5.75401268E+01   5.75401268E+01  -2.38911271E+00  -2.60820055E+00   5.75401268E+01   5.75401268E+01  -2.38911271E+00  -2.60820055E+00   6.01483269E+01  -1.75142708E+01   6.00381813E+01  -1.92881000E+00   5.70798225E+01  -2.60820055E+00   5.23198795E+00
             2074                3   6.01770935E+01   5.76322670E+01   5.76322670E+01  -2.48125076E+00  -2.60820055E+00   5.76322670E+01   5.76322670E+01  -2.48125076E+00  -2.60820055E+00   6.02404671E+01  -1.75142727E+01   6.01767883E+01  -1.95961189E+00   5.71106262E+01  -2.60820055E+00   5.57544136E+00
             2074                4   6.03561249E+01   5.77516861E+01   5.77516861E+01  -2.60067368E+00  -2.60820055E+00   5.77516861E+01   5.77516861E+01  -2.60067368E+00  -2.60820055E+00   6.03598862E+01  -1.75142708E+01   6.03561211E+01  -2.11567760E+00   5.72666893E+01  -2.60820055E+00   5.38845825E+00
             2075                1   2.08851410E+02   1.48720535E+02   1.48720535E+02  -5.87864647E+01  -6.14497948E+01   1.48720535E+02   1.48720535E+02  -5.87864647E+01  -6.14497948E+01   2.10170334E+02  -9.49475956E+00   2.08813202E+02  -5.87806168E+01   1.48714691E+02  -6.14497948E+01   1.10200214E+00
             2075                2   2.08771530E+02   1.48663269E+02   1.48663269E+02  -5.84735603E+01  -6.17054405E+01   1.48663269E+02   1.48663269E+02  -5.84735603E+01  -6.17054405E+01   2.10368713E+02  -9.49475765E+00   2.08715240E+02  -5.83759308E+01   1.48565643E+02  -6.17054405E+01  -4.49590635E+00
             2075                3   2.09656204E+02   1.49255661E+02   1.49255661E+02  -6.18256607E+01  -5.89457397E+01   1.49255661E+02   1.49255661E+02  -5.89457397E+01  -6.18256607E+01   2.11081329E+02  -9.49475574E+00   2.09611694E+02  -6.18248253E+01   1.49254837E+02  -5.89457397E+01   4.18907434E-01
             2075                4   2.09584747E+02   1.49211258E+02   1.49211258E+02  -6.15449142E+01  -5.91820679E+01   1.49211258E+02   1.49211258E+02  -5.91820679E+01  -6.15449142E+01   2.10756165E+02  -9.49475861E+00   2.09554779E+02  -6.14232101E+01   1.49089554E+02  -5.91820679E+01  -5.06317091E+00
             2076                1   2.17643600E+02   1.98778381E+02   1.98778381E+02  -3.30233154E+01  -1.20404553E+00   1.98778381E+02   1.98778381E+02  -1.20404553E+00  -3.30233154E+01   2.31801697E+02  -5.48503418E+01   2.12315887E+02  -3.29634590E+01   1.98718521E+02  -1.20404553E+00  -3.72456908E+00
             2076                2   2.17353073E+02   1.98862671E+02   1.98862671E+02  -3.10407333E+01  -3.27091193E+00   1.98862671E+02   1.98862671E+02  -3.27091193E+00  -3.10407333E+01   2.29903397E+02  -5.48503418E+01   2.13307175E+02  -3.10370789E+01   1.98859009E+02  -3.27091193E+00   9.16634798E-01
             2076                3   2.17324326E+02   1.98851288E+02   1.98851288E+02  -3.09734173E+01  -3.32685018E+00   1.98851288E+02   1.98851288E+02  -3.32685018E+00  -3.09734173E+01   2.29824707E+02  -5.48503418E+01   2.13314209E+02  -3.07277451E+01   1.98605621E+02  -3.32685018E+00  -7.50994873E+00
             2076                4   2.17017899E+02   1.98903168E+02   1.98903168E+02  -2.88169422E+01  -5.53521013E+00   1.98903168E+02   1.98903168E+02  -5.53521013E+00  -2.88169422E+01   2.27720108E+02  -5.48503380E+01   2.14181244E+02  -2.87809734E+01   1.98867203E+02  -5.53521013E+00  -2.86166549E+00
             2077                1   6.16184006E+01   5.90826874E+01   5.90826874E+01  -2.57717037E+00  -2.49417281E+00   5.90826874E+01   5.90826874E+01  -2.49417281E+00  -2.57717037E+00   6.16598549E+01  -1.80037823E+01   6.16182709E+01  -2.39891100E+00   5.89044266E+01  -2.49417281E+00   3.31054282E+00
             2077                2   6.15069046E+01   5.90083847E+01   5.90083847E+01  -2.50286722E+00  -2.49417281E+00   5.90083847E+01   5.90083847E+01  -2.49417281E+00  -2.50286722E+00   6.15112495E+01  -1.80037823E+01   6.15069008E+01  -2.30199504E+00   5.88075104E+01  -2.49417281E+00   3.50935888E+00
             2077                3   6.13063736E+01   5.88746338E+01   5.88746338E+01  -2.36911654E+00  -2.49417281E+00   5.88746338E+01   5.88746338E+01  -2.36911654E+00  -2.49417281E+00   6.13688049E+01  -1.80037823E+01   6.13060837E+01  -2.20009708E+00   5.87056122E+01  -2.49417281E+00   3.21292353E+00
             2077                4   6.11941795E+01   5.87997360E+01   5.87997360E+01  -2.29422164E+00  -2.49417281E+00   5.87997360E+01   5.87997360E+01  -2.29422164E+00  -2.49417281E+00   6.12939110E+01  -1.80037823E+01   6.11934433E+01  -2.10309672E+00   5.86086121E+01  -2.49417281E+00   3.41175699E+00
             2078                1   2.17373962E+02   2.13697571E+02   2.13697571E+02  -1.72722225E+01   1.31177006E+01   2.13697571E+02   2.13697571E+02   1.31177006E+01  -1.72722225E+01   2.30969803E+02  -6.98476868E+01   2.12515747E+02  -1.72603951E+01   2.13685745E+02   1.31177006E+01  -1.65309119E+00
             2078                2   2.17814835E+02   2.13676498E+02   2.13676498E+02  -1.93695450E+01   1.52361012E+01   2.13676498E+02   2.13676498E+02   1.52361012E+01  -1.93695450E+01   2.33046051E+02  -6.98476868E+01   2.11497101E+02  -1.92816772E+01   2.13588638E+02   1.52361012E+01   4.52432156E+00
             2078                3   2.16829300E+02   2.13653458E+02   2.13653458E+02  -1.47663755E+01   1.06559649E+01   2.13653458E+02   2.13653458E+02   1.06559649E+01  -1.47663755E+01   2.28419830E+02  -6.98476791E+01   2.13437744E+02  -1.46728134E+01   2.13559906E+02   1.06559649E+01   4.62177944E+00
             2078                4   2.17574402E+02   2.13830841E+02   2.13830841E+02  -1.73484516E+01   1.30606737E+01   2.13830841E+02   2.13830841E+02   1.30606737E+01  -1.73484516E+01   2.31179291E+02  -6.98476868E+01   2.12714569E+02  -1.68127975E+01   2.13295181E+02   1.30606737E+01   1.11151676E+01
             2079                1   2.20000000E+02   1.77493820E+02   1.77493820E+02  -5.03682861E+01  -3.36953583E+01   1.77493820E+02   1.77493820E+02  -3.36953583E+01  -5.03682861E+01   2.27862106E+02  -3.11433945E+01   2.18571793E+02  -5.03039474E+01   1.77429489E+02  -3.36953583E+01   3.82844472E+00
             2079                2   2.20000000E+02   1.77209106E+02   1.77209106E+02  -5.33758698E+01  -3.04030666E+01   1.77209106E+02   1.77209106E+02  -3.04030666E+01  -5.33758698E+01   2.30584976E+02  -3.11433887E+01   2.17276932E+02  -5.33512840E+01   1.77184525E+02  -3.04030666E+01  -2.38073015E+00
             2079                3   2.20000000E+02   1.77231812E+02   1.77231812E+02  -5.31686745E+01  -3.06329536E+01   1.77231812E+02   1.77231812E+02  -3.06329536E+01  -5.31686745E+01   2.30400482E+02  -3.11433926E+01   2.17380463E+02  -5.26995163E+01   1.76762650E+02  -3.06329536E+01   1.03862762E+01
             2079                4   2.20000000E+02   1.76909012E+02   1.76909012E+02  -5.57972298E+01  -2.76815987E+01   1.76909012E+02   1.76909012E+02  -2.76815987E+01  -5.57972298E+01   2.32706253E+02  -3.11433964E+01   2.15902588E+02  -5.57229309E+01   1.76834717E+02  -2.76815987E+01   4.15744114E+00
             2080                1   2.20000000E+02   1.58457764E+02   1.58457764E+02  -6.65056763E+01  -5.62178307E+01   1.58457764E+02   1.58457764E+02  -5.62178307E+01  -6.65056763E+01   2.24963440E+02  -1.19114189E+01   2.19457809E+02  -6.64140778E+01   1.58366165E+02  -5.62178307E+01   4.53857851E+00
             2080                2   2.20000000E+02   1.58562744E+02   1.58562744E+02  -6.32521248E+01  -5.95763550E+01   1.58562744E+02   1.58562744E+02  -5.95763550E+01  -6.32521248E+01   2.21814865E+02  -1.19114199E+01   2.19930893E+02  -6.29543839E+01   1.58264999E+02  -5.95763550E+01   8.12118626E+00
             2080                3   2.20000000E+02   1.58521255E+02   1.58521255E+02  -6.49289780E+01  -5.78580246E+01   1.58521255E+02   1.58521255E+02  -5.78580246E+01  -6.49289780E+01   2.23450226E+02  -1.19114180E+01   2.19744110E+02  -6.49050674E+01   1.58497345E+02  -5.78580246E+01  -2.31143498E+00
             2080                4   2.20000000E+02   1.58578079E+02   1.58578079E+02  -6.14291382E+01  -6.14146957E+01   1.58578079E+02   1.58578079E+02  -6.14146957E+01  -6.14291382E+01   2.20007217E+02  -1.19114151E+01   2.20000000E+02  -6.14237938E+01   1.58572739E+02  -6.14146957E+01   1.08407021E+00
             2081                1   2.14414749E+02   1.54449631E+02   1.54449631E+02  -6.36550446E+01  -5.60741158E+01   1.54449631E+02   1.54449631E+02  -5.60741158E+01  -6.36550446E+01   2.18104675E+02  -1.15734930E+01   2.14112900E+02  -6.36545334E+01   1.54449127E+02  -5.60741158E+01   3.32196206E-01
             2081                2   2.13782104E+02   1.54090805E+02   1.54090805E+02  -6.06192856E+01  -5.87510529E+01   1.54090805E+02   1.54090805E+02  -5.87510529E+01  -6.06192856E+01   2.14710098E+02  -1.15734911E+01   2.13763733E+02  -6.05758209E+01   1.54047348E+02  -5.87510529E+01   3.05452394E+00
             2081                3   2.14179306E+02   1.54328293E+02   1.54328293E+02  -6.23966904E+01  -5.72111397E+01   1.54328293E+02   1.54328293E+02  -5.72111397E+01  -6.23966904E+01   2.16724991E+02  -1.15734901E+01   2.14037994E+02  -6.22598152E+01   1.54191422E+02  -5.72111397E+01  -5.44483232E+00
             2081                4   2.13520096E+02   1.53919510E+02   1.53919510E+02  -5.92093048E+01  -5.99897270E+01   1.53919510E+02   1.53919510E+02  -5.92093048E+01  -5.99897270E+01   2.13909241E+02  -1.15734930E+01   2.13516891E+02  -5.91714935E+01   1.53881699E+02  -5.99897270E+01  -2.83854389E+00
             2082                1   5.92773933E+01   5.68173981E+01   5.68173981E+01  -2.25865364E+00  -2.65930343E+00   5.68173981E+01   5.68173981E+01  -2.25865364E+00  -2.65930343E+00   5.94767036E+01  -1.72998142E+01   5.92743454E+01  -1.63643885E+00   5.61951866E+01  -2.65930343E+00   6.03081751E+00
             2082                2   5.94786873E+01   5.69519768E+01   5.69519768E+01  -2.39322472E+00  -2.65930343E+00   5.69519768E+01   5.69519768E+01  -2.39322472E+00  -2.65930343E+00   5.96112785E+01  -1.72998161E+01   5.94773445E+01  -1.81102526E+00   5.63697739E+01  -2.65930343E+00   5.84909201E+00
             2082                3   5.95973663E+01   5.70312462E+01   5.70312462E+01  -2.47249532E+00  -2.65930343E+00   5.70312462E+01   5.70312462E+01  -2.47249532E+00  -2.65930343E+00   5.96905479E+01  -1.72998161E+01   5.95967026E+01  -1.81813228E+00   5.63768806E+01  -2.65930343E+00   6.20555925E+00
             2082                4   5.97974358E+01   5.71647606E+01   5.71647606E+01  -2.60600972E+00  -2.65930343E+00   5.71647606E+01   5.71647606E+01  -2.60600972E+00  -2.65930343E+00   5.98240623E+01  -1.72998161E+01   5.97973785E+01  -1.99260890E+00   5.65513573E+01  -2.65930343E+00   6.02389288E+00
             2083                1   2.16068390E+02   1.91523468E+02   1.91523468E+02  -3.43297157E+01  -1.32088900E+01   1.91523468E+02   1.91523468E+02  -1.32088900E+01  -3.43297157E+01   2.25853180E+02  -4.79949532E+01   2.13727402E+02  -3.43211441E+01   1.91514893E+02  -1.32088900E+01  -1.39196515E+00
             2083                2   2.16562164E+02   1.91601501E+02   1.91601501E+02  -3.66894875E+01  -1.09271650E+01   1.91601501E+02   1.91601501E+02  -1.09271650E+01  -3.66894875E+01   2.28291000E+02  -4.79949493E+01   2.13073776E+02  -3.66206551E+01   1.91532669E+02  -1.09271650E+01   3.96362591E+00
             2083                3   2.15323502E+02   1.91229721E+02   1.91229721E+02  -3.18436966E+01  -1.54011650E+01   1.91229721E+02   1.91229721E+02  -1.54011650E+01  -3.18436966E+01   2.23073410E+02  -4.79949493E+01   2.13904221E+02  -3.17804489E+01   1.91166473E+02  -1.54011650E+01   3.75541973E+00
             2083                4   2.16284927E+02   1.91642792E+02   1.91642792E+02  -3.46470070E+01  -1.30109367E+01   1.91642792E+02   1.91642792E+02  -1.30109367E+01  -3.46470070E+01   2.26289795E+02  -4.79949493E+01   2.13829895E+02  -3.42714005E+01   1.91267197E+02  -1.30109367E+01   9.21156502E+00
             2084                1   5.27544746E+01   4.99873009E+01   4.99873009E+01  -2.36898375E+00  -3.15654802E+00   4.99873009E+01   4.99873009E+01  -2.36898375E+00  -3.15654802E+00   5.31438484E+01  -1.48205900E+01   5.27412453E+01  -6.41467214E-01   4.82597847E+01  -3.15654802E+00   9.35211182E+00
             2084                2   5.24615593E+01   4.97903442E+01   4.97903442E+01  -2.17202473E+00  -3.15654802E+00   4.97903442E+01   4.97903442E+01  -2.17202473E+00  -3.15654802E+00   5.29468918E+01  -1.48205910E+01   5.24407692E+01  -3.84842485E-01   4.80031624E+01  -3.15654802E+00   9.46954250E+00
             2084                3   5.24368515E+01   4.97737122E+01   4.97737122E+01  -2.15539289E+00  -3.15654802E+00   4.97737122E+01   4.97737122E+01  -2.15539289E+00  -3.15654802E+00   5.29302597E+01  -1.48205910E+01   5.24153404E+01  -5.19288599E-01   4.81376076E+01  -3.15654802E+00   9.07108974E+00
             2084                4   5.21155739E+01   4.95571899E+01   4.95571899E+01  -1.93887484E+00  -3.15654802E+00   4.95571899E+01   4.95571899E+01  -1.93887484E+00  -3.15654802E+00   5.27137413E+01  -1.48205900E+01   5.20835495E+01  -2.43572623E-01   4.78618889E+01  -3.15654802E+00   9.18843651E+00
             2085                1   2.20000000E+02   1.77410187E+02   1.77410187E+02  -4.65211716E+01  -3.84355087E+01   1.77410187E+02   1.77410187E+02  -3.84355087E+01  -4.65211716E+01   2.23931366E+02  -3.08178387E+01   2.19665314E+02  -4.63419304E+01   1.77230957E+02  -3.84355087E+01   6.33282280E+00
             2085                2   2.20000000E+02   1.77267822E+02   1.77267822E+02  -4.93090515E+01  -3.55052490E+01   1.77267822E+02   1.77267822E+02  -3.55052490E+01  -4.93090515E+01   2.26576874E+02  -3.08178406E+01   2.19022491E+02  -4.92862244E+01   1.77244995E+02  -3.55052490E+01   2.27410412E+00
             2085                3   2.19999985E+02   1.77315720E+02   1.77315720E+02  -4.85228462E+01  -3.63393593E+01   1.77315720E+02   1.77315720E+02  -3.63393593E+01  -4.85228462E+01   2.25838562E+02  -3.08178406E+01   2.19239029E+02  -4.78578262E+01   1.76650696E+02  -3.63393593E+01   1.22370853E+01
             2085                4   2.20000000E+02   1.77138794E+02   1.77138794E+02  -5.10584488E+01  -3.36268349E+01   1.77138794E+02   1.77138794E+02  -3.36268349E+01  -5.10584488E+01   2.28197235E+02  -3.08178349E+01   2.18438156E+02  -5.07722397E+01   1.76852585E+02  -3.36268349E+01   8.07654953E+00
             2086                1   2.08806793E+02   2.03969131E+02   2.03969131E+02  -9.88593292E+00   6.06219471E-01   2.03969131E+02   2.03969131E+02   6.06219471E-01  -9.88593292E+00   2.13855072E+02  -6.48964767E+01   2.08212463E+02  -9.81709480E+00   2.03900299E+02   6.06219471E-01   3.83628058E+00
             2086                2   2.09417374E+02   2.04331848E+02   2.04331848E+02  -1.08939667E+01   1.25153589E+00   2.04331848E+02   2.04331848E+02   1.25153589E+00  -1.08939667E+01   2.15225815E+02  -6.48964767E+01   2.08622757E+02  -1.07031527E+01   2.04141037E+02   1.25153589E+00   6.40555668E+00
             2086                3   2.07840469E+02   2.03372574E+02   2.03372574E+02  -8.52462482E+00  -1.58532634E-01   2.03372574E+02   2.03372574E+02  -1.58532634E-01  -8.52462482E+00   2.11897202E+02  -6.48964691E+01   2.07461121E+02  -8.37282181E+00   2.03220764E+02  -1.58532634E-01   5.66959858E+00
             2086                4   2.08493362E+02   2.03768997E+02   2.03768997E+02  -9.60392380E+00   5.24349451E-01   2.03768997E+02   2.03768997E+02   5.24349451E-01  -9.60392380E+00   2.13372925E+02  -6.48964767E+01   2.07938782E+02  -9.27041435E+00   2.03435486E+02   5.24349451E-01   8.42913342E+00
             2087                1   2.20000000E+02   2.08699310E+02   2.08699310E+02  -3.13223324E+01   1.66315365E+01   2.08699310E+02   2.08699310E+02   1.66315365E+01  -3.13223324E+01   2.40021652E+02  -6.46695023E+01   2.07747147E+02  -3.12624645E+01   2.08639450E+02   1.66315365E+01   3.79021835E+00
             2087                2   2.20000000E+02   2.09042236E+02   2.09042236E+02  -2.98936710E+01   1.48599615E+01   2.09042236E+02   2.09042236E+02   1.48599615E+01  -2.98936710E+01   2.38935898E+02  -6.46695023E+01   2.09387726E+02  -2.98757706E+01   2.09024338E+02   1.48599615E+01   2.06757736E+00
             2087                3   2.20000000E+02   2.08420868E+02   2.08420868E+02  -3.24052544E+01   1.79929123E+01   2.08420868E+02   2.08420868E+02   1.79929123E+01  -3.24052544E+01   2.40826111E+02  -6.46695023E+01   2.06403519E+02  -3.24043274E+01   2.08419937E+02   1.79929123E+01   4.72015679E-01
             2087                4   2.20000000E+02   2.08770706E+02   2.08770706E+02  -3.10341396E+01   1.62719536E+01   2.08770706E+02   2.08770706E+02   1.62719536E+01  -3.10341396E+01   2.39804855E+02  -6.46695099E+01   2.08089951E+02  -3.10279961E+01   2.08764572E+02   1.62719536E+01  -1.21341622E+00
             2088                1   2.20000000E+02   2.03163971E+02   2.03163971E+02  -2.57533512E+01  -6.67627716E+00   2.03163971E+02   2.03163971E+02  -6.67627716E+00  -2.57533512E+01   2.28917313E+02  -5.69114494E+01   2.18127441E+02  -2.47364788E+01   2.02147095E+02  -6.67627716E+00   1.52231750E+01
             2088                2   2.20000000E+02   2.03279312E+02   2.03279312E+02  -2.43762169E+01  -8.16875362E+00   2.03279312E+02   2.03279312E+02  -8.16875362E+00  -2.43762169E+01   2.27655533E+02  -5.69114494E+01   2.18650757E+02  -2.37774162E+01   2.02680511E+02  -8.16875362E+00   1.16602259E+01
             2088                3   2.20000000E+02   2.03014435E+02   2.03014435E+02  -2.72652702E+01  -5.01482677E+00   2.03014435E+02   2.03014435E+02  -5.01482677E+00  -2.72652702E+01   2.30279694E+02  -5.69114418E+01   2.17446915E+02  -2.65993347E+01   2.02348495E+02  -5.01482677E+00   1.23655891E+01
             2088                4   2.20000000E+02   2.03142380E+02   2.03142380E+02  -2.59875984E+01  -6.42043924E+00   2.03142380E+02   2.03142380E+02  -6.42043924E+00  -2.59875984E+01   2.29129990E+02  -5.69114494E+01   2.18029373E+02  -2.56449928E+01   2.02799774E+02  -6.42043924E+00   8.85352421E+00
             2089                1   2.20000000E+02   2.25336075E+02   2.25336075E+02  -1.69698105E+01   3.81082611E+01   2.25336075E+02   2.25336075E+02   3.81082611E+01  -1.69698105E+01   2.42305893E+02  -8.21581802E+01   2.03602783E+02  -1.68814602E+01   2.25247726E+02   3.81082611E+01   4.62615252E+00
             2089                2   2.20000000E+02   2.24842346E+02   2.24842346E+02  -1.85820694E+01   4.02142487E+01   2.24842346E+02   2.24842346E+02   4.02142487E+01  -1.85820694E+01   2.43424423E+02  -8.21581802E+01   2.01153320E+02  -1.85611038E+01   2.24821381E+02   4.02142487E+01  -2.25936294E+00
             2089                3   2.20000000E+02   2.24746460E+02   2.24746460E+02  -1.88810673E+01   4.06091499E+01   2.24746460E+02   2.24746460E+02   4.06091499E+01  -1.88810673E+01   2.43627518E+02  -8.21581802E+01   2.00673264E+02  -1.85108204E+01   2.24376205E+02   4.06091499E+01   9.49030399E+00
             2089                4   2.20000000E+02   2.24264175E+02   2.24264175E+02  -2.03232574E+01   4.25336189E+01   2.24264175E+02   2.24264175E+02   4.25336189E+01  -2.03232574E+01   2.44587433E+02  -8.21581802E+01   1.98237259E+02  -2.02989864E+01   2.24239899E+02   4.25336189E+01   2.43662405E+00
             2090                1   6.80818253E+01   6.37868385E+01   6.37868385E+01  -4.33001041E+00  -4.25991344E+00   6.37868385E+01   6.37868385E+01  -4.25991344E+00  -4.33001041E+00   6.81168518E+01  -1.83989716E+01   6.80817413E+01  -4.12131977E+00   6.35781479E+01  -4.25991344E+00   3.76453447E+00
             2090                2   6.79404907E+01   6.36926308E+01   6.36926308E+01  -4.23580551E+00  -4.25991344E+00   6.36926308E+01   6.36926308E+01  -4.23580551E+00  -4.25991344E+00   6.79525452E+01  -1.83989697E+01   6.79404831E+01  -4.00538111E+00   6.34622078E+01  -4.25991344E+00   3.94958067E+00
             2090                3   6.77875900E+01   6.35906372E+01   6.35906372E+01  -4.13380718E+00  -4.25991344E+00   6.35906372E+01   6.35906372E+01  -4.13380718E+00  -4.25991344E+00   6.78505478E+01  -1.83989716E+01   6.77873230E+01  -3.93680906E+00   6.33936386E+01  -4.25991344E+00   3.64731169E+00
             2090                4   6.76453018E+01   6.34956551E+01   6.34956551E+01  -4.03883171E+00  -4.25991344E+00   6.34956551E+01   6.34956551E+01  -4.03883171E+00  -4.25991344E+00   6.77555695E+01  -1.83989697E+01   6.76444855E+01  -3.82066560E+00   6.32774925E+01  -4.25991344E+00   3.83223438E+00
             2091                1   1.10457565E+02   1.19870842E+02   1.19870842E+02   9.10329723E+00   9.72587681E+00   1.19870842E+02   1.19870842E+02   9.72587681E+00   9.10329723E+00   1.10767540E+02  -4.62333374E+01   1.10453621E+02   1.01801834E+01   1.18793953E+02   9.72587681E+00   1.08685017E+01
             2091                2   1.10514465E+02   1.19908661E+02   1.19908661E+02   9.06547546E+00   9.72587681E+00   1.19908661E+02   1.19908661E+02   9.72587681E+00   9.06547546E+00   1.10843185E+02  -4.62333374E+01   1.10510025E+02   1.01155853E+01   1.18858551E+02   9.72587681E+00   1.07375393E+01
             2091                3   1.10665306E+02   1.20008904E+02   1.20008904E+02   8.96523476E+00   9.72587681E+00   1.20008904E+02   1.20008904E+02   9.72587681E+00   8.96523476E+00   1.11043671E+02  -4.62333374E+01   1.10659424E+02   1.00533791E+01   1.18920753E+02   9.72587681E+00   1.09383688E+01
             2091                4   1.10721901E+02   1.20046501E+02   1.20046501E+02   8.92763329E+00   9.72587681E+00   1.20046501E+02   1.20046501E+02   9.72587681E+00   8.92763329E+00   1.11118874E+02  -4.62333374E+01   1.10715424E+02   9.98894024E+00   1.18985191E+02   9.72587681E+00   1.08076363E+01
             2092                1   2.20000000E+02   1.90587128E+02   1.90587128E+02  -3.83610497E+01  -1.92129993E+01   1.90587128E+02   1.90587128E+02  -1.92129993E+01  -3.83610497E+01   2.28948181E+02  -4.43376923E+01   2.18113419E+02  -3.80573540E+01   1.90283432E+02  -1.92129993E+01   8.33292007E+00
             2092                2   2.20000000E+02   1.90352692E+02   1.90352692E+02  -4.06301193E+01  -1.67094994E+01   1.90352692E+02   1.90352692E+02  -1.67094994E+01  -4.06301193E+01   2.30982803E+02  -4.43376884E+01   2.17045334E+02  -4.05806847E+01   1.90303253E+02  -1.67094994E+01   3.37867451E+00
             2092                3   2.20000000E+02   1.90361557E+02   1.90361557E+02  -4.05529709E+01  -1.67955322E+01   1.90361557E+02   1.90361557E+02  -1.67955322E+01  -4.05529709E+01   2.30914536E+02  -4.43376884E+01   2.17085892E+02  -3.97540207E+01   1.89562622E+02  -1.67955322E+01   1.35590954E+01
             2092                4   2.20000000E+02   1.90106323E+02   1.90106323E+02  -4.25810165E+01  -1.45122271E+01   1.90106323E+02   1.90106323E+02  -1.45122271E+01  -4.25810165E+01   2.32687332E+02  -4.43376923E+01   2.15916412E+02  -4.22652550E+01   1.89790558E+02  -1.45122271E+01   8.56583023E+00
             2093                1   2.20000000E+02   2.23776306E+02   2.23776306E+02  -1.27223654E+01   2.52071056E+01   2.23776306E+02   2.23776306E+02   2.52071056E+01  -1.27223654E+01   2.36498672E+02  -7.87536850E+01   2.12456268E+02  -1.23977823E+01   2.23451721E+02   2.52071056E+01   8.75547314E+00
             2093                2   2.20000000E+02   2.23534378E+02   2.23534378E+02  -1.39405603E+01   2.66672459E+01   2.23534378E+02   2.23534378E+02   2.66672459E+01  -1.39405603E+01   2.37474930E+02  -7.87536850E+01   2.11319992E+02  -1.38589201E+01   2.23452728E+02   2.66672459E+01   4.40244389E+00
             2093                3   2.20000000E+02   2.23482132E+02   2.23482132E+02  -1.41919060E+01   2.69708328E+01   2.23482132E+02   2.23482132E+02   2.69708328E+01  -1.41919060E+01   2.37674042E+02  -7.87536850E+01   2.11073715E+02  -1.35878429E+01   2.22878067E+02   2.69708328E+01   1.19668207E+01
             2093                4   2.20000000E+02   2.23239670E+02   2.23239670E+02  -1.53109131E+01   2.83322868E+01   2.23239670E+02   2.23239670E+02   2.83322868E+01  -1.53109131E+01   2.38550583E+02  -7.87536850E+01   2.09926300E+02  -1.50692558E+01   2.22998016E+02   2.83322868E+01   7.58869123E+00
             2094                1   2.17338333E+02   1.50059082E+02   1.50059082E+02  -7.00001755E+01  -6.44520721E+01   1.50059082E+02   1.50059082E+02  -6.44520721E+01  -7.00001755E+01   2.20059265E+02  -5.20228052E+00   2.17178909E+02  -6.99840546E+01   1.50042969E+02  -6.44520721E+01   1.88338685E+00
             2094                2   2.16679794E+02   1.49654800E+02   1.49654800E+02  -6.66421432E+01  -6.74058151E+01   1.49654800E+02   1.49654800E+02  -6.66421432E+01  -6.74058151E+01   2.17060623E+02  -5.20228052E+00   2.16676773E+02  -6.65726852E+01   1.49585342E+02  -6.74058151E+01   3.87556314E+00
             2094                3   2.17254715E+02   1.50022141E+02   1.50022141E+02  -6.91077728E+01  -6.53075180E+01   1.50022141E+02   1.50022141E+02  -6.53075180E+01  -6.91077728E+01   2.19129913E+02  -5.20228338E+00   2.17179916E+02  -6.90180206E+01   1.49932388E+02  -6.53075180E+01  -4.43392897E+00
             2094                4   2.16581329E+02   1.49581299E+02   1.49581299E+02  -6.56285934E+01  -6.83458862E+01   1.49581299E+02   1.49581299E+02  -6.56285934E+01  -6.83458862E+01   2.17927185E+02  -5.20227575E+00   2.16542969E+02  -6.55971527E+01   1.49549866E+02  -6.83458862E+01  -2.60099745E+00
             2095                1   5.54519081E+01   4.97652092E+01   4.97652092E+01  -4.47677851E+00  -6.82219791E+00   4.97652092E+01   4.97652092E+01  -4.47677851E+00  -6.82219791E+00   5.65874062E+01  -1.28220778E+01   5.53401451E+01  -1.60597837E+00   4.68944092E+01  -6.82219791E+00   1.21439838E+01
             2095                2   5.49026184E+01   4.93901062E+01   4.93901062E+01  -4.10167313E+00  -6.82219791E+00   4.93901062E+01   4.93901062E+01  -4.10167313E+00  -6.82219791E+00   5.62123032E+01  -1.28220787E+01   5.47506523E+01  -1.14028716E+00   4.64287186E+01  -6.82219791E+00   1.22327461E+01
             2095                3   5.50873528E+01   4.95164223E+01   4.95164223E+01  -4.22799492E+00  -6.82219791E+00   4.95164223E+01   4.95164223E+01  -4.22799492E+00  -6.82219791E+00   5.63386230E+01  -1.28220778E+01   5.49496651E+01  -1.56879330E+00   4.68572235E+01  -6.82219791E+00   1.16552925E+01
             2095                4   5.45314903E+01   4.91358109E+01   4.91358109E+01  -3.84738278E+00  -6.82219791E+00   4.91358109E+01   4.91358109E+01  -3.84738278E+00  -6.82219791E+00   5.59580116E+01  -1.28220778E+01   5.43484802E+01  -1.10339558E+00   4.63918266E+01  -6.82219791E+00   1.17411947E+01
             2096                1   2.19857971E+02   2.23133270E+02   2.23133270E+02  -1.54644594E+01   2.87286797E+01   2.23133270E+02   2.23133270E+02   2.87286797E+01  -1.54644594E+01   2.38597733E+02  -7.87991638E+01   2.09512314E+02  -1.54617147E+01   2.23130524E+02   2.87286797E+01  -8.09120893E-01
             2096                2   2.20000000E+02   2.22710098E+02   2.22710098E+02  -1.76627350E+01   3.13501282E+01   2.22710098E+02   2.22710098E+02   3.13501282E+01  -1.76627350E+01   2.40372833E+02  -7.87991638E+01   2.07174789E+02  -1.74004402E+01   2.22447800E+02   3.13501282E+01  -7.93604851E+00
             2096                3   2.20000000E+02   2.22590027E+02   2.22590027E+02  -1.81257629E+01   3.19332199E+01   2.22590027E+02   2.22590027E+02   3.19332199E+01  -1.81257629E+01   2.40715790E+02  -7.87991638E+01   2.06594757E+02  -1.80282364E+01   2.22492508E+02   3.19332199E+01   4.84404039E+00
             2096                4   2.20000000E+02   2.22099518E+02   2.22099518E+02  -1.99081745E+01   3.42061462E+01   2.22099518E+02   2.22099518E+02   3.42061462E+01  -1.99081745E+01   2.42007690E+02  -7.87991638E+01   2.04204727E+02  -1.98918915E+01   2.22083237E+02   3.42061462E+01  -1.98504102E+00
             2097                1   2.13293793E+02   1.50464600E+02   1.50464600E+02  -6.51389160E+01  -6.04418869E+01   1.50464600E+02   1.50464600E+02  -6.04418869E+01  -6.51389160E+01   2.15603516E+02  -8.29459667E+00   2.13177383E+02  -6.51347733E+01   1.50460449E+02  -6.04418869E+01   9.45858121E-01
             2097                2   2.12622757E+02   1.50041779E+02   1.50041779E+02  -6.20469894E+01  -6.31109886E+01   1.50041779E+02   1.50041779E+02  -6.20469894E+01  -6.31109886E+01   2.13152756E+02  -8.29459763E+00   2.12616776E+02  -6.20162926E+01   1.50011078E+02  -6.31109886E+01   2.55128980E+00
             2097                3   2.12976944E+02   1.50266342E+02   1.50266342E+02  -6.43471603E+01  -6.10354004E+01   1.50266342E+02   1.50266342E+02  -6.10354004E+01  -6.43471603E+01   2.14613510E+02  -8.29459667E+00   2.12918991E+02  -6.42398224E+01   1.50159012E+02  -6.10354004E+01  -4.79837656E+00
             2097                4   2.12282623E+02   1.49808456E+02   1.49808456E+02  -6.11674004E+01  -6.37572556E+01   1.49808456E+02   1.49808456E+02  -6.11674004E+01  -6.37572556E+01   2.13565704E+02  -8.29459858E+00   2.12247086E+02  -6.11150627E+01   1.49756119E+02  -6.37572556E+01  -3.32241964E+00
             2098                1   2.20000000E+02   2.38906830E+02   2.38906830E+02  -6.19574404E+00   5.85321579E+01   2.38906830E+02   2.38906830E+02   5.85321579E+01  -6.19574404E+00   2.45102585E+02  -9.70810852E+01   1.96804321E+02  -6.18233347E+00   2.38893417E+02   5.85321579E+01   1.81337929E+00
             2098                2   2.20000000E+02   2.38245499E+02   2.38245499E+02  -7.96546650E+00   6.09632149E+01   2.38245499E+02   2.38245499E+02   6.09632149E+01  -7.96546650E+00   2.46210968E+02  -9.70810852E+01   1.93369339E+02  -7.80289841E+00   2.38082932E+02   6.09632149E+01  -6.32445526E+00
             2098                3   2.20000000E+02   2.38143143E+02   2.38143143E+02  -8.22717381E+00   6.13272743E+01   2.38143143E+02   2.38143143E+02   6.13272743E+01  -8.22717381E+00   2.46370316E+02  -9.70810852E+01   1.92830719E+02  -7.92860126E+00   2.37844574E+02   6.13272743E+01   8.57143974E+00
             2098                4   2.20000000E+02   2.37545059E+02   2.37545059E+02  -9.69861126E+00   6.33967896E+01   2.37545059E+02   2.37545059E+02   6.33967896E+01  -9.69861126E+00   2.47243668E+02  -9.70810776E+01   1.89643646E+02  -9.69745541E+00   2.37543900E+02   6.33967896E+01   5.36133826E-01
             2099                1   2.06617920E+02   1.80928070E+02   1.80928070E+02  -3.11219139E+01  -1.97915192E+01   1.80928070E+02   1.80928070E+02  -1.97915192E+01  -3.11219139E+01   2.12049988E+02  -4.33382111E+01   2.05917206E+02  -3.09905872E+01   1.80796738E+02  -1.97915192E+01  -5.27551031E+00
             2099                2   2.05946045E+02   1.80559631E+02   1.80559631E+02  -2.92266827E+01  -2.13183193E+01   1.80559631E+02   1.80559631E+02  -2.13183193E+01  -2.92266827E+01   2.09786316E+02  -4.33382111E+01   2.05603989E+02  -2.91982117E+01   1.80531158E+02  -2.13183193E+01  -2.44378400E+00
             2099                3   2.06049728E+02   1.80609787E+02   1.80609787E+02  -2.97191544E+01  -2.08759880E+01   1.80609787E+02   1.80609787E+02  -2.08759880E+01  -2.97191544E+01   2.10328934E+02  -4.33382111E+01   2.05622116E+02  -2.93604202E+01   1.80251038E+02  -2.08759880E+01  -8.67900562E+00
             2099                4   2.04939545E+02   1.79930862E+02   1.79930862E+02  -2.75866184E+01  -2.23295956E+01   1.79930862E+02   1.79930862E+02  -2.23295956E+01  -2.75866184E+01   2.07517471E+02  -4.33382149E+01   2.04787735E+02  -2.74213181E+01   1.79765549E+02  -2.23295956E+01  -5.85466623E+00
             2100                1   2.20000000E+02   2.45277649E+02   2.45277649E+02  -1.05326390E+00   6.83459167E+01   2.45277649E+02   2.45277649E+02   6.83459167E+01  -1.05326390E+00   2.46330902E+02  -1.04190102E+02   1.92965012E+02  -1.03474748E+00   2.45259125E+02   6.83459167E+01   2.13579416E+00
             2100                2   2.20000000E+02   2.44679794E+02   2.44679794E+02  -2.52828288E+00   7.04187927E+01   2.44679794E+02   2.44679794E+02   7.04187927E+01  -2.52828288E+00   2.47208069E+02  -1.04190102E+02   1.89782013E+02  -2.40642214E+00   2.44557922E+02   7.04187927E+01  -5.48736429E+00
             2100                3   2.20000000E+02   2.44583542E+02   2.44583542E+02  -2.75705147E+00   7.07438049E+01   2.44583542E+02   2.44583542E+02   7.07438049E+01  -2.75705147E+00   2.47340591E+02  -1.04190102E+02   1.89263077E+02  -2.46966529E+00   2.44296158E+02   7.07438049E+01   8.42612553E+00
             2100                4   2.20000000E+02   2.44048630E+02   2.44048630E+02  -3.98868513E+00   7.25103455E+01   2.44048630E+02   2.44048630E+02   7.25103455E+01  -3.98868513E+00   2.48037323E+02  -1.04190102E+02   1.86344025E+02  -3.98531032E+00   2.44045258E+02   7.25103455E+01   9.15541112E-01
             2101                1   4.00443878E+01   4.65781555E+01   4.65781555E+01   6.45905352E+00   6.60890245E+00   4.65781555E+01   4.65781555E+01   6.60890245E+00   6.45905352E+00   4.01191025E+01  -1.98820362E+01   4.00437584E+01   6.62722492E+00   4.64099846E+01   6.60890245E+00   2.59202123E+00
             2101                2   3.96620140E+01   4.63233109E+01   4.63233109E+01   6.71389818E+00   6.60890245E+00   4.63233109E+01   4.63233109E+01   6.71389818E+00   6.60890245E+00   3.97144089E+01  -1.98820362E+01   3.96617012E+01   6.87720442E+00   4.61600037E+01   6.60890245E+00   2.53807425E+00
             2101                3   4.00796394E+01   4.66016083E+01   4.66016083E+01   6.43559933E+00   6.60890245E+00   4.66016083E+01   4.66016083E+01   6.60890245E+00   6.43559933E+00   4.01660118E+01  -1.98820362E+01   4.00787964E+01   6.57384491E+00   4.64633636E+01   6.60890245E+00   2.35237384E+00
             2101                4   3.96969109E+01   4.63466034E+01   4.63466034E+01   6.69060469E+00   6.60890245E+00   4.63466034E+01   4.63466034E+01   6.69060469E+00   6.60890245E+00   3.97377014E+01  -1.98820362E+01   3.96967239E+01   6.82401848E+00   4.62131920E+01   6.60890245E+00   2.29625225E+00
             2102                1   2.14561615E+02   1.66572327E+02   1.66572327E+02  -5.08179741E+01  -4.50440292E+01   1.66572327E+02   1.66572327E+02  -4.50440292E+01  -5.08179741E+01   2.17390305E+02  -2.35701084E+01   2.14386703E+02  -5.07847519E+01   1.66539108E+02  -4.50440292E+01  -2.68740988E+00
             2102                2   2.15144775E+02   1.66842987E+02   1.66842987E+02  -5.38761444E+01  -4.22565231E+01   1.66842987E+02   1.66842987E+02  -4.22565231E+01  -5.38761444E+01   2.20719131E+02  -2.35701065E+01   2.14437103E+02  -5.36610565E+01   1.66627899E+02  -4.22565231E+01  -6.88675547E+00
             2102                3   2.14876938E+02   1.66708023E+02   1.66708023E+02  -5.29335213E+01  -4.30641823E+01   1.66708023E+02   1.66708023E+02  -4.30641823E+01  -5.29335213E+01   2.19641556E+02  -2.35701084E+01   2.14366089E+02  -5.28902245E+01   1.66664734E+02  -4.30641823E+01   3.08335948E+00
             2102                4   2.15426529E+02   1.66915039E+02   1.66915039E+02  -5.57642174E+01  -4.04404793E+01   1.66915039E+02   1.66915039E+02  -4.04404793E+01  -5.57642174E+01   2.22679245E+02  -2.35701141E+01   2.14195175E+02  -5.57578316E+01   1.66908646E+02  -4.04404793E+01  -1.19275486E+00
             2103                1   2.20000000E+02   2.18150467E+02   2.18150467E+02  -2.24164257E+01   2.71869240E+01   2.18150467E+02   2.18150467E+02   2.71869240E+01  -2.24164257E+01   2.40566895E+02  -7.43069839E+01   2.06849182E+02  -2.22818184E+01   2.18015854E+02   2.71869240E+01   5.68902874E+00
             2103                2   2.20000000E+02   2.17821838E+02   2.17821838E+02  -2.36410694E+01   2.87401848E+01   2.17821838E+02   2.17821838E+02   2.87401848E+01  -2.36410694E+01   2.41462906E+02  -7.43069839E+01   2.05254013E+02  -2.36371708E+01   2.17817947E+02   2.87401848E+01   9.69472289E-01
             2103                3   2.20000000E+02   2.17700867E+02   2.17700867E+02  -2.40728893E+01   2.92929726E+01   2.17700867E+02   2.17700867E+02   2.92929726E+01  -2.40728893E+01   2.41773758E+02  -7.43069839E+01   2.04663071E+02  -2.37815647E+01   2.17409546E+02   2.92929726E+01   8.38739586E+00
             2103                4   2.20000000E+02   2.17367432E+02   2.17367432E+02  -2.52163429E+01   3.07698669E+01   2.17367432E+02   2.17367432E+02   3.07698669E+01  -2.52163429E+01   2.42583771E+02  -7.43069839E+01   2.03023346E+02  -2.51642151E+01   2.17315308E+02   3.07698669E+01   3.55561996E+00
             2104                1   1.93449158E+02   1.75700241E+02   1.75700241E+02  -1.77694073E+01  -1.77284241E+01   1.75700241E+02   1.75700241E+02  -1.77284241E+01  -1.77694073E+01   1.93469650E+02  -4.67341347E+01   1.93449142E+02  -1.77655373E+01   1.75696365E+02  -1.77284241E+01   8.65796983E-01
             2104                2   1.93925079E+02   1.76015457E+02   1.76015457E+02  -1.85390205E+01  -1.72740250E+01   1.76015457E+02   1.76015457E+02  -1.72740250E+01  -1.85390205E+01   1.94554489E+02  -4.67341423E+01   1.93915787E+02  -1.85284786E+01   1.76004913E+02  -1.72740250E+01   1.43248665E+00
             2104                3   1.93186264E+02   1.75524658E+02   1.75524658E+02  -1.74088821E+01  -1.79133606E+01   1.75524658E+02   1.75524658E+02  -1.74088821E+01  -1.79133606E+01   1.93438019E+02  -4.67341347E+01   1.93184784E+02  -1.73863583E+01   1.75502121E+02  -1.79133606E+01   2.08478117E+00
             2104                4   1.93666656E+02   1.75844559E+02   1.75844559E+02  -1.81858139E+01  -1.74563370E+01   1.75844559E+02   1.75844559E+02  -1.74563370E+01  -1.81858139E+01   1.94030365E+02  -4.67341309E+01   1.93663574E+02  -1.81496544E+01   1.75808395E+02  -1.74563370E+01   2.64840579E+00
             2105                1   2.12390686E+02   1.48184174E+02   1.48184174E+02  -6.57015991E+01  -6.26791611E+01   1.48184174E+02   1.48184174E+02  -6.26791611E+01  -6.57015991E+01   2.13885773E+02  -6.60113525E+00   2.12342285E+02  -6.56996384E+01   1.48182205E+02  -6.26791611E+01   6.48647308E-01
             2105                2   2.11762787E+02   1.47766937E+02   1.47766937E+02  -6.25715294E+01  -6.53920059E+01   1.47766937E+02   1.47766937E+02  -6.25715294E+01  -6.53920059E+01   2.13158951E+02  -6.60113525E+00   2.11720520E+02  -6.25631943E+01   1.47758606E+02  -6.53920059E+01   1.32385886E+00
             2105                3   2.12375504E+02   1.48177322E+02   1.48177322E+02  -6.54480438E+01  -6.29258614E+01   1.48177322E+02   1.48177322E+02  -6.29258614E+01  -6.54480438E+01   2.13625366E+02  -6.60113668E+00   2.12341812E+02  -6.53252335E+01   1.48054504E+02  -6.29258614E+01  -5.12070179E+00
             2105                4   2.11735519E+02   1.47744690E+02   1.47744690E+02  -6.22829475E+01  -6.56583328E+01   1.47744690E+02   1.47744690E+02  -6.22829475E+01  -6.56583328E+01   2.13403030E+02  -6.60113764E+00   2.11674957E+02  -6.21829414E+01   1.47644684E+02  -6.56583328E+01  -4.58202124E+00
             2106                1   5.95723648E+01   5.62078857E+01   5.62078857E+01  -3.21580839E+00  -3.51204157E+00   5.62078857E+01   5.62078857E+01  -3.21580839E+00  -3.51204157E+00   5.97199287E+01  -1.64933453E+01   5.95707054E+01  -2.11580443E+00   5.51078796E+01  -3.51204157E+00   8.00976849E+00
             2106                2   5.92909660E+01   5.60196648E+01   5.60196648E+01  -3.02759337E+00  -3.51204157E+00   5.60196648E+01   5.60196648E+01  -3.02759337E+00  -3.51204157E+00   5.95317078E+01  -1.64933434E+01   5.92865181E+01  -1.87591112E+00   5.48679848E+01  -3.51204157E+00   8.16561508E+00
             2106                3   5.92531891E+01   5.59943733E+01   5.59943733E+01  -3.00229979E+00  -3.51204157E+00   5.59943733E+01   5.59943733E+01  -3.00229979E+00  -3.51204157E+00   5.95064163E+01  -1.64933434E+01   5.92482567E+01  -1.96067321E+00   5.49527473E+01  -3.51204157E+00   7.76964998E+00
             2106                4   5.89701653E+01   5.58047142E+01   5.58047142E+01  -2.81263757E+00  -3.51204157E+00   5.58047142E+01   5.58047142E+01  -2.81263757E+00  -3.51204157E+00   5.93167572E+01  -1.64933453E+01   5.89608345E+01  -1.72072291E+00   5.47127991E+01  -3.51204157E+00   7.92545986E+00
             2107                1   2.06175598E+02   1.54183685E+02   1.54183685E+02  -5.39234924E+01  -5.00044708E+01   1.54183685E+02   1.54183685E+02  -5.00044708E+01  -5.39234924E+01   2.08107178E+02  -1.67519073E+01   2.06091782E+02  -5.39234924E+01   1.54183685E+02  -5.00044708E+01  -7.66266556E-03
             2107                2   2.05414963E+02   1.53693954E+02   1.53693954E+02  -5.12101784E+01  -5.22280464E+01   1.53693954E+02   1.53693954E+02  -5.12101784E+01  -5.22280464E+01   2.05922012E+02  -1.67519112E+01   2.05409286E+02  -5.12019844E+01   1.53685760E+02  -5.22280464E+01   1.29613733E+00
             2107                3   2.05957138E+02   1.54047150E+02   1.54047150E+02  -5.32958374E+01  -5.04955902E+01   1.54047150E+02   1.54047150E+02  -5.04955902E+01  -5.32958374E+01   2.07342987E+02  -1.67519073E+01   2.05914307E+02  -5.31787720E+01   1.53930084E+02  -5.04955902E+01  -4.92532349E+00
             2107                4   2.05177414E+02   1.53530777E+02   1.53530777E+02  -5.05211754E+01  -5.27538757E+01   1.53530777E+02   1.53530777E+02  -5.05211754E+01  -5.27538757E+01   2.06284653E+02  -1.67519073E+01   2.05150070E+02  -5.04538422E+01   1.53463440E+02  -5.27538757E+01  -3.70603299E+00
             2108                1   2.20000000E+02   1.63978195E+02   1.63978195E+02  -6.33193855E+01  -4.79144478E+01   1.63978195E+02   1.63978195E+02  -4.79144478E+01  -6.33193855E+01   2.27297577E+02  -1.75814533E+01   2.18781586E+02  -6.32126999E+01   1.63871506E+02  -4.79144478E+01   4.92329264E+00
             2108                2   2.20000000E+02   1.64151215E+02   1.64151215E+02  -6.03198624E+01  -5.10869942E+01   1.64151215E+02   1.64151215E+02  -5.10869942E+01  -6.03198624E+01   2.24471085E+02  -1.75814552E+01   2.19563461E+02  -5.99158173E+01   1.63747177E+02  -5.10869942E+01   9.51488686E+00
             2108                3   2.19999985E+02   1.64101837E+02   1.64101837E+02  -6.13499870E+01  -5.00074997E+01   1.64101837E+02   1.64101837E+02  -5.00074997E+01  -6.13499870E+01   2.25451828E+02  -1.75814514E+01   2.19340683E+02  -6.13368454E+01   1.64088699E+02  -5.00074997E+01  -1.72143519E+00
             2108                4   2.20000000E+02   1.64223877E+02   1.64223877E+02  -5.80486526E+01  -5.34308701E+01   1.64223877E+02   1.64223877E+02  -5.34308701E+01  -5.80486526E+01   2.22272537E+02  -1.75814533E+01   2.19890915E+02  -5.80149727E+01   1.64190201E+02  -5.34308701E+01   2.73596811E+00
             2109                1   2.16794373E+02   2.06399231E+02   2.06399231E+02  -2.42515659E+01   6.81256104E+00   2.06399231E+02   2.06399231E+02   6.81256104E+00  -2.42515659E+01   2.30650787E+02  -6.29867401E+01   2.11700348E+02  -2.41837273E+01   2.06331390E+02   6.81256104E+00   3.95493174E+00
             2109                2   2.16688187E+02   2.06584518E+02   2.06584518E+02  -2.24508572E+01   4.82655525E+00   2.06584518E+02   2.06584518E+02   4.82655525E+00  -2.24508572E+01   2.29035385E+02  -6.29867401E+01   2.12774109E+02  -2.16382065E+01   2.05771881E+02   4.82655525E+00   1.36184978E+01
             2109                3   2.15958313E+02   2.06208084E+02   2.06208084E+02  -2.13413429E+01   4.09347773E+00   2.06208084E+02   2.06208084E+02   4.09347773E+00  -2.13413429E+01   2.27549438E+02  -6.29867401E+01   2.12549362E+02  -2.12704601E+01   2.06137207E+02   4.09347773E+00  -4.01547194E+00
             2109                4   2.15741943E+02   2.06307297E+02   2.06307297E+02  -1.91269875E+01   1.77990854E+00   2.06307297E+02   2.06307297E+02   1.77990854E+00  -1.91269875E+01   2.25434296E+02  -6.29867401E+01   2.13444992E+02  -1.89735241E+01   2.06153839E+02   1.77990854E+00   5.87979412E+00
             2110                1   2.20000000E+02   2.04750198E+02   2.04750198E+02  -2.29154263E+01  -6.68524313E+00   2.04750198E+02   2.04750198E+02  -6.68524313E+00  -2.29154263E+01   2.27665634E+02  -5.83831787E+01   2.18646973E+02  -2.18775120E+01   2.03712296E+02  -6.68524313E+00   1.53368473E+01
             2110                2   2.20000000E+02   2.04831146E+02   2.04831146E+02  -2.17745399E+01  -7.90708065E+00   2.04831146E+02   2.04831146E+02  -7.90708065E+00  -2.17745399E+01   2.26605682E+02  -5.83831787E+01   2.19013412E+02  -2.11254692E+01   2.04182083E+02  -7.90708065E+00   1.21103592E+01
             2110                3   2.20000000E+02   2.04626022E+02   2.04626022E+02  -2.43873978E+01  -5.08908319E+00   2.04626022E+02   2.04626022E+02  -5.08908319E+00  -2.43873978E+01   2.29013412E+02  -5.83831787E+01   2.18083481E+02  -2.36468544E+01   2.03885468E+02  -5.08908319E+00   1.30018082E+01
             2110                4   2.20000000E+02   2.04716003E+02   2.04716003E+02  -2.33482265E+01  -6.21825075E+00   2.04716003E+02   2.04716003E+02  -6.21825075E+00  -2.33482265E+01   2.28064240E+02  -5.83831787E+01   2.18491989E+02  -2.29272785E+01   2.04295059E+02  -6.21825075E+00   9.78909206E+00
             2111                1   2.12610794E+02   1.74848480E+02   1.74848480E+02  -4.19722710E+01  -3.32861290E+01   1.74848480E+02   1.74848480E+02  -3.32861290E+01  -4.19722710E+01   2.16820755E+02  -3.31966896E+01   2.12211029E+02  -4.19085732E+01   1.74784775E+02  -3.32861290E+01  -3.71591449E+00
             2111                2   2.13353790E+02   1.75204285E+02   1.75204285E+02  -4.47827682E+01  -3.08314552E+01   1.75204285E+02   1.75204285E+02  -3.08314552E+01  -4.47827682E+01   2.19987061E+02  -3.31966896E+01   2.12323868E+02  -4.44977264E+01   1.74919250E+02  -3.08314552E+01  -7.91352797E+00
             2111                3   2.13128525E+02   1.75092377E+02   1.75092377E+02  -4.41126366E+01  -3.13896713E+01   1.75092377E+02   1.75092377E+02  -3.13896713E+01  -4.41126366E+01   2.19205002E+02  -3.31966896E+01   2.12271591E+02  -4.41032486E+01   1.75082993E+02  -3.13896713E+01   1.43390322E+00
             2111                4   2.13829025E+02   1.75384506E+02   1.75384506E+02  -4.67244835E+01  -2.90699406E+01   1.75384506E+02   1.75384506E+02  -2.90699406E+01  -4.67244835E+01   2.22108994E+02  -3.31966934E+01   2.12180008E+02  -4.66887398E+01   1.75348755E+02  -2.90699406E+01  -2.81757307E+00
             2112                1   2.07787155E+02   1.88413788E+02   1.88413788E+02  -2.59931049E+01  -1.20514784E+01   1.88413788E+02   1.88413788E+02  -1.20514784E+01  -2.59931049E+01   2.14406891E+02  -5.01230659E+01   2.06730942E+02  -2.58440685E+01   1.88264755E+02  -1.20514784E+01  -5.65081453E+00
             2112                2   2.06567215E+02   1.87687256E+02   1.87687256E+02  -2.41735649E+01  -1.31444702E+01   1.87687256E+02   1.87687256E+02  -1.31444702E+01  -2.41735649E+01   2.11860809E+02  -5.01230736E+01   2.05903198E+02  -2.41344738E+01   1.87648163E+02  -1.31444702E+01  -2.87746024E+00
             2112                3   2.06614441E+02   1.87709106E+02   1.87709106E+02  -2.43624420E+01  -1.29774628E+01   1.87709106E+02   1.87709106E+02  -1.29774628E+01  -2.43624420E+01   2.12071548E+02  -5.01230659E+01   2.05906937E+02  -2.40206547E+01   1.87367325E+02  -1.29774628E+01  -8.50679302E+00
             2112                4   2.05367432E+02   1.86948959E+02   1.86948959E+02  -2.24851418E+01  -1.40945978E+01   1.86948959E+02   1.86948959E+02  -1.40945978E+01  -2.24851418E+01   2.09434097E+02  -5.01230736E+01   2.04981247E+02  -2.23262081E+01   1.86790024E+02  -1.40945978E+01  -5.76731014E+00
             2113                1   5.41375465E+01   4.95244751E+01   4.95244751E+01  -3.41451311E+00  -5.73688555E+00   4.95244751E+01   4.95244751E+01  -3.41451311E+00  -5.73688555E+00   5.52613602E+01  -1.34576921E+01   5.40253029E+01  -1.09280610E+00   4.72027702E+01  -5.73688555E+00   1.08405914E+01
             2113                2   5.46065445E+01   4.98436813E+01   4.98436813E+01  -3.73371887E+00  -5.73688555E+00   4.98436813E+01   4.98436813E+01  -3.73371887E+00  -5.73688555E+00   5.55805664E+01  -1.34576921E+01   5.45237885E+01  -1.50957775E+00   4.76195412E+01  -5.73688555E+00   1.06872282E+01
             2113                3   5.44865990E+01   4.97621460E+01   4.97621460E+01  -3.65218425E+00  -5.73688555E+00   4.97621460E+01   4.97621460E+01  -3.65218425E+00  -5.73688555E+00   5.54990311E+01  -1.34576921E+01   5.43967590E+01  -1.16427207E+00   4.72742348E+01  -5.73688555E+00   1.12561293E+01
             2113                4   5.49454308E+01   5.00736732E+01   5.00736732E+01  -3.96370935E+00  -5.73688555E+00   5.00736732E+01   5.00736732E+01  -3.96370935E+00  -5.73688555E+00   5.58105583E+01  -1.34576921E+01   5.48810005E+01  -1.58148050E+00   4.76914444E+01  -5.73688555E+00   1.10929852E+01
             2114                1   9.62589722E+01   9.34492035E+01   9.34492035E+01  -2.74741626E+00  -2.87199283E+00   9.34492035E+01   9.34492035E+01  -2.74741626E+00  -2.87199283E+00   9.63211975E+01  -2.92765980E+01   9.62587891E+01  -1.88247347E+00   9.25842667E+01  -2.87199283E+00   9.08053589E+00
             2114                2   9.66328735E+01   9.36984711E+01   9.36984711E+01  -2.99668360E+00  -2.87199283E+00   9.36984711E+01   9.36984711E+01  -2.87199283E+00  -2.99668360E+00   9.66951599E+01  -2.92765980E+01   9.66326904E+01  -2.14535046E+00   9.28471375E+01  -2.87199283E+00   9.03301144E+00
             2114                3   9.64059982E+01   9.35472641E+01   9.35472641E+01  -2.84547210E+00  -2.87199283E+00   9.35472641E+01   9.35472641E+01  -2.84547210E+00  -2.87199283E+00   9.64192581E+01  -2.92765980E+01   9.64059906E+01  -1.93064010E+00   9.26324310E+01  -2.87199283E+00   9.34591579E+00
             2114                4   9.67794189E+01   9.37960815E+01   9.37960815E+01  -3.09429193E+00  -2.87199283E+00   9.37960815E+01   9.37960815E+01  -2.87199283E+00  -3.09429193E+00   9.68903732E+01  -2.92765980E+01   9.67788391E+01  -2.19353700E+00   9.28953247E+01  -2.87199283E+00   9.29856586E+00
             2115                1   2.18641159E+02   2.20618454E+02   2.20618454E+02  -1.40392933E+01   2.26312695E+01   2.20618454E+02   2.20618454E+02   2.26312695E+01  -1.40392933E+01   2.34657745E+02  -7.64034805E+01   2.11555969E+02  -1.35820017E+01   2.20161163E+02   2.26312695E+01   1.03488216E+01
             2115                2   2.18285172E+02   2.20777664E+02   2.20777664E+02  -1.15911055E+01   2.00238762E+01   2.20777664E+02   2.20777664E+02   2.00238762E+01  -1.15911055E+01   2.32368759E+02  -7.64034805E+01   2.13042892E+02  -1.15399971E+01   2.20726547E+02   2.00238762E+01   3.44590521E+00
             2115                3   2.18905411E+02   2.20394119E+02   2.20394119E+02  -1.61640129E+01   2.49803143E+01   2.20394119E+02   2.20394119E+02   2.49803143E+01  -1.61640129E+01   2.36558136E+02  -7.64034729E+01   2.09939941E+02  -1.60970879E+01   2.20327194E+02   2.49803143E+01   3.97824121E+00
             2115                4   2.18589355E+02   2.20580994E+02   2.20580994E+02  -1.40356827E+01   2.26651268E+01   2.20580994E+02   2.20580994E+02   2.26651268E+01  -1.40356827E+01   2.34616669E+02  -7.64034805E+01   2.11490417E+02  -1.40013418E+01   2.20546646E+02   2.26651268E+01  -2.83822823E+00
             2116                1   1.88180725E+02   2.15619553E+02   2.15619553E+02   2.14474773E+01   3.40652351E+01   2.15619553E+02   2.15619553E+02   3.40652351E+01   2.14474773E+01   1.94172073E+02  -9.03774185E+01   1.87225433E+02   2.35345917E+01   2.13532440E+02   3.40652351E+01   2.00225697E+01
             2116                2   1.91589340E+02   2.17732224E+02   2.17732224E+02   1.82704906E+01   3.51295471E+01   2.17732224E+02   2.17732224E+02   3.51295471E+01   1.82704906E+01   1.99461731E+02  -9.03774185E+01   1.89909729E+02   2.08195496E+01   2.15183167E+02   3.51295471E+01   2.24040604E+01
             2116                3   1.85163284E+02   2.13665970E+02   2.13665970E+02   2.34010601E+01   3.40652351E+01   2.13665970E+02   2.13665970E+02   3.40652351E+01   2.34010601E+01   1.90264908E+02  -9.03774185E+01   1.84470459E+02   2.64601498E+01   2.10606888E+02   3.40652351E+01   2.39307003E+01
             2116                4   1.91104141E+02   2.17479950E+02   2.17479950E+02   1.92559452E+01   3.43963737E+01   2.17479950E+02   2.17479950E+02   3.43963737E+01   1.92559452E+01   1.98224014E+02  -9.03774185E+01   1.89747742E+02   2.28922997E+01   2.13843597E+02   3.43963737E+01   2.66005726E+01
             2117                1   2.20000000E+02   2.24246429E+02   2.24246429E+02  -1.68433208E+01   3.43704376E+01   2.24246429E+02   2.24246429E+02   3.43704376E+01  -1.68433208E+01   2.41089752E+02  -8.05911789E+01   2.05937302E+02  -1.68414230E+01   2.24244537E+02   3.43704376E+01   6.75029993E-01
             2117                2   2.20000000E+02   2.23653641E+02   2.23653641E+02  -1.89254742E+01   3.70453949E+01   2.23653641E+02   2.23653641E+02   3.70453949E+01  -1.89254742E+01   2.42579117E+02  -8.05911865E+01   2.03033234E+02  -1.87278194E+01   2.23455978E+02   3.70453949E+01  -6.92164993E+00
             2117                3   2.20000000E+02   2.23518051E+02   2.23518051E+02  -1.93725014E+01   3.76279831E+01   2.23518051E+02   2.23518051E+02   3.76279831E+01  -1.93725014E+01   2.42890564E+02  -8.05911789E+01   2.02361954E+02  -1.91876011E+01   2.23333160E+02   3.76279831E+01   6.69888973E+00
             2117                4   2.20000000E+02   2.22969864E+02   2.22969864E+02  -2.10869350E+01   3.98906097E+01   2.22969864E+02   2.22969864E+02   3.98906097E+01  -2.10869350E+01   2.44056808E+02  -8.05911789E+01   1.99619171E+02  -2.10855064E+01   2.22968445E+02   3.98906097E+01  -5.89832067E-01
             2118                1   2.20000000E+02   2.17284012E+02   2.17284012E+02  -2.59311409E+01   3.21564331E+01   2.17284012E+02   2.17284012E+02   3.21564331E+01  -2.59311409E+01   2.43215149E+02  -7.45031052E+01   2.01636108E+02  -2.59036942E+01   2.17256561E+02   3.21564331E+01   2.58387637E+00
             2118                2   2.20000000E+02   2.17681717E+02   2.17681717E+02  -2.46224899E+01   3.04500732E+01   2.17681717E+02   2.17681717E+02   3.04500732E+01  -2.46224899E+01   2.42304199E+02  -7.45030975E+01   2.03606262E+02  -2.43550720E+01   2.17414291E+02   3.04500732E+01   8.04518986E+00
             2118                3   2.20000000E+02   2.17762054E+02   2.17762054E+02  -2.43474541E+01   3.00946922E+01   2.17762054E+02   2.17762054E+02   3.00946922E+01  -2.43474541E+01   2.42109512E+02  -7.45030975E+01   2.04001450E+02  -2.43459015E+01   2.17760498E+02   3.00946922E+01  -6.13206804E-01
             2118                4   2.20000000E+02   2.18171097E+02   2.18171097E+02  -2.28840485E+01   2.82222443E+01   2.18171097E+02   2.18171097E+02   2.82222443E+01  -2.28840485E+01   2.41055145E+02  -7.45030975E+01   2.05999237E+02  -2.27839489E+01   2.18070999E+02   2.82222443E+01   4.91111994E+00
             2119                1   2.13170929E+02   1.99696747E+02   1.99696747E+02  -2.21051655E+01  -3.64216852E+00   1.99696747E+02   1.99696747E+02  -3.64216852E+00  -2.21051655E+01   2.21801910E+02  -5.79831390E+01   2.11360825E+02  -2.16355820E+01   1.99227158E+02  -3.64216852E+00   1.01948805E+01
             2119                2   2.12598328E+02   1.99459930E+02   1.99459930E+02  -2.01208725E+01  -5.38965702E+00   1.99459930E+02   1.99459930E+02  -5.38965702E+00  -2.01208725E+01   2.19580811E+02  -5.79831352E+01   2.11445480E+02  -1.99665394E+01   1.99305603E+02  -5.38965702E+00   5.81936884E+00
             2119                3   2.13580902E+02   1.99800964E+02   1.99800964E+02  -2.39429626E+01  -1.90859282E+00   1.99800964E+02   1.99800964E+02  -1.90859282E+00  -2.39429626E+01   2.23743927E+02  -5.79831352E+01   2.11001038E+02  -2.37948990E+01   1.99652893E+02  -1.90859282E+00   5.75394773E+00
             2119                4   2.13035934E+02   1.99605423E+02   1.99605423E+02  -2.20718822E+01  -3.58413339E+00   1.99605423E+02   1.99605423E+02  -3.58413339E+00  -2.20718822E+01   2.21677307E+02  -5.79831352E+01   2.11219788E+02  -2.20646706E+01   1.99598206E+02  -3.58413339E+00   1.26470947E+00
             2120                1   2.06281555E+02   1.79796173E+02   1.79796173E+02  -2.90765514E+01  -2.37926884E+01   1.79796173E+02   1.79796173E+02  -2.37926884E+01  -2.90765514E+01   2.08872726E+02  -4.23089790E+01   2.06129196E+02  -2.89381161E+01   1.79657730E+02  -2.37926884E+01   5.37562990E+00
             2120                2   2.06833862E+02   1.80121262E+02   1.80121262E+02  -3.05861988E+01  -2.26081429E+01   1.80121262E+02   1.80121262E+02  -2.26081429E+01  -3.05861988E+01   2.10707458E+02  -4.23089752E+01   2.06487244E+02  -3.05646667E+01   1.80099731E+02  -2.26081429E+01   2.12986326E+00
             2120                3   2.06945877E+02   1.80182785E+02   1.80182785E+02  -3.09454632E+01  -2.23104057E+01   1.80182785E+02   1.80182785E+02  -2.23104057E+01  -3.09454632E+01   2.11128250E+02  -4.23089714E+01   2.06539963E+02  -3.06229401E+01   1.79860260E+02  -2.23104057E+01   8.24559689E+00
             2120                4   2.07470230E+02   1.80471390E+02   1.80471390E+02  -3.23691864E+01  -2.11752892E+01   1.80471390E+02   1.80471390E+02  -2.11752892E+01  -3.23691864E+01   2.12840576E+02  -4.23089714E+01   2.06789169E+02  -3.22506866E+01   1.80352890E+02  -2.11752892E+01   5.02070951E+00
             2121                1   5.72785187E+01   5.55066833E+01   5.55066833E+01  -1.58739614E+00  -1.95450413E+00   5.55066833E+01   5.55066833E+01  -1.58739614E+00  -1.95450413E+00   5.74611893E+01  -1.73215942E+01   5.72758713E+01  -9.89327669E-01   5.49086151E+01  -1.95450413E+00   5.81279182E+00
             2121                2   5.74624062E+01   5.56296082E+01   5.56296082E+01  -1.71031821E+00  -1.95450413E+00   5.56296082E+01   5.56296082E+01  -1.71031821E+00  -1.95450413E+00   5.75841103E+01  -1.73215942E+01   5.74612389E+01  -1.15283012E+00   5.50721169E+01  -1.95450413E+00   5.62633419E+00
             2121                3   5.76021461E+01   5.57229271E+01   5.57229271E+01  -1.80364239E+00  -1.95450413E+00   5.57229271E+01   5.57229271E+01  -1.80364239E+00  -1.95450413E+00   5.76774330E+01  -1.73215923E+01   5.76017075E+01  -1.17594385E+00   5.50952301E+01  -1.95450413E+00   5.97622442E+00
             2121                4   5.77848434E+01   5.58448181E+01   5.58448181E+01  -1.92553425E+00  -1.95450413E+00   5.58448181E+01   5.58448181E+01  -1.92553425E+00  -1.95450413E+00   5.77993240E+01  -1.73215923E+01   5.77848282E+01  -1.33932531E+00   5.52586098E+01  -1.95450413E+00   5.78980827E+00
             2122                1   5.36570244E+01   5.24650726E+01   5.24650726E+01  -1.01186383E+00  -1.37024760E+00   5.24650726E+01   5.24650726E+01  -1.01186383E+00  -1.37024760E+00   5.38353195E+01  -1.66943207E+01   5.36543350E+01  -9.58042964E-02   5.15490150E+01  -1.37024760E+00   6.93893337E+00
             2122                2   5.39886398E+01   5.26866608E+01   5.26866608E+01  -1.23345244E+00  -1.37024760E+00   5.26866608E+01   5.26866608E+01  -1.23345244E+00  -1.37024760E+00   5.40569077E+01  -1.66943207E+01   5.39882507E+01  -2.71606117E-01   5.17248154E+01  -1.37024760E+00   7.13706493E+00
             2122                3   5.34472313E+01   5.23246460E+01   5.23246460E+01  -8.71432781E-01  -1.37024760E+00   5.23246460E+01   5.23246460E+01  -8.71432781E-01  -1.37024760E+00   5.36948929E+01  -1.66943226E+01   5.34419937E+01   9.74640101E-02   5.13557472E+01  -1.37024760E+00   7.11356640E+00
             2122                4   5.37776871E+01   5.25457535E+01   5.25457535E+01  -1.09254384E+00  -1.37024760E+00   5.25457535E+01   5.25457535E+01  -1.09254384E+00  -1.37024760E+00   5.39160004E+01  -1.66943207E+01   5.37760735E+01  -7.71316811E-02   5.15303421E+01  -1.37024760E+00   7.30984545E+00
             2123                1   2.20000000E+02   2.44496384E+02   2.44496384E+02  -2.51623988E+00   6.96230621E+01   2.44496384E+02   2.44496384E+02   6.96230621E+01  -2.51623988E+00   2.47012634E+02  -1.03867737E+02   1.90528061E+02  -2.41351819E+00   2.44393661E+02   6.96230621E+01  -5.03629494E+00
             2123                2   2.20000000E+02   2.43893372E+02   2.43893372E+02  -3.93329716E+00   7.16431427E+01   2.43893372E+02   2.43893372E+02   7.16431427E+01  -3.93329716E+00   2.47826660E+02  -1.03867737E+02   1.87262375E+02  -3.92802978E+00   2.43888092E+02   7.16431427E+01   1.14312875E+00
             2123                3   2.20000000E+02   2.45063828E+02   2.45063828E+02  -1.09719300E+00   6.76365891E+01   2.45063828E+02   2.45063828E+02   6.76365891E+01  -1.09719300E+00   2.46161011E+02  -1.03867737E+02   1.93535629E+02  -1.07420862E+00   2.45040833E+02   6.76365891E+01   2.37878108E+00
             2123                4   2.20000000E+02   2.44401764E+02   2.44401764E+02  -2.74447846E+00   6.99459305E+01   2.44401764E+02   2.44401764E+02   6.99459305E+01  -2.74447846E+00   2.47146240E+02  -1.03867737E+02   1.90020477E+02  -2.45558810E+00   2.44112869E+02   6.99459305E+01   8.44489861E+00
             2124                1   2.14877350E+02   1.74601334E+02   1.74601334E+02  -4.49108696E+01  -3.53199921E+01   1.74601334E+02   1.74601334E+02  -3.53199921E+01  -4.49108696E+01   2.19512207E+02  -3.14568233E+01   2.14394989E+02  -4.48692703E+01   1.74559738E+02  -3.53199921E+01  -3.02128601E+00
             2124                2   2.15412949E+02   1.74797379E+02   1.74797379E+02  -4.78090782E+01  -3.26178284E+01   1.74797379E+02   1.74797379E+02  -3.26178284E+01  -4.78090782E+01   2.22606445E+02  -3.14568233E+01   2.14202805E+02  -4.75448456E+01   1.74533142E+02  -3.26178284E+01  -7.66484213E+00
             2124                3   2.15255646E+02   1.74731827E+02   1.74731827E+02  -4.71950760E+01  -3.31662865E+01   1.74731827E+02   1.74731827E+02  -3.31662865E+01  -4.71950760E+01   2.21926910E+02  -3.14568233E+01   2.14223495E+02  -4.71680183E+01   1.74704773E+02  -3.31662865E+01   2.45043850E+00
             2124                4   2.15774475E+02   1.74878830E+02   1.74878830E+02  -4.98530579E+01  -3.06552925E+01   1.74878830E+02   1.74878830E+02  -3.06552925E+01  -4.98530579E+01   2.24731888E+02  -3.14568272E+01   2.13840393E+02  -4.98310547E+01   1.74856827E+02  -3.06552925E+01  -2.22358394E+00
             2125                1   2.20000000E+02   2.24360580E+02   2.24360580E+02  -1.97743416E+01   4.14770012E+01   2.24360580E+02   2.24360580E+02   4.14770012E+01  -1.97743416E+01   2.44134918E+02  -8.20210800E+01   1.99421326E+02  -1.97302628E+01   2.24316498E+02   4.14770012E+01   3.28039598E+00
             2125                2   2.20000000E+02   2.24764557E+02   2.24764557E+02  -1.85321083E+01   3.98307953E+01   2.24764557E+02   2.24764557E+02   3.98307953E+01  -1.85321083E+01   2.43296661E+02  -8.20210800E+01   2.01449463E+02  -1.81899643E+01   2.24422409E+02   3.98307953E+01   9.11741352E+00
             2125                3   2.19999985E+02   2.24884918E+02   2.24884918E+02  -1.81471272E+01   3.93254395E+01   2.24884918E+02   2.24884918E+02   3.93254395E+01  -1.81471272E+01   2.43032043E+02  -8.20210800E+01   2.02048904E+02  -1.81431713E+01   2.24880966E+02   3.93254395E+01  -9.80381370E-01
             2125                4   2.20000000E+02   2.25312302E+02   2.25312302E+02  -1.67179317E+01   3.74688644E+01   2.25312302E+02   2.25312302E+02   3.74688644E+01  -1.67179317E+01   2.42030243E+02  -8.20210800E+01   2.04159927E+02  -1.66165276E+01   2.25210907E+02   3.74688644E+01   4.95296383E+00
             2126                1   2.13907379E+02   1.47251846E+02   1.47251846E+02  -6.51827698E+01  -6.80984955E+01   1.47251846E+02   1.47251846E+02  -6.51827698E+01  -6.80984955E+01   2.15350342E+02  -4.65686035E+00   2.13862671E+02  -6.51712036E+01   1.47240280E+02  -6.80984955E+01   1.56754160E+00
             2126                2   2.13801758E+02   1.47176819E+02   1.47176819E+02  -6.48385773E+01  -6.83676376E+01   1.47176819E+02   1.47176819E+02  -6.48385773E+01  -6.83676376E+01   2.15544449E+02  -4.65686560E+00   2.13736206E+02  -6.47407761E+01   1.47079010E+02  -6.83676376E+01  -4.55248356E+00
             2126                3   2.14766876E+02   1.47823288E+02   1.47823288E+02  -6.84963913E+01  -6.53563156E+01   1.47823288E+02   1.47823288E+02  -6.53563156E+01  -6.84963913E+01   2.16319687E+02  -4.65686035E+00   2.14715210E+02  -6.84931717E+01   1.47820068E+02  -6.53563156E+01   8.35422993E-01
             2126                4   2.14670380E+02   1.47762665E+02   1.47762665E+02  -6.81891632E+01  -6.56029053E+01   1.47762665E+02   1.47762665E+02  -6.56029053E+01  -6.81891632E+01   2.15951828E+02  -4.65686560E+00   2.14635315E+02  -6.80667572E+01   1.47640259E+02  -6.56029053E+01  -5.13984966E+00
             2127                1   2.19224411E+02   1.60221268E+02   1.60221268E+02  -6.54049988E+01  -5.19846840E+01   1.60221268E+02   1.60221268E+02  -5.19846840E+01  -6.54049988E+01   2.25626266E+02  -1.42771950E+01   2.18297318E+02  -6.53924866E+01   1.60208755E+02  -5.19846840E+01   1.67993379E+00
             2127                2   2.18985382E+02   1.60207397E+02   1.60207397E+02  -6.23142014E+01  -5.50616035E+01   1.60207397E+02   1.60207397E+02  -5.50616035E+01  -6.23142014E+01   2.22521591E+02  -1.42771950E+01   2.18714920E+02  -6.21560211E+01   1.60049210E+02  -5.50616035E+01   5.93073797E+00
             2127                3   2.19058945E+02   1.60209290E+02   1.60209290E+02  -6.35340652E+01  -5.38436241E+01   1.60209290E+02   1.60209290E+02  -5.38436241E+01  -6.35340652E+01   2.23743347E+02  -1.42771978E+01   2.18575912E+02  -6.34311981E+01   1.60106415E+02  -5.38436241E+01  -4.79640722E+00
             2127                4   2.18454224E+02   1.59902679E+02   1.59902679E+02  -6.00625267E+01  -5.70085564E+01   1.59902679E+02   1.59902679E+02  -5.70085564E+01  -6.00625267E+01   2.19965195E+02  -1.42771978E+01   2.18406189E+02  -6.00604706E+01   1.59900620E+02  -5.70085564E+01  -6.72298074E-01
             2128                1   2.20000000E+02   1.60996521E+02   1.60996521E+02  -6.37644920E+01  -5.39113655E+01   1.60996521E+02   1.60996521E+02  -5.39113655E+01  -6.37644920E+01   2.24761017E+02  -1.44402199E+01   2.19502731E+02  -6.36435242E+01   1.60875549E+02  -5.39113655E+01   5.21289301E+00
             2128                2   2.20000000E+02   1.61093857E+02   1.61093857E+02  -6.05801506E+01  -5.71930313E+01   1.61093857E+02   1.61093857E+02  -5.71930313E+01  -6.05801506E+01   2.21674011E+02  -1.44402237E+01   2.19941330E+02  -6.02550659E+01   1.60768768E+02  -5.71930313E+01   8.48278046E+00
             2128                3   2.20000000E+02   1.61052567E+02   1.61052567E+02  -6.23228874E+01  -5.54090080E+01   1.61052567E+02   1.61052567E+02  -5.54090080E+01  -6.23228874E+01   2.23375443E+02  -1.44402227E+01   2.19755371E+02  -6.23133087E+01   1.61042984E+02  -5.54090080E+01  -1.46257734E+00
             2128                4   2.19999985E+02   1.61106873E+02   1.61106873E+02  -5.89134026E+01  -5.88728104E+01   1.61106873E+02   1.61106873E+02  -5.88728104E+01  -5.89134026E+01   2.20020279E+02  -1.44402208E+01   2.19999985E+02  -5.89015579E+01   1.61095032E+02  -5.88728104E+01   1.61457086E+00
             2129                1   2.08695343E+02   1.85701965E+02   1.85701965E+02  -2.71218243E+01  -1.86041241E+01   1.85701965E+02   1.85701965E+02  -1.86041241E+01  -2.71218243E+01   2.12823792E+02  -4.66586723E+01   2.08303711E+02  -2.69791641E+01   1.85559296E+02  -1.86041241E+01   5.50841284E+00
             2129                2   2.09659714E+02   1.86271667E+02   1.86271667E+02  -2.89407768E+01  -1.73548737E+01   1.86271667E+02   1.86271667E+02  -1.73548737E+01  -2.89407768E+01   2.15212448E+02  -4.66586723E+01   2.08937653E+02  -2.89199810E+01   1.86250870E+02  -1.73548737E+01   2.11537337E+00
             2129                3   2.09705673E+02   1.86291153E+02   1.86291153E+02  -2.91493378E+01  -1.71657982E+01   1.86291153E+02   1.86291153E+02  -1.71657982E+01  -2.91493378E+01   2.15440491E+02  -4.66586723E+01   2.08933228E+02  -2.87891426E+01   1.85930954E+02  -1.71657982E+01   8.80179119E+00
             2129                4   2.10481613E+02   1.86716187E+02   1.86716187E+02  -3.08146744E+01  -1.59255066E+01   1.86716187E+02   1.86716187E+02  -1.59255066E+01  -3.08146744E+01   2.17530869E+02  -4.66586723E+01   2.09291870E+02  -3.06793365E+01   1.86580856E+02  -1.59255066E+01   5.42417431E+00
             2130                1   2.20000000E+02   2.07033051E+02   2.07033051E+02  -1.94046783E+01  -5.90776825E+00   2.07033051E+02   2.07033051E+02  -5.90776825E+00  -1.94046783E+01   2.26437729E+02  -6.05735359E+01   2.19065598E+02  -1.83155270E+01   2.05943893E+02  -5.90776825E+00   1.56665192E+01
             2130                2   2.20000000E+02   2.07091827E+02   2.07091827E+02  -1.83972816E+01  -6.97396564E+00   2.07091827E+02   2.07091827E+02  -6.97396564E+00  -1.83972816E+01   2.25489120E+02  -6.05735283E+01   2.19331253E+02  -1.77019596E+01   2.06396515E+02  -6.97396564E+00   1.25021200E+01
             2130                3   2.20000000E+02   2.06932571E+02   2.06932571E+02  -2.08283234E+01  -4.38366079E+00   2.06932571E+02   2.06932571E+02  -4.38366079E+00  -2.08283234E+01   2.27760895E+02  -6.05735283E+01   2.18610809E+02  -1.99965916E+01   2.06100845E+02  -4.38366079E+00   1.37383718E+01
             2130                4   2.20000000E+02   2.07002106E+02   2.07002106E+02  -1.98753452E+01  -5.40615463E+00   2.07002106E+02   2.07002106E+02  -5.40615463E+00  -1.98753452E+01   2.26877441E+02  -6.05735321E+01   2.18925629E+02  -1.93755550E+01   2.06502304E+02  -5.40615463E+00   1.06368456E+01
             2131                1   4.54027138E+01   4.37951965E+01   4.37951965E+01  -8.44487488E-01  -2.33389163E+00   4.37951965E+01   4.37951965E+01  -8.44487488E-01  -2.33389163E+00   4.61290894E+01  -1.35389395E+01   4.53476982E+01   9.72006917E-01   4.19787025E+01  -2.33389163E+00   8.81975746E+00
             2131                2   4.56831703E+01   4.39851456E+01   4.39851456E+01  -1.03443480E+00  -2.33389163E+00   4.39851456E+01   4.39851456E+01  -1.03443480E+00  -2.33389163E+00   4.63190384E+01  -1.35389395E+01   4.56415634E+01   7.48771727E-01   4.22019386E+01  -2.33389163E+00   8.78062534E+00
             2131                3   4.56389618E+01   4.39552307E+01   4.39552307E+01  -1.00452125E+00  -2.33389163E+00   4.39552307E+01   4.39552307E+01  -1.00452125E+00  -2.33389163E+00   4.62891235E+01  -1.35389395E+01   4.55953674E+01   9.09074962E-01   4.20416336E+01  -2.33389163E+00   9.07595921E+00
             2131                4   4.59008255E+01   4.41322556E+01   4.41322556E+01  -1.18154550E+00  -2.33389163E+00   4.41322556E+01   4.41322556E+01  -1.18154550E+00  -2.33389163E+00   4.64661484E+01  -1.35389395E+01   4.58682632E+01   6.98019922E-01   4.22526894E+01  -2.33389163E+00   9.03534889E+00
             2132                1   2.20000000E+02   1.80244766E+02   1.80244766E+02  -4.32327766E+01  -3.61044197E+01   1.80244766E+02   1.80244766E+02  -3.61044197E+01  -4.32327766E+01   2.23477539E+02  -3.36358604E+01   2.19739929E+02  -4.30116997E+01   1.80023697E+02  -3.61044197E+01   7.02536678E+00
             2132                2   2.20000000E+02   1.80123138E+02   1.80123138E+02  -4.58881798E+01  -3.33273659E+01   1.80123138E+02   1.80123138E+02  -3.33273659E+01  -4.58881798E+01   2.26011322E+02  -3.36358643E+01   2.19191055E+02  -4.58367310E+01   1.80071686E+02  -3.33273659E+01   3.40964198E+00
             2132                3   2.20000000E+02   1.80169632E+02   1.80169632E+02  -4.50369186E+01  -3.42251244E+01   1.80169632E+02   1.80169632E+02  -3.42251244E+01  -4.50369186E+01   2.25206558E+02  -3.36358643E+01   2.19401062E+02  -4.43269119E+01   1.79459625E+02  -3.42251244E+01   1.26251869E+01
             2132                4   2.20000000E+02   1.80017105E+02   1.80017105E+02  -4.74751434E+01  -3.16343746E+01   1.80017105E+02   1.80017105E+02  -3.16343746E+01  -4.74751434E+01   2.27492249E+02  -3.36358604E+01   2.18711380E+02  -4.71261787E+01   1.79668137E+02  -3.16343746E+01   8.90313053E+00
             2133                1   2.20000000E+02   2.32252197E+02   2.32252197E+02  -1.16857948E+01   4.88772507E+01   2.32252197E+02   2.32252197E+02   4.88772507E+01  -1.16857948E+01   2.43938004E+02  -8.98145523E+01   1.99916382E+02  -1.16666641E+01   2.32233063E+02   4.88772507E+01   2.16061020E+00
             2133                2   2.20000000E+02   2.31615051E+02   2.31615051E+02  -1.35325327E+01   5.13611298E+01   2.31615051E+02   2.31615051E+02   5.13611298E+01  -1.35325327E+01   2.45147583E+02  -8.98145523E+01   1.96674561E+02  -1.33946095E+01   2.31477127E+02   5.13611298E+01  -5.81318188E+00
             2133                3   2.20000000E+02   2.31506546E+02   2.31506546E+02  -1.38318882E+01   5.17689896E+01   2.31506546E+02   2.31506546E+02   5.17689896E+01  -1.38318882E+01   2.45338425E+02  -8.98145447E+01   1.96115768E+02  -1.35219669E+01   2.31196625E+02   5.17689896E+01   8.71425152E+00
             2133                4   2.20000000E+02   2.30928619E+02   2.30928619E+02  -1.53610706E+01   5.38760948E+01   2.30928619E+02   2.30928619E+02   5.38760948E+01  -1.53610706E+01   2.46289688E+02  -8.98145447E+01   1.93104706E+02  -1.53577795E+01   2.30925323E+02   5.38760948E+01   9.01284516E-01
             2134                1   2.20000000E+02   2.06789383E+02   2.06789383E+02  -2.63792362E+01   2.88782692E+00   2.06789383E+02   2.06789383E+02   2.88782692E+00  -2.63792362E+01   2.33168610E+02  -6.10993233E+01   2.15554962E+02  -2.58638706E+01   2.06274017E+02   2.88782692E+00   1.09498959E+01
             2134                2   2.20000000E+02   2.06959854E+02   2.06959854E+02  -2.51298790E+01   1.46799016E+00   2.06959854E+02   2.06959854E+02   1.46799016E+00  -2.51298790E+01   2.32089737E+02  -6.10993195E+01   2.16338333E+02  -2.43216095E+01   2.06151581E+02   1.46799016E+00   1.36725197E+01
             2134                3   2.20000000E+02   2.06949509E+02   2.06949509E+02  -2.52096367E+01   1.55810654E+00   2.06949509E+02   2.06949509E+02   1.55810654E+00  -2.52096367E+01   2.32159149E+02  -6.10993233E+01   2.16290833E+02  -2.49130707E+01   2.06652939E+02   1.55810654E+00   8.29232025E+00
             2134                4   2.20000000E+02   2.07116623E+02   2.07116623E+02  -2.38485832E+01   2.99393963E-02   2.07116623E+02   2.07116623E+02   2.99393963E-02  -2.38485832E+01   2.30965210E+02  -6.10993233E+01   2.17055817E+02  -2.33176441E+01   2.06585678E+02   2.99393963E-02   1.10610609E+01
             2135                1   2.08753555E+02   1.79042221E+02   1.79042221E+02  -3.40166550E+01  -2.51216469E+01   1.79042221E+02   1.79042221E+02  -2.51216469E+01  -3.40166550E+01   2.13058884E+02  -3.99679756E+01   2.08326523E+02  -3.40044746E+01   1.79030045E+02  -2.51216469E+01   1.61105621E+00
             2135                2   2.09343170E+02   1.79345856E+02   1.79345856E+02  -3.59293442E+01  -2.35125866E+01   1.79345856E+02   1.79345856E+02  -2.35125866E+01  -3.59293442E+01   2.15275192E+02  -3.99679718E+01   2.08512268E+02  -3.58269463E+01   1.79243454E+02  -2.35125866E+01   4.69389105E+00
             2135                3   2.07749451E+02   1.78424286E+02   1.78424286E+02  -3.22596779E+01  -2.62606907E+01   1.78424286E+02   1.78424286E+02  -2.62606907E+01  -3.22596779E+01   2.10683975E+02  -3.99679756E+01   2.07554428E+02  -3.21319160E+01   1.78296524E+02  -2.62606907E+01   5.18670654E+00
             2135                4   2.08819168E+02   1.79068146E+02   1.79068146E+02  -3.44302940E+01  -2.47339249E+01   1.79068146E+02   1.79068146E+02  -2.47339249E+01  -3.44302940E+01   2.13498428E+02  -3.99679756E+01   2.08311737E+02  -3.41110878E+01   1.78748932E+02  -2.47339249E+01   8.24917507E+00
             2136                1   6.24560776E+01   5.93949471E+01   5.93949471E+01  -2.90875387E+00  -3.21239901E+00   5.93949471E+01   5.93949471E+01  -2.90875387E+00  -3.21239901E+00   6.26073494E+01  -1.77579327E+01   6.24544182E+01  -2.51108503E+00   5.89972801E+01  -3.21239901E+00   4.96166086E+00
             2136                2   6.26282234E+01   5.95099411E+01   5.95099411E+01  -3.02374554E+00  -3.21239901E+00   5.95099411E+01   5.95099411E+01  -3.02374554E+00  -3.21239901E+00   6.27223396E+01  -1.77579327E+01   6.26275864E+01  -2.65705013E+00   5.91432457E+01  -3.21239901E+00   4.77454662E+00
             2136                3   6.27679176E+01   5.96031761E+01   5.96031761E+01  -3.11698055E+00  -3.21239901E+00   5.96031761E+01   5.96031761E+01  -3.11698055E+00  -3.21239901E+00   6.28155746E+01  -1.77579327E+01   6.27677574E+01  -2.69815278E+00   5.91843491E+01  -3.21239901E+00   5.10817146E+00
             2136                4   6.29390182E+01   5.97172775E+01   5.97172775E+01  -3.23107934E+00  -3.21239901E+00   5.97172775E+01   5.97172775E+01  -3.21239901E+00  -3.23107934E+00   6.29483566E+01  -1.77579327E+01   6.29390106E+01  -2.84399915E+00   5.93301964E+01  -3.21239901E+00   4.92100668E+00
             2137                1   2.20000000E+02   2.03593155E+02   2.03593155E+02  -3.19976292E+01   3.50112343E+00   2.03593155E+02   2.03593155E+02   3.50112343E+00  -3.19976292E+01   2.35590775E+02  -5.83655510E+01   2.13413422E+02  -3.17946968E+01   2.03390213E+02   3.50112343E+00   6.91150427E+00
             2137                2   2.20000000E+02   2.03261444E+02   2.03261444E+02  -3.37602386E+01   5.59542751E+00   2.03261444E+02   2.03261444E+02   5.59542751E+00  -3.37602386E+01   2.37021683E+02  -5.83655434E+01   2.11861984E+02  -3.37482262E+01   2.03249435E+02   5.59542751E+00   1.68692613E+00
             2137                3   2.20000000E+02   2.03183334E+02   2.03183334E+02  -3.41477890E+01   6.06109571E+00   2.03183334E+02   2.03183334E+02   6.06109571E+00  -3.41477890E+01   2.37331131E+02  -5.83655510E+01   2.11494736E+02  -3.36268349E+01   2.02662384E+02   6.06109571E+00   1.11071024E+01
             2137                4   2.20000015E+02   2.02849854E+02   2.02849854E+02  -3.57066040E+01   7.95340347E+00   2.02849854E+02   2.02849854E+02   7.95340347E+00  -3.57066040E+01   2.38556458E+02  -5.83655510E+01   2.09918274E+02  -3.55597572E+01   2.02703003E+02   7.95340347E+00   5.91696310E+00
             2138                1   8.28019867E+01   7.66360931E+01   7.66360931E+01  -6.04925156E+00  -6.28205109E+00   7.66360931E+01   7.66360931E+01  -6.04925156E+00  -6.28205109E+00   8.29181442E+01  -2.14349289E+01   8.28012543E+01  -3.71719122E+00   7.43040314E+01  -6.28205109E+00   1.36889925E+01
             2138                2   8.21822739E+01   7.62218323E+01   7.62218323E+01  -5.63499784E+00  -6.28205109E+00   7.62218323E+01   7.62218323E+01  -5.63499784E+00  -6.28205109E+00   8.25038834E+01  -2.14349289E+01   8.21765366E+01  -3.24591208E+00   7.38327484E+01  -6.28205109E+00   1.37788019E+01
             2138                3   8.24560242E+01   7.64049606E+01   7.64049606E+01  -5.81812286E+00  -6.28205109E+00   7.64049606E+01   7.64049606E+01  -5.81812286E+00  -6.28205109E+00   8.26870117E+01  -2.14349289E+01   8.24530945E+01  -3.63692951E+00   7.42237701E+01  -6.28205109E+00   1.32131224E+01
             2138                4   8.18326111E+01   7.59876328E+01   7.59876328E+01  -5.40079355E+00  -6.28205109E+00   7.59876328E+01   7.59876328E+01  -5.40079355E+00  -6.28205109E+00   8.22696838E+01  -2.14349289E+01   8.18219376E+01  -3.16554427E+00   7.37523804E+01  -6.28205109E+00   1.33013983E+01
             2139                1   2.20000000E+02   2.44248901E+02   2.44248901E+02  -2.47299147E+00   6.84834442E+01   2.44248901E+02   2.44248901E+02   6.84834442E+01  -2.47299147E+00   2.46721893E+02  -1.03419777E+02   1.91597595E+02  -2.38947630E+00   2.44165390E+02   6.84834442E+01  -4.53838730E+00
             2139                2   2.20000000E+02   2.43677505E+02   2.43677505E+02  -3.84611917E+00   7.04279633E+01   2.43677505E+02   2.43677505E+02   7.04279633E+01  -3.84611917E+00   2.47523636E+02  -1.03419777E+02   1.88528152E+02  -3.83792520E+00   2.43669312E+02   7.04279633E+01   1.42448282E+00
             2139                3   2.20000000E+02   2.44788132E+02   2.44788132E+02  -1.09595263E+00   6.65671768E+01   2.44788132E+02   2.44788132E+02   6.65671768E+01  -1.09595263E+00   2.45884094E+02  -1.03419792E+02   1.94436859E+02  -1.06848752E+00   2.44760666E+02   6.65671768E+01   2.59883785E+00
             2139                4   2.20000000E+02   2.44162415E+02   2.44162415E+02  -2.68620825E+00   6.87831421E+01   2.44162415E+02   2.44162415E+02   6.87831421E+01  -2.68620825E+00   2.46848633E+02  -1.03419777E+02   1.91137161E+02  -2.39620280E+00   2.43872421E+02   6.87831421E+01   8.45586395E+00
             2140                1   2.20000000E+02   2.00683716E+02   2.00683716E+02  -3.91965866E+01   8.33443356E+00   2.00683716E+02   2.00683716E+02   8.33443356E+00  -3.91965866E+01   2.39880295E+02  -5.66071815E+01   2.07971527E+02  -3.91851730E+01   2.00672287E+02   8.33443356E+00   1.65523291E+00
             2140                2   2.20000000E+02   2.01093048E+02   2.01093048E+02  -3.74579887E+01   6.18649101E+00   2.01093048E+02   2.01093048E+02   6.18649101E+00  -3.74579887E+01   2.38551041E+02  -5.66071815E+01   2.09925690E+02  -3.72346039E+01   2.00869659E+02   6.18649101E+00   7.29649639E+00
             2140                3   2.19999985E+02   2.01173111E+02   2.01173111E+02  -3.70966110E+01   5.74505234E+00   2.01173111E+02   2.01173111E+02   5.74505234E+00  -3.70966110E+01   2.38269714E+02  -5.66071815E+01   2.10305420E+02  -3.70545540E+01   2.01131042E+02   5.74505234E+00  -3.16551566E+00
             2140                4   2.20000000E+02   2.01609772E+02   2.01609772E+02  -3.49734268E+01   3.18520331E+00   2.01609772E+02   2.01609772E+02   3.18520331E+00  -3.49734268E+01   2.36583191E+02  -5.66071777E+01   2.12362427E+02  -3.49369049E+01   2.01573242E+02   3.18520331E+00   2.93929005E+00
             2141                1   2.17005478E+02   1.47799713E+02   1.47799713E+02  -7.08553238E+01  -6.75177002E+01   1.47799713E+02   1.47799713E+02  -6.75177002E+01  -7.08553238E+01   2.18655045E+02  -3.14223218E+00   2.16947723E+02  -7.08512573E+01   1.47795654E+02  -6.75177002E+01   9.42871392E-01
             2141                2   2.16461609E+02   1.47439377E+02   1.47439377E+02  -6.74926147E+01  -7.05200653E+01   1.47439377E+02   1.47439377E+02  -6.74926147E+01  -7.05200653E+01   2.17959442E+02  -3.14223480E+00   2.16413971E+02  -6.74756699E+01   1.47422440E+02  -7.05200653E+01   1.90845871E+00
             2141                3   2.17056381E+02   1.47838837E+02   1.47838837E+02  -7.04945145E+01  -6.79176254E+01   1.47838837E+02   1.47838837E+02  -6.79176254E+01  -7.04945145E+01   2.18333359E+02  -3.14223480E+00   2.17021973E+02  -7.03640289E+01   1.47708359E+02  -6.79176254E+01  -5.33593655E+00
             2141                4   2.16510025E+02   1.47464859E+02   1.47464859E+02  -6.70791168E+01  -7.09590530E+01   1.47464859E+02   1.47464859E+02  -6.70791168E+01  -7.09590530E+01   2.18423920E+02  -3.14223218E+00   2.16431778E+02  -6.69829330E+01   1.47368683E+02  -7.09590530E+01  -4.54148149E+00
             2142                1   5.22210121E+01   4.62666626E+01   4.62666626E+01  -4.23996067E+00  -7.51461315E+00   4.62666626E+01   4.62666626E+01  -4.23996067E+00  -7.51461315E+00   5.37812767E+01  -1.15040293E+01   5.19892578E+01  -1.03052068E+00   4.30572243E+01  -7.51461315E+00   1.23206100E+01
             2142                2   5.16148071E+01   4.58477592E+01   4.58477592E+01  -3.82105708E+00  -7.51461315E+00   4.58477592E+01   4.58477592E+01  -3.82105708E+00  -7.51461315E+00   5.33623734E+01  -1.15040293E+01   5.13162117E+01  -5.37307918E-01   4.25640106E+01  -7.51461315E+00   1.23416748E+01
             2142                3   5.18789597E+01   4.60305557E+01   4.60305557E+01  -4.00385380E+00  -7.51461315E+00   4.60305557E+01   4.60305557E+01  -4.00385380E+00  -7.51461315E+00   5.35451698E+01  -1.15040293E+01   5.16106796E+01  -1.03635049E+00   4.30630531E+01  -7.51461315E+00   1.18182573E+01
             2142                4   5.12618370E+01   4.56028557E+01   4.56028557E+01  -3.57615352E+00  -7.51461315E+00   4.56028557E+01   4.56028557E+01  -3.57615352E+00  -7.51461315E+00   5.31174698E+01  -1.15040293E+01   5.09197731E+01  -5.46609461E-01   4.25733109E+01  -7.51461315E+00   1.18242083E+01
             2143                1   4.91893539E+01   4.36543846E+01   4.36543846E+01  -3.66627336E+00  -7.21181059E+00   4.36543846E+01   4.36543846E+01  -3.66627336E+00  -7.21181059E+00   5.08661919E+01  -1.09254332E+01   4.89006271E+01  -7.54080236E-01   4.07421913E+01  -7.21181059E+00   1.13721571E+01
             2143                2   4.86014633E+01   4.32458878E+01   4.32458878E+01  -3.25777721E+00  -7.21181059E+00   4.32458878E+01   4.32458878E+01  -3.25777721E+00  -7.21181059E+00   5.04576988E+01  -1.09254332E+01   4.82375984E+01  -2.92556852E-01   4.02806664E+01  -7.21181059E+00   1.13622656E+01
             2143                3   4.89047089E+01   4.34568748E+01   4.34568748E+01  -3.46876001E+00  -7.21181059E+00   4.34568748E+01   4.34568748E+01  -3.46876001E+00  -7.21181059E+00   5.06686859E+01  -1.09254341E+01   4.85808640E+01  -7.74804115E-01   4.07629166E+01  -7.21181059E+00   1.09159622E+01
             2143                4   4.83120079E+01   4.30439339E+01   4.30439339E+01  -3.05582595E+00  -7.21181059E+00   4.30439339E+01   4.30439339E+01  -3.05582595E+00  -7.21181059E+00   5.02557449E+01  -1.09254332E+01   4.79073563E+01  -3.13773721E-01   4.03018837E+01  -7.21181059E+00   1.09036274E+01
             2144                1   2.19556183E+02   1.54826630E+02   1.54826630E+02  -6.93598938E+01  -5.97859764E+01   1.54826630E+02   1.54826630E+02  -5.97859764E+01  -6.93598938E+01   2.24186523E+02  -8.56025314E+00   2.19085785E+02  -6.93285522E+01   1.54795288E+02  -5.97859764E+01   2.65059280E+00
             2144                2   2.19142166E+02   1.54644135E+02   1.54644135E+02  -6.60266190E+01  -6.29367599E+01   1.54644135E+02   1.54644135E+02  -6.29367599E+01  -6.60266190E+01   2.20670746E+02  -8.56025219E+00   2.19093140E+02  -6.58610764E+01   1.54478592E+02  -6.29367599E+01   6.04177523E+00
             2144                3   2.19567276E+02   1.54889496E+02   1.54889496E+02  -6.78823166E+01  -6.13264313E+01   1.54889496E+02   1.54889496E+02  -6.13264313E+01  -6.78823166E+01   2.22771805E+02  -8.56024933E+00   2.19346909E+02  -6.78101120E+01   1.54817291E+02  -6.13264313E+01  -4.00978613E+00
             2144                4   2.19142944E+02   1.54655426E+02   1.54655426E+02  -6.43293839E+01  -6.46452942E+01   1.54655426E+02   1.54655426E+02  -6.43293839E+01  -6.46452942E+01   2.19300720E+02  -8.56025219E+00   2.19142426E+02  -6.43266296E+01   1.54652679E+02  -6.46452942E+01  -7.76185215E-01
             2145                1   2.20000000E+02   2.08915176E+02   2.08915176E+02  -1.64116039E+01  -5.33996677E+00   2.08915176E+02   2.08915176E+02  -5.33996677E+00  -1.64116039E+01   2.25326782E+02  -6.23878670E+01   2.19371872E+02  -1.53234844E+01   2.07827057E+02  -5.33996677E+00   1.56204367E+01
             2145                2   2.20000000E+02   2.08953201E+02   2.08953201E+02  -1.56155548E+01  -6.17404318E+00   2.08953201E+02   2.08953201E+02  -6.17404318E+00  -1.56155548E+01   2.24568756E+02  -6.23878670E+01   2.19543472E+02  -1.48951120E+01   2.08232758E+02  -6.17404318E+00   1.26992130E+01
             2145                3   2.20000000E+02   2.08833420E+02   2.08833420E+02  -1.78068123E+01  -3.86300826E+00   2.08833420E+02   2.08833420E+02  -3.86300826E+00  -1.78068123E+01   2.26640244E+02  -6.23878670E+01   2.19002487E+02  -1.69159107E+01   2.07942520E+02  -3.86300826E+00   1.41817112E+01
             2145                4   2.20000000E+02   2.08878830E+02   2.08878830E+02  -1.70729561E+01  -4.64227772E+00   2.08878830E+02   2.08878830E+02  -4.64227772E+00  -1.70729561E+01   2.25951782E+02  -6.23878670E+01   2.19207764E+02  -1.65068512E+01   2.08312729E+02  -4.64227772E+00   1.12956514E+01
             2146                1   2.19382935E+02   1.50801605E+02   1.50801605E+02  -7.14188309E+01  -6.56292038E+01   1.50801605E+02   1.50801605E+02  -6.56292038E+01  -7.14188309E+01   2.22220444E+02  -4.58452606E+00   2.19210953E+02  -7.13928833E+01   1.50775665E+02  -6.56292038E+01   2.40110302E+00
             2146                2   2.19058456E+02   1.50622894E+02   1.50622894E+02  -6.80691376E+01  -6.88001709E+01   1.50622894E+02   1.50622894E+02  -6.80691376E+01  -6.88001709E+01   2.19423065E+02  -4.58452606E+00   2.19055710E+02  -6.79742050E+01   1.50527954E+02  -6.88001709E+01   4.55539703E+00
             2146                3   2.19333939E+02   1.50789902E+02   1.50789902E+02  -7.04636765E+01  -6.65726395E+01   1.50789902E+02   1.50789902E+02  -6.65726395E+01  -7.04636765E+01   2.21253571E+02  -4.58452606E+00   2.19256271E+02  -7.03864746E+01   1.50712692E+02  -6.65726395E+01  -4.13225317E+00
             2146                4   2.19001648E+02   1.50576248E+02   1.50576248E+02  -6.69783401E+01  -6.98443298E+01   1.50576248E+02   1.50576248E+02  -6.69783401E+01  -6.98443298E+01   2.20420578E+02  -4.58452606E+00   2.18959442E+02  -6.69568710E+01   1.50554779E+02  -6.98443298E+01  -2.16082335E+00
             2147                1   2.20000000E+02   2.06657623E+02   2.06657623E+02  -1.74173031E+01  -9.02739811E+00   2.06657623E+02   2.06657623E+02  -9.02739811E+00  -1.74173031E+01   2.24074936E+02  -6.00709724E+01   2.19639618E+02  -1.63434639E+01   2.05583786E+02  -9.02739811E+00   1.54747639E+01
             2147                2   2.20000000E+02   2.06689285E+02   2.06689285E+02  -1.64994411E+01  -9.97692490E+00   2.06689285E+02   2.06689285E+02  -9.97692490E+00  -1.64994411E+01   2.23188736E+02  -6.00709724E+01   2.19782303E+02  -1.58452291E+01   2.06035080E+02  -9.97692490E+00   1.20658445E+01
             2147                3   2.20000000E+02   2.06582611E+02   2.06582611E+02  -1.90232716E+01  -7.34642744E+00   2.06582611E+02   2.06582611E+02  -7.34642744E+00  -1.90232716E+01   2.25605881E+02  -6.00709724E+01   2.19301147E+02  -1.81957798E+01   2.05755127E+02  -7.34642744E+00   1.36382198E+01
             2147                4   2.20000000E+02   2.06625061E+02   2.06625061E+02  -1.81817226E+01  -8.23042393E+00   2.06625061E+02   2.06625061E+02  -8.23042393E+00  -1.81817226E+01   2.24806793E+02  -6.00709724E+01   2.19492767E+02  -1.77106438E+01   2.06153992E+02  -8.23042393E+00   1.02800283E+01
             2148                1   2.15192734E+02   2.06491882E+02   2.06491882E+02  -1.76864777E+01   1.58050108E+00   2.06491882E+02   2.06491882E+02   1.58050108E+00  -1.76864777E+01   2.24178360E+02  -6.34619713E+01   2.13239258E+02  -1.74883099E+01   2.06293716E+02   1.58050108E+00   6.66223240E+00
             2148                2   2.15244705E+02   2.06324829E+02   2.06324829E+02  -1.96347389E+01   3.69581509E+00   2.06324829E+02   2.06324829E+02   3.69581509E+00  -1.96347389E+01   2.25959579E+02  -6.34619713E+01   2.12372070E+02  -1.96074543E+01   2.06297546E+02   3.69581509E+00  -2.48292899E+00
             2148                3   2.15896149E+02   2.06677765E+02   2.06677765E+02  -2.05545731E+01   4.26271677E+00   2.06677765E+02   2.06677765E+02   4.26271677E+00  -2.05545731E+01   2.27232346E+02  -6.34619713E+01   2.12651566E+02  -1.97765541E+01   2.05899750E+02   4.26271677E+00   1.32735233E+01
             2148                4   2.15866974E+02   2.06448563E+02   2.06448563E+02  -2.21372108E+01   6.07455730E+00   2.06448563E+02   2.06448563E+02   6.07455730E+00  -2.21372108E+01   2.28585785E+02  -6.34619713E+01   2.11659836E+02  -2.20593586E+01   2.06370712E+02   6.07455730E+00   4.21786118E+00
             2149                1   2.20000000E+02   1.60878906E+02   1.60878906E+02  -6.60506668E+01  -5.14657211E+01   1.60878906E+02   1.60878906E+02  -5.14657211E+01  -6.60506668E+01   2.26929581E+02  -1.44541731E+01   2.18908310E+02  -6.60161819E+01   1.60844421E+02  -5.14657211E+01   2.79738808E+00
             2149                2   2.20000000E+02   1.61044800E+02   1.61044800E+02  -6.29307938E+01  -5.47514763E+01   1.61044800E+02   1.61044800E+02  -5.47514763E+01  -6.29307938E+01   2.23975601E+02  -1.44541769E+01   2.19657516E+02  -6.26857376E+01   1.60799744E+02  -5.47514763E+01   7.40455770E+00
             2149                3   2.20000000E+02   1.60994385E+02   1.60994385E+02  -6.40894928E+01  -5.35423546E+01   1.60994385E+02   1.60994385E+02  -5.35423546E+01  -6.40894928E+01   2.25083878E+02  -1.44541769E+01   2.19430084E+02  -6.40177383E+01   1.60922623E+02  -5.35423546E+01  -4.01812363E+00
             2149                4   2.19656189E+02   1.60876938E+02   1.60876938E+02  -6.05541153E+01  -5.69602966E+01   1.60876938E+02   1.60876938E+02  -5.69602966E+01  -6.05541153E+01   2.21431046E+02  -1.44541750E+01   2.19590027E+02  -6.05531998E+01   1.60876022E+02  -5.69602966E+01   4.48938280E-01
             2150                1   5.48446732E+01   5.28537331E+01   5.28537331E+01  -1.77356744E+00  -2.20575881E+00   5.28537331E+01   5.28537331E+01  -1.77356744E+00  -2.20575881E+00   5.50594902E+01  -1.62914696E+01   5.48408394E+01  -5.71302116E-01   5.16514664E+01  -2.20575881E+00   8.01443386E+00
             2150                2   5.45221214E+01   5.26376228E+01   5.26376228E+01  -1.55745935E+00  -2.20575881E+00   5.26376228E+01   5.26376228E+01  -1.55745935E+00  -2.20575881E+00   5.48433800E+01  -1.62914677E+01   5.45134468E+01  -4.12021190E-01   5.14921837E+01  -2.20575881E+00   7.79519463E+00
             2150                3   5.50889969E+01   5.30171394E+01   5.30171394E+01  -1.93697596E+00  -2.20575881E+00   5.30171394E+01   5.30171394E+01  -1.93697596E+00  -2.20575881E+00   5.52228966E+01  -1.62914677E+01   5.50875206E+01  -7.90531576E-01   5.18706932E+01  -2.20575881E+00   7.85414028E+00
             2150                4   5.47688217E+01   5.28029518E+01   5.28029518E+01  -1.72278917E+00  -2.20575881E+00   5.28029518E+01   5.28029518E+01  -1.72278917E+00  -2.20575881E+00   5.50087090E+01  -1.62914677E+01   5.47640305E+01  -6.31747067E-01   5.17119102E+01  -2.20575881E+00   7.63540745E+00
             2151                1   1.94817734E+02   1.73773041E+02   1.73773041E+02  -2.17930508E+01  -2.02875957E+01   1.73773041E+02   1.73773041E+02  -2.02875957E+01  -2.17930508E+01   1.95566101E+02  -4.38974648E+01   1.94804642E+02  -2.17824383E+01   1.73762436E+02  -2.02875957E+01   1.44045961E+00
             2151                2   1.94542450E+02   1.73591248E+02   1.73591248E+02  -2.14303455E+01  -2.04684925E+01   1.73591248E+02   1.73591248E+02  -2.04684925E+01  -2.14303455E+01   1.95021591E+02  -4.38974724E+01   1.94537094E+02  -2.13852425E+01   1.73546143E+02  -2.04684925E+01   2.96562481E+00
             2151                3   1.94431198E+02   1.73518265E+02   1.73518265E+02  -2.08985939E+01  -2.09272728E+01   1.73518265E+02   1.73518265E+02  -2.08985939E+01  -2.09272728E+01   1.94445541E+02  -4.38974648E+01   1.94431198E+02  -2.08948383E+01   1.73514511E+02  -2.09272728E+01   8.54735553E-01
             2151                4   1.94150635E+02   1.73330780E+02   1.73330780E+02  -2.05266190E+01  -2.11117611E+01   1.73330780E+02   1.73330780E+02  -2.05266190E+01  -2.11117611E+01   1.94442551E+02  -4.38974724E+01   1.94148651E+02  -2.04972420E+01   1.73301407E+02  -2.11117611E+01   2.38635731E+00
             2152                1   2.14030579E+02   2.06524414E+02   2.06524414E+02  -1.55929222E+01   1.62010396E+00   2.06524414E+02   2.06524414E+02   1.62010396E+00  -1.55929222E+01   2.22117325E+02  -6.41838608E+01   2.12464935E+02  -1.54181967E+01   2.06349686E+02   1.62010396E+00   6.22725964E+00
             2152                2   2.14387268E+02   2.06588013E+02   2.06588013E+02  -1.75740700E+01   3.53764129E+00   2.06588013E+02   2.06588013E+02   3.53764129E+00  -1.75740700E+01   2.24162094E+02  -6.41838608E+01   2.12029694E+02  -1.75668430E+01   2.06580795E+02   3.53764129E+00  -1.27227831E+00
             2152                3   2.15093872E+02   2.06963516E+02   2.06963516E+02  -1.87068081E+01   4.29487991E+00   2.06963516E+02   2.06963516E+02   4.29487991E+00  -1.87068081E+01   2.25670334E+02  -6.41838608E+01   2.12300446E+02  -1.79252129E+01   2.06181931E+02   4.29487991E+00   1.32578688E+01
             2152                4   2.15301407E+02   2.06922867E+02   2.06922867E+02  -2.02526741E+01   5.88138676E+00   2.06922867E+02   2.06922867E+02   5.88138676E+00  -2.02526741E+01   2.27175537E+02  -6.41838608E+01   2.11688828E+02  -2.01147766E+01   2.06784973E+02   5.88138676E+00   5.59533978E+00
             2153                1   4.76740723E+01   4.29736824E+01   4.29736824E+01  -3.06676292E+00  -6.18129635E+00   4.29736824E+01   4.29736824E+01  -3.06676292E+00  -6.18129635E+00   4.91549759E+01  -1.12418737E+01   4.74443665E+01  -6.06015801E-01   4.05129318E+01  -6.18129635E+00   1.03556108E+01
             2153                2   4.71589622E+01   4.26172485E+01   4.26172485E+01  -2.71033120E+00  -6.18129635E+00   4.26172485E+01   4.26172485E+01  -2.71033120E+00  -6.18129635E+00   4.87985458E+01  -1.12418737E+01   4.68702850E+01  -2.04853877E-01   4.01117706E+01  -6.18129635E+00   1.03580809E+01
             2153                3   4.74322090E+01   4.28065338E+01   4.28065338E+01  -2.89961481E+00  -6.18129635E+00   4.28065338E+01   4.28065338E+01  -2.89961481E+00  -6.18129635E+00   4.89878273E+01  -1.12418737E+01   4.71757774E+01  -6.13767385E-01   4.05206833E+01  -6.18129635E+00   9.96254253E+00
             2153                4   4.69135399E+01   4.24468269E+01   4.24468269E+01  -2.53990817E+00  -6.18129635E+00   4.24468269E+01   4.24468269E+01  -2.53990817E+00  -6.18129635E+00   4.86281204E+01  -1.12418737E+01   4.65939941E+01  -2.12052658E-01   4.01189690E+01  -6.18129635E+00   9.96512699E+00
             2154                1   2.19360672E+02   1.67251266E+02   1.67251266E+02  -5.60808029E+01  -4.79096718E+01   1.67251266E+02   1.67251266E+02  -4.79096718E+01  -5.60808029E+01   2.23332077E+02  -2.10869331E+01   2.19017883E+02  -5.60802422E+01   1.67250717E+02  -4.79096718E+01   3.52468044E-01
             2154                2   2.19720917E+02   1.67316177E+02   1.67316177E+02  -5.94562340E+01  -4.45991364E+01   1.67316177E+02   1.67316177E+02  -4.45991364E+01  -5.94562340E+01   2.26772415E+02  -2.10869350E+01   2.18586487E+02  -5.93474007E+01   1.67207336E+02  -4.45991364E+01  -4.96683550E+00
             2154                3   2.19489975E+02   1.67208542E+02   1.67208542E+02  -5.86800766E+01  -4.52676582E+01   1.67208542E+02   1.67208542E+02  -4.52676582E+01  -5.86800766E+01   2.25888611E+02  -2.10869350E+01   2.18565109E+02  -5.84580002E+01   1.66986465E+02  -4.52676582E+01   7.07924700E+00
             2154                4   2.19831085E+02   1.67207932E+02   1.67207932E+02  -6.17234764E+01  -4.22236519E+01   1.67207932E+02   1.67207932E+02  -4.22236519E+01  -6.17234764E+01   2.28931412E+02  -2.10869331E+01   2.17872574E+02  -6.17111969E+01   1.67195648E+02  -4.22236519E+01   1.67663300E+00
             2155                1   2.20000015E+02   1.71249100E+02   1.71249100E+02  -5.25399437E+01  -4.47552376E+01   1.71249100E+02   1.71249100E+02  -4.47552376E+01  -5.25399437E+01   2.23789032E+02  -2.46513062E+01   2.19689789E+02  -5.23386536E+01   1.71047806E+02  -4.47552376E+01   6.70864058E+00
             2155                2   2.20000000E+02   1.71313477E+02   1.71313477E+02  -4.96750755E+01  -4.76844826E+01   1.71313477E+02   1.71313477E+02  -4.76844826E+01  -4.96750755E+01   2.20988556E+02  -2.46513062E+01   2.19979736E+02  -4.93021851E+01   1.70940582E+02  -4.76844826E+01   9.07003880E+00
             2155                3   2.20000000E+02   1.71281647E+02   1.71281647E+02  -5.14902306E+01  -4.58375168E+01   1.71281647E+02   1.71281647E+02  -4.58375168E+01  -5.14902306E+01   2.22771881E+02  -2.46513004E+01   2.19836502E+02  -5.14871750E+01   1.71278595E+02  -4.58375168E+01   8.24726284E-01
             2155                4   2.20000000E+02   1.71317780E+02   1.71317780E+02  -4.84700394E+01  -4.88938141E+01   1.71317780E+02   1.71317780E+02  -4.84700394E+01  -4.88938141E+01   2.20211594E+02  -2.46513062E+01   2.19999084E+02  -4.84289589E+01   1.71276688E+02  -4.88938141E+01   3.00470662E+00
             2156                1   2.20000000E+02   2.44413544E+02   2.44413544E+02  -1.09574449E+00   6.51443481E+01   2.44413544E+02   2.44413544E+02   6.51443481E+01  -1.09574449E+00   2.45509277E+02  -1.02820717E+02   1.95603256E+02  -1.06156969E+00   2.44379364E+02   6.51443481E+01   2.89640617E+00
             2156                2   2.20000000E+02   2.43906296E+02   2.43906296E+02  -2.42764425E+00   6.69834824E+01   2.43906296E+02   2.43906296E+02   6.69834824E+01  -2.42764425E+00   2.46333939E+02  -1.02820709E+02   1.92954727E+02  -2.36294103E+00   2.43841599E+02   6.69834824E+01  -3.99165297E+00
             2156                3   2.20000000E+02   2.43820450E+02   2.43820450E+02  -2.64539313E+00   6.72870789E+01   2.43820450E+02   2.43820450E+02   6.72870789E+01  -2.64539313E+00   2.46465851E+02  -1.02820717E+02   1.92501816E+02  -2.35314798E+00   2.43528214E+02   6.72870789E+01   8.48190212E+00
             2156                4   2.20000000E+02   2.43362411E+02   2.43362411E+02  -3.77311492E+00   6.88728485E+01   2.43362411E+02   2.43362411E+02   6.88728485E+01  -3.77311492E+00   2.47135529E+02  -1.02820717E+02   1.90061646E+02  -3.76142168E+00   2.43350723E+02   6.88728485E+01   1.69938242E+00
             2157                1   2.20000000E+02   2.38756439E+02   2.38756439E+02  -6.24951649E+00   5.81237755E+01   2.38756439E+02   2.38756439E+02   5.81237755E+01  -6.24951649E+00   2.45005966E+02  -9.68768997E+01   1.97080383E+02  -6.21212864E+00   2.38719055E+02   5.81237755E+01   3.02640581E+00
             2157                2   2.20000000E+02   2.38202637E+02   2.38202637E+02  -7.75080776E+00   6.01788673E+01   2.38202637E+02   2.38202637E+02   6.01788673E+01  -7.75080776E+00   2.45953445E+02  -9.68768997E+01   1.94214417E+02  -7.67466593E+00   2.38126495E+02   6.01788673E+01  -4.32680178E+00
             2157                3   2.20000000E+02   2.38102966E+02   2.38102966E+02  -8.01047230E+00   6.05382004E+01   2.38102966E+02   2.38102966E+02   6.05382004E+01  -8.01047230E+00   2.46113449E+02  -9.68768997E+01   1.93692902E+02  -7.68397951E+00   2.37776474E+02   6.05382004E+01   8.95816231E+00
             2157                4   2.20000000E+02   2.37602493E+02   2.37602493E+02  -9.27089691E+00   6.22991104E+01   2.37602493E+02   2.37602493E+02   6.22991104E+01  -9.27089691E+00   2.46873383E+02  -9.68768997E+01   1.91046173E+02  -9.25889206E+00   2.37590485E+02   6.22991104E+01   1.72122610E+00
             2158                1   2.20000000E+02   2.29351959E+02   2.29351959E+02  -8.39119530E+00   3.29649239E+01   2.29351959E+02   2.29351959E+02   3.29649239E+01  -8.39119530E+00   2.37743164E+02  -8.46418991E+01   2.10987000E+02  -8.14834118E+00   2.29109116E+02   3.29649239E+01   7.59451962E+00
             2158                2   2.20000000E+02   2.29098389E+02   2.29098389E+02  -9.55395031E+00   3.43812485E+01   2.29098389E+02   2.29098389E+02   3.43812485E+01  -9.55395031E+00   2.38652328E+02  -8.46418991E+01   2.09786179E+02  -9.51267338E+00   2.29057114E+02   3.43812485E+01   3.13807869E+00
             2158                3   2.20000000E+02   2.29043518E+02   2.29043518E+02  -9.79548073E+00   3.46776619E+01   2.29043518E+02   2.29043518E+02   3.46776619E+01  -9.79548073E+00   2.38838989E+02  -8.46418991E+01   2.09525238E+02  -9.28749943E+00   2.28535538E+02   3.46776619E+01   1.10030031E+01
             2158                4   2.20000000E+02   2.28796356E+02   2.28796356E+02  -1.08437176E+01   3.59730453E+01   2.28796356E+02   2.28796356E+02   3.59730453E+01  -1.08437176E+01   2.39640076E+02  -8.46418991E+01   2.08345261E+02  -1.06625299E+01   2.28615173E+02   3.59730453E+01   6.58675861E+00
             2159                1   2.20000000E+02   1.83728821E+02   1.83728821E+02  -4.26563568E+01  -2.92751522E+01   1.83728821E+02   1.83728821E+02  -2.92751522E+01  -4.26563568E+01   2.26385178E+02  -3.72657700E+01   2.19081604E+02  -4.24044838E+01   1.83476944E+02  -2.92751522E+01   7.54703856E+00
             2159                2   2.19999985E+02   1.83536926E+02   1.83536926E+02  -4.51913948E+01  -2.65482388E+01   1.83536926E+02   1.83536926E+02  -2.65482388E+01  -4.51913948E+01   2.28728333E+02  -3.72657661E+01   2.18212173E+02  -4.51540489E+01   1.83499588E+02  -2.65482388E+01   2.92235923E+00
             2159                3   2.20000000E+02   1.83570511E+02   1.83570511E+02  -4.48043404E+01  -2.69688683E+01   1.83570511E+02   1.83570511E+02  -2.69688683E+01  -4.48043404E+01   2.28374847E+02  -3.72657661E+01   2.18364563E+02  -4.40469017E+01   1.82813080E+02  -2.69688683E+01   1.31303072E+01
             2159                4   2.20000000E+02   1.83350327E+02   1.83350327E+02  -4.70818062E+01  -2.44712048E+01   1.83350327E+02   1.83350327E+02  -2.44712048E+01  -4.70818062E+01   2.30432144E+02  -3.72657738E+01   2.17362869E+02  -4.67718124E+01   1.83040329E+02  -2.44712048E+01   8.44620323E+00
             2160                1   2.19000458E+02   1.48373611E+02   1.48373611E+02  -7.23490067E+01  -6.88630447E+01   1.48373611E+02   1.48373611E+02  -6.88630447E+01  -7.23490067E+01   2.20722626E+02  -2.38718915E+00   2.18938019E+02  -7.23417053E+01   1.48366318E+02  -6.88630447E+01   1.26925802E+00
             2160                2   2.18585129E+02   1.48098785E+02   1.48098785E+02  -6.88613205E+01  -7.20758972E+01   1.48098785E+02   1.48098785E+02  -6.88613205E+01  -7.20758972E+01   2.20174683E+02  -2.38719177E+00   2.18531937E+02  -6.88396606E+01   1.48077133E+02  -7.20758972E+01   2.16755509E+00
             2160                3   2.18823486E+02   1.48260574E+02   1.48260574E+02  -7.19470520E+01  -6.91519623E+01   1.48260574E+02   1.48260574E+02  -6.91519623E+01  -7.19470520E+01   2.20207626E+02  -2.38718915E+00   2.18783310E+02  -7.18185349E+01   1.48132065E+02  -6.91519623E+01  -5.31829071E+00
             2160                4   2.18388885E+02   1.47961578E+02   1.47961578E+02  -6.84063950E+01  -7.23936157E+01   1.47961578E+02   1.47961578E+02  -6.84063950E+01  -7.23936157E+01   2.20355194E+02  -2.38718677E+00   2.18306961E+02  -6.83078003E+01   1.47862976E+02  -7.23936157E+01  -4.61775208E+00
             2161                1   2.20000000E+02   2.18154373E+02   2.18154373E+02  -2.06279202E+01   2.36815014E+01   2.18154373E+02   2.18154373E+02   2.36815014E+01  -2.06279202E+01   2.38782303E+02  -7.37359848E+01   2.09605042E+02  -2.04100266E+01   2.17936493E+02   2.36815014E+01   7.20969439E+00
             2161                2   2.20000000E+02   2.17908630E+02   2.17908630E+02  -2.16745338E+01   2.49738579E+01   2.17908630E+02   2.17908630E+02   2.49738579E+01  -2.16745338E+01   2.39583160E+02  -7.37359848E+01   2.08432373E+02  -2.16233692E+01   2.17857468E+02   2.49738579E+01   3.50082946E+00
             2161                3   2.20000000E+02   2.17797424E+02   2.17797424E+02  -2.21287537E+01   2.55392990E+01   2.17797424E+02   2.17797424E+02   2.55392990E+01  -2.21287537E+01   2.39926178E+02  -7.37359924E+01   2.07899063E+02  -2.17489967E+01   2.17417664E+02   2.55392990E+01   9.53783131E+00
             2161                4   2.20000000E+02   2.17567505E+02   2.17567505E+02  -2.30334034E+01   2.66738548E+01   2.17567505E+02   2.17567505E+02   2.66738548E+01  -2.30334034E+01   2.40600906E+02  -7.37359848E+01   2.06791397E+02  -2.28807220E+01   2.17414825E+02   2.66738548E+01   6.05904102E+00
             2162                1   2.08835663E+02   1.84849167E+02   1.84849167E+02  -2.81163921E+01  -1.95957737E+01   1.84849167E+02   1.84849167E+02  -1.95957737E+01  -2.81163921E+01   2.12965561E+02  -4.57123299E+01   2.08444031E+02  -2.79629574E+01   1.84695724E+02  -1.95957737E+01  -5.71436596E+00
             2162                2   2.09753952E+02   1.85361938E+02   1.85361938E+02  -3.03624916E+01  -1.78624573E+01   1.85361938E+02   1.85361938E+02  -1.78624573E+01  -3.03624916E+01   2.15724442E+02  -4.57123299E+01   2.08913483E+02  -2.99775181E+01   1.84976974E+02  -1.78624573E+01  -9.10487843E+00
             2162                3   2.09678787E+02   1.85332932E+02   1.85332932E+02  -2.99826946E+01  -1.82132397E+01   1.85332932E+02   1.85332932E+02  -1.82132397E+01  -2.99826946E+01   2.15315628E+02  -4.57123299E+01   2.08933655E+02  -2.99651508E+01   1.85315384E+02  -1.82132397E+01  -1.94359446E+00
             2162                4   2.10553848E+02   1.85793701E+02   1.85793701E+02  -3.21096916E+01  -1.65470123E+01   1.85793701E+02   1.85793701E+02  -1.65470123E+01  -3.21096916E+01   2.17903381E+02  -4.57123299E+01   2.09253983E+02  -3.19779797E+01   1.85661987E+02  -1.65470123E+01  -5.35562372E+00
             2163                1   2.20000000E+02   1.56266739E+02   1.56266739E+02  -6.86539230E+01  -5.84580536E+01   1.56266739E+02   1.56266739E+02  -5.84580536E+01  -6.86539230E+01   2.24920670E+02  -9.71825695E+00   2.19467468E+02  -6.85966034E+01   1.56209427E+02  -5.84580536E+01   3.59002686E+00
             2163                2   2.20000000E+02   1.56370361E+02   1.56370361E+02  -6.53975830E+01  -6.18180084E+01   1.56370361E+02   1.56370361E+02  -6.18180084E+01  -6.53975830E+01   2.21767944E+02  -9.71825695E+00   2.19934464E+02  -6.51582794E+01   1.56131058E+02  -6.18180084E+01   7.28096104E+00
             2163                3   2.20000000E+02   1.56330872E+02   1.56330872E+02  -6.70363235E+01  -6.01397667E+01   1.56330872E+02   1.56330872E+02  -6.01397667E+01  -6.70363235E+01   2.23367188E+02  -9.71825790E+00   2.19756592E+02  -6.69888458E+01   1.56283386E+02  -6.01397667E+01  -3.25621057E+00
             2163                4   2.20000000E+02   1.56384903E+02   1.56384903E+02  -6.35323906E+01  -6.36977310E+01   1.56384903E+02   1.56384903E+02  -6.35323906E+01  -6.36977310E+01   2.20082626E+02  -9.71825886E+00   2.19999863E+02  -6.35320892E+01   1.56384598E+02  -6.36977310E+01   2.56745160E-01
             2164                1   2.20000000E+02   2.11779144E+02   2.11779144E+02  -1.59557190E+01   4.30314273E-01   2.11779144E+02   2.11779144E+02   4.30314273E-01  -1.59557190E+01   2.27734863E+02  -6.54179153E+01   2.18620728E+02  -1.50716772E+01   2.10895096E+02   4.30314273E-01   1.41614637E+01
             2164                2   2.20000000E+02   2.11860474E+02   2.11860474E+02  -1.48223372E+01  -7.84396946E-01   2.11860474E+02   2.11860474E+02  -7.84396946E-01  -1.48223372E+01   2.26682800E+02  -6.54179153E+01   2.18988922E+02  -1.38212938E+01   2.10859421E+02  -7.84396946E-01   1.50305758E+01
             2164                3   2.20000000E+02   2.11821777E+02   2.11821777E+02  -1.53842230E+01  -1.83829993E-01   2.11821777E+02   2.11821777E+02  -1.83829993E-01  -1.53842230E+01   2.27206009E+02  -6.54179153E+01   2.18813858E+02  -1.47626934E+01   2.11200256E+02  -1.83829993E-01   1.18671169E+01
             2164                4   2.20000000E+02   2.11900009E+02   2.11900009E+02  -1.41932116E+01  -1.45307219E+00   2.11900009E+02   2.11900009E+02  -1.45307219E+00  -1.41932116E+01   2.26093231E+02  -6.54179077E+01   2.19167725E+02  -1.34750528E+01   2.11181854E+02  -1.45307219E+00   1.27222357E+01
             2165                1   2.16700729E+02   1.91082840E+02   1.91082840E+02  -3.41261253E+01  -1.59668417E+01   1.91082840E+02   1.91082840E+02  -1.59668417E+01  -3.41261253E+01   2.25208954E+02  -4.69966240E+01   2.14978897E+02  -3.40814857E+01   1.91038193E+02  -1.59668417E+01   3.17049432E+00
             2165                2   2.17102600E+02   1.91108582E+02   1.91108582E+02  -3.66777496E+01  -1.34409561E+01   1.91108582E+02   1.91108582E+02  -1.34409561E+01  -3.66777496E+01   2.27786331E+02  -4.69966240E+01   2.14278107E+02  -3.66439514E+01   1.91074783E+02  -1.34409561E+01  -2.77443767E+00
             2165                3   2.17282059E+02   1.91216049E+02   1.91216049E+02  -3.68490334E+01  -1.33771496E+01   1.91216049E+02   1.91216049E+02  -1.33771496E+01  -3.68490334E+01   2.28065079E+02  -4.69966240E+01   2.14401993E+02  -3.65076294E+01   1.90874649E+02  -1.33771496E+01   8.81733418E+00
             2165                4   2.17648743E+02   1.91184036E+02   1.91184036E+02  -3.91617928E+01  -1.10323734E+01   1.91184036E+02   1.91184036E+02  -1.10323734E+01  -3.91617928E+01   2.30345825E+02  -4.69966240E+01   2.13501678E+02  -3.91233597E+01   1.91145599E+02  -1.10323734E+01   2.97539473E+00
             2166                1   2.20000000E+02   1.90405212E+02   1.90405212E+02  -3.18509693E+01  -2.72669640E+01   1.90405212E+02   1.90405212E+02  -2.72669640E+01  -3.18509693E+01   2.22256180E+02  -4.37624245E+01   2.19892517E+02  -3.15145149E+01   1.90068756E+02  -2.72669640E+01   8.64098167E+00
             2166                2   2.20000000E+02   1.90330643E+02   1.90330643E+02  -3.41749344E+01  -2.48684311E+01   1.90330643E+02   1.90330643E+02  -2.48684311E+01  -3.41749344E+01   2.24505569E+02  -4.37624207E+01   2.19556473E+02  -3.40039024E+01   1.90159607E+02  -2.48684311E+01   6.19418240E+00
             2166                3   2.20000000E+02   1.90371262E+02   1.90371262E+02  -3.31084671E+01  -2.59755173E+01   1.90371262E+02   1.90371262E+02  -2.59755173E+01  -3.31084671E+01   2.23479736E+02  -4.37624321E+01   2.19739594E+02  -3.22986946E+01   1.89561493E+02  -2.59755173E+01   1.34280539E+01
             2166                4   2.20000000E+02   1.90276077E+02   1.90276077E+02  -3.52948036E+01  -2.36940117E+01   1.90276077E+02   1.90276077E+02  -2.36940117E+01  -3.52948036E+01   2.25570877E+02  -4.37624207E+01   2.19310257E+02  -3.47687340E+01   1.89750015E+02  -2.36940117E+01   1.08806305E+01
             2167                1   2.20000000E+02   1.52003723E+02   1.52003723E+02  -7.09967957E+01  -6.48676834E+01   1.52003723E+02   1.52003723E+02  -6.48676834E+01  -7.09967957E+01   2.23000519E+02  -5.37974787E+00   2.19807785E+02  -7.09540253E+01   1.51960953E+02  -6.48676834E+01   3.08808541E+00
             2167                2   2.20000000E+02   1.52045853E+02   1.52045853E+02  -6.75981827E+01  -6.83084183E+01   1.52045853E+02   1.52045853E+02  -6.75981827E+01  -6.83084183E+01   2.20354263E+02  -5.37974787E+00   2.19997421E+02  -6.74644775E+01   1.51912140E+02  -6.83084183E+01   5.41755056E+00
             2167                3   2.20000000E+02   1.52027573E+02   1.52027573E+02  -6.99797974E+01  -6.59085388E+01   1.52027573E+02   1.52027573E+02  -6.59085388E+01  -6.99797974E+01   2.22007370E+02  -5.37974548E+00   2.19915222E+02  -6.99156342E+01   1.51963409E+02  -6.59085388E+01  -3.77372169E+00
             2167                4   2.20000000E+02   1.52035889E+02   1.52035889E+02  -6.64257584E+01  -6.94708786E+01   1.52035889E+02   1.52035889E+02  -6.64257584E+01  -6.94708786E+01   2.21506760E+02  -5.37974787E+00   2.19952576E+02  -6.64131622E+01   1.52023285E+02  -6.94708786E+01  -1.65882385E+00
             2168                1   7.02911072E+01   6.38300362E+01   6.38300362E+01  -5.46198845E+00  -7.41928101E+00   6.38300362E+01   6.38300362E+01  -5.46198845E+00  -7.41928101E+00   7.12493134E+01  -1.69829216E+01   7.02297592E+01  -2.18853927E+00   6.05565834E+01  -7.41928101E+00   1.47006311E+01
             2168                2   7.10418701E+01   6.43367615E+01   6.43367615E+01  -5.96872139E+00  -7.41928101E+00   6.43367615E+01   6.43367615E+01  -5.96872139E+00  -7.41928101E+00   7.17560425E+01  -1.69829197E+01   7.10085449E+01  -2.81130791E+00   6.11793518E+01  -7.41928101E+00   1.45607042E+01
             2168                3   7.07294083E+01   6.41261063E+01   6.41261063E+01  -5.75805712E+00  -7.41928101E+00   6.41261063E+01   6.41261063E+01  -5.75805712E+00  -7.41928101E+00   7.15453873E+01  -1.69829216E+01   7.06854935E+01  -2.23853827E+00   6.06065826E+01  -7.41928101E+00   1.52830524E+01
             2168                4   7.14781189E+01   6.46303177E+01   6.46303177E+01  -6.26227617E+00  -7.41928101E+00   6.46303177E+01   6.46303177E+01  -6.26227617E+00  -7.41928101E+00   7.20495987E+01  -1.69829197E+01   7.14570465E+01  -2.86672926E+00   6.12347717E+01  -7.41928101E+00   1.51390018E+01
             2169                1   2.20000000E+02   2.11420242E+02   2.11420242E+02  -1.27653666E+01  -4.14048243E+00   2.11420242E+02   2.11420242E+02  -4.14048243E+00  -1.27653666E+01   2.24185608E+02  -6.48381271E+01   2.19619125E+02  -1.16963558E+01   2.10351227E+02  -4.14048243E+00   1.54439392E+01
             2169                2   2.20000000E+02   2.11444290E+02   2.11444290E+02  -1.21133194E+01  -4.81657696E+00   2.11444290E+02   2.11444290E+02  -4.81657696E+00  -1.21133194E+01   2.23557602E+02  -6.48381271E+01   2.19727493E+02  -1.13893118E+01   2.10720276E+02  -4.81657696E+00   1.27016964E+01
             2169                3   2.20000000E+02   2.11358810E+02   2.11358810E+02  -1.40880518E+01  -2.75636697E+00   2.11358810E+02   2.11358810E+02  -2.75636697E+00  -1.40880518E+01   2.25446854E+02  -6.48381271E+01   2.19341949E+02  -1.31731596E+01   2.10443909E+02  -2.75636697E+00   1.43325911E+01
             2169                4   2.20000000E+02   2.11389572E+02   2.11389572E+02  -1.34711962E+01  -3.40400481E+00   2.11389572E+02   2.11389572E+02  -3.40400481E+00  -1.34711962E+01   2.24860779E+02  -6.48381271E+01   2.19480865E+02  -1.28674583E+01   2.10785843E+02  -3.40400481E+00   1.16357899E+01
             2170                1   2.20000000E+02   1.68358261E+02   1.68358261E+02  -5.60790215E+01  -4.69182854E+01   1.68358261E+02   1.68358261E+02  -4.69182854E+01  -5.60790215E+01   2.24437286E+02  -2.17869816E+01   2.19570267E+02  -5.60664864E+01   1.68345718E+02  -4.69182854E+01   1.67760646E+00
             2170                2   2.20000000E+02   1.68161270E+02   1.68161270E+02  -5.94162827E+01  -4.33840523E+01   1.68161270E+02   1.68161270E+02  -4.33840523E+01  -5.94162827E+01   2.27577560E+02  -2.17869816E+01   2.18679901E+02  -5.93450623E+01   1.68090057E+02  -4.33840523E+01  -4.02526236E+00
             2170                3   2.20000000E+02   1.68204514E+02   1.68204514E+02  -5.88221741E+01  -4.40213852E+01   1.68204514E+02   1.68204514E+02  -4.40213852E+01  -5.88221741E+01   2.27026688E+02  -2.17869816E+01   2.18875641E+02  -5.84907455E+01   1.67873077E+02  -4.40213852E+01   8.66791821E+00
             2170                4   2.20000000E+02   1.67951828E+02   1.67951828E+02  -6.17936401E+01  -4.07972450E+01   1.67951828E+02   1.67951828E+02  -4.07972450E+01  -6.17936401E+01   2.29745468E+02  -2.17869816E+01   2.17728729E+02  -6.17577057E+01   1.67915894E+02  -4.07972450E+01   2.87309694E+00
             2171                1   2.20000000E+02   2.22111893E+02   2.22111893E+02  -8.48995686E+00   1.45228748E+01   2.22111893E+02   2.22111893E+02   1.45228748E+01  -8.48995686E+00   2.30601852E+02  -7.60482712E+01   2.17267349E+02  -7.96960974E+00   2.21591537E+02   1.45228748E+01   1.09418173E+01
             2171                2   2.20000000E+02   2.22013107E+02   2.22013107E+02  -9.34519291E+00   1.54769001E+01   2.22013107E+02   2.22013107E+02   1.54769001E+01  -9.34519291E+00   2.31358292E+02  -7.60482712E+01   2.16815994E+02  -9.00124359E+00   2.21669144E+02   1.54769001E+01   8.91397476E+00
             2171                3   2.20000000E+02   2.22007172E+02   2.22007172E+02  -9.39444923E+00   1.55320797E+01   2.22007172E+02   2.22007172E+02   1.55320797E+01  -9.39444923E+00   2.31401611E+02  -7.60482635E+01   2.16788879E+02  -8.69492912E+00   2.21307648E+02   1.55320797E+01   1.27035561E+01
             2171                4   2.20000000E+02   2.21906525E+02   2.21906525E+02  -1.01985111E+01   1.64367867E+01   2.21906525E+02   2.21906525E+02   1.64367867E+01  -1.01985111E+01   2.32105026E+02  -7.60482635E+01   2.16327896E+02  -9.70372105E+00   2.21411728E+02   1.64367867E+01   1.07050819E+01
             2172                1   2.20000000E+02   1.57298401E+02   1.57298401E+02  -6.57213593E+01  -5.95520782E+01   1.57298401E+02   1.57298401E+02  -5.95520782E+01  -6.57213593E+01   2.23019760E+02  -1.06749878E+01   2.19805252E+02  -6.56407318E+01   1.57217773E+02  -5.95520782E+01   4.23971224E+00
             2172                2   2.20000000E+02   1.57341171E+02   1.57341171E+02  -6.23346786E+01  -6.29815369E+01   1.57341171E+02   1.57341171E+02  -6.23346786E+01  -6.29815369E+01   2.20322708E+02  -1.06749849E+01   2.19997864E+02  -6.21467972E+01   1.57153290E+02  -6.29815369E+01   6.42170429E+00
             2172                3   2.20000000E+02   1.57321350E+02   1.57321350E+02  -6.47624359E+01  -6.05339394E+01   1.57321350E+02   1.57321350E+02  -6.05339394E+01  -6.47624359E+01   2.22083786E+02  -1.06749887E+01   2.19908554E+02  -6.47323837E+01   1.57291290E+02  -6.05339394E+01  -2.58316469E+00
             2172                4   2.20000000E+02   1.57332367E+02   1.57332367E+02  -6.12237663E+01  -6.40836258E+01   1.57332367E+02   1.57332367E+02  -6.12237663E+01  -6.40836258E+01   2.21415985E+02  -1.06749907E+01   2.19958176E+02  -6.12219429E+01   1.57330536E+02  -6.40836258E+01  -6.32218122E-01
             2173                1   2.20000000E+02   1.98463837E+02   1.98463837E+02  -2.72918663E+01  -1.52890596E+01   1.98463837E+02   1.98463837E+02  -1.52890596E+01  -2.72918663E+01   2.25755692E+02  -5.19609680E+01   2.19261505E+02  -2.67437191E+01   1.97915680E+02  -1.52890596E+01   1.11107159E+01
             2173                2   2.20000000E+02   1.98340561E+02   1.98340561E+02  -2.91720848E+01  -1.32855749E+01   1.98340561E+02   1.98340561E+02  -1.32855749E+01  -2.91720848E+01   2.27512634E+02  -5.19609680E+01   2.18703903E+02  -2.88739586E+01   1.98042435E+02  -1.32855749E+01   8.23029137E+00
             2173                3   2.20000000E+02   1.98375977E+02   1.98375977E+02  -2.86841125E+01  -1.38089676E+01   1.98375977E+02   1.98375977E+02  -1.38089676E+01  -2.86841125E+01   2.27060089E+02  -5.19609680E+01   2.18864273E+02  -2.76604404E+01   1.97352310E+02  -1.38089676E+01   1.52113771E+01
             2173                4   2.20000000E+02   1.98236938E+02   1.98236938E+02  -3.04419155E+01  -1.19121237E+01   1.98236938E+02   1.98236938E+02  -1.19121237E+01  -3.04419155E+01   2.28678864E+02  -5.19609680E+01   2.18233978E+02  -2.97818470E+01   1.97576874E+02  -1.19121237E+01   1.22681837E+01
             2174                1   2.20000000E+02   2.38520050E+02   2.38520050E+02  -6.14175558E+00   5.69822769E+01   2.38520050E+02   2.38520050E+02   5.69822769E+01  -6.14175558E+00   2.44661804E+02  -9.64535217E+01   1.98036224E+02  -6.09616995E+00   2.38474472E+02   5.69822769E+01   3.33908701E+00
             2174                2   2.20000000E+02   2.37994629E+02   2.37994629E+02  -7.60247755E+00   5.89684219E+01   2.37994629E+02   2.37994629E+02   5.89684219E+01  -7.60247755E+00   2.45597107E+02  -9.64535217E+01   1.95335312E+02  -7.54693270E+00   2.37939087E+02   5.89684219E+01  -3.69293714E+00
             2174                3   2.20000000E+02   2.37906952E+02   2.37906952E+02  -7.83700418E+00   5.92906189E+01   2.37906952E+02   2.37906952E+02   5.92906189E+01  -7.83700418E+00   2.45743958E+02  -9.64535217E+01   1.94879990E+02  -7.50263309E+00   2.37572586E+02   5.92906189E+01   9.05849171E+00
             2174                4   2.20000000E+02   2.37428970E+02   2.37428970E+02  -9.07384682E+00   6.10054512E+01   2.37428970E+02   2.37428970E+02   6.10054512E+01  -9.07384682E+00   2.46502808E+02  -9.64535217E+01   1.92373398E+02  -9.05564785E+00   2.37410767E+02   6.10054512E+01   2.11790490E+00
             2175                1   2.18165756E+02   2.13737656E+02   2.13737656E+02  -1.91450462E+01   1.41065540E+01   2.13737656E+02   2.13737656E+02   1.41065540E+01  -1.91450462E+01   2.32882690E+02  -6.95663834E+01   2.12352249E+02  -1.85686493E+01   2.13161255E+02   1.41065540E+01   1.15715380E+01
             2175                2   2.17728134E+02   2.13833694E+02   2.13833694E+02  -1.64256134E+01   1.12910604E+01   2.13833694E+02   2.13833694E+02   1.12910604E+01  -1.64256134E+01   2.30259308E+02  -6.95663834E+01   2.13705063E+02  -1.63404503E+01   2.13748535E+02   1.12910604E+01   4.42737722E+00
             2175                3   2.18375504E+02   2.13506836E+02   2.13506836E+02  -2.12933369E+01   1.64856510E+01   2.13506836E+02   2.13506836E+02   1.64856510E+01  -2.12933369E+01   2.34800171E+02  -6.95663834E+01   2.10834473E+02  -2.12272167E+01   2.13440720E+02   1.64856510E+01   3.93955088E+00
             2175                4   2.17983368E+02   2.13644333E+02   2.13644333E+02  -1.89065361E+01   1.39613447E+01   2.13644333E+02   2.13644333E+02   1.39613447E+01  -1.89065361E+01   2.32550858E+02  -6.95663834E+01   2.12300934E+02  -1.88596573E+01   2.13597458E+02   1.39613447E+01  -3.30114985E+00
             2176                1   2.04068604E+02   1.74406677E+02   1.74406677E+02  -3.10272484E+01  -2.82686462E+01   1.74406677E+02   1.74406677E+02  -2.82686462E+01  -3.10272484E+01   2.05433914E+02  -3.83702583E+01   2.04026642E+02  -3.08994942E+01   1.74278915E+02  -2.82686462E+01   5.12147522E+00
             2176                2   2.04677811E+02   1.74792007E+02   1.74792007E+02  -3.23239517E+01  -2.73572750E+01   1.74792007E+02   1.74792007E+02  -2.73572750E+01  -3.23239517E+01   2.07115952E+02  -3.83702583E+01   2.04542160E+02  -3.23038063E+01   1.74771851E+02  -2.73572750E+01   2.04277945E+00
             2176                3   2.04690018E+02   1.74787033E+02   1.74787033E+02  -3.28128624E+01  -2.68633995E+01   1.74787033E+02   1.74787033E+02  -2.68633995E+01  -3.28128624E+01   2.07599884E+02  -3.83702545E+01   2.04495346E+02  -3.25450401E+01   1.74519211E+02  -2.68633995E+01   7.45166063E+00
             2176                4   2.05272278E+02   1.75139542E+02   1.75139542E+02  -3.40380745E+01  -2.59906998E+01   1.75139542E+02   1.75139542E+02  -2.59906998E+01  -3.40380745E+01   2.09177612E+02  -3.83702583E+01   2.04916916E+02  -3.39458618E+01   1.75047333E+02  -2.59906998E+01   4.39092970E+00
             2177                1   2.20000000E+02   2.43499283E+02   2.43499283E+02  -2.33220530E+00   6.51294479E+01   2.43499283E+02   2.43499283E+02   6.51294479E+01  -2.33220530E+00   2.45831497E+02  -1.02098846E+02   1.94604172E+02  -2.28967214E+00   2.43456757E+02   6.51294479E+01  -3.23326397E+00
             2177                2   2.20000000E+02   2.42998032E+02   2.42998032E+02  -3.61966610E+00   6.69181671E+01   2.42998032E+02   2.42998032E+02   6.69181671E+01  -3.61966610E+00   2.46617706E+02  -1.02098846E+02   1.91969620E+02  -3.60260320E+00   2.42980972E+02   6.69181671E+01   2.05146551E+00
             2177                3   2.20000000E+02   2.43963577E+02   2.43963577E+02  -1.06910419E+00   6.34020615E+01   2.43963577E+02   2.43963577E+02   6.34020615E+01  -1.06910419E+00   2.45032684E+02  -1.02098846E+02   1.97004410E+02  -1.02775311E+00   2.43922226E+02   6.34020615E+01   3.18276882E+00
             2177                4   2.20000000E+02   2.43420853E+02   2.43420853E+02  -2.53862691E+00   6.54142990E+01   2.43420853E+02   2.43420853E+02   6.54142990E+01  -2.53862691E+00   2.45959488E+02  -1.02098846E+02   1.94194962E+02  -2.25324702E+00   2.43135483E+02   6.54142990E+01   8.37315369E+00
             2178                1   4.35420036E+01   3.87374840E+01   3.87374840E+01  -2.21775365E+00  -6.99696493E+00   3.87374840E+01   3.87374840E+01  -2.21775365E+00  -6.99696493E+00   4.57344475E+01  -9.84092140E+00   4.29459648E+01   8.83897096E-02   3.64313393E+01  -6.99696493E+00   9.44088840E+00
             2178                2   4.40925102E+01   3.91264420E+01   3.91264420E+01  -2.60671067E+00  -6.99696493E+00   3.91264420E+01   3.91264420E+01  -2.60671067E+00  -6.99696493E+00   4.61234055E+01  -9.84092140E+00   4.35967064E+01  -3.34014475E-01   3.68537445E+01  -6.99696493E+00   9.47003746E+00
             2178                3   4.37705612E+01   3.88992653E+01   3.88992653E+01  -2.37953520E+00  -6.99696493E+00   3.88992653E+01   3.88992653E+01  -2.37953520E+00  -6.99696493E+00   4.58962288E+01  -9.84092140E+00   4.32175255E+01   1.28719613E-01   3.63910103E+01  -6.99696493E+00   9.86135864E+00
             2178                4   4.43178749E+01   3.92849808E+01   3.92849808E+01  -2.76525211E+00  -6.99696493E+00   3.92849808E+01   3.92849808E+01  -2.76525211E+00  -6.99696493E+00   4.62819481E+01  -9.84092140E+00   4.38598824E+01  -2.92906642E-01   3.68126373E+01  -6.99696493E+00   9.89192486E+00
             2179                1   2.20000000E+02   2.10362732E+02   2.10362732E+02  -2.95351067E+01   1.80482578E+01   2.10362732E+02   2.10362732E+02   1.80482578E+01  -2.95351067E+01   2.39897827E+02  -6.62919617E+01   2.07943878E+02  -2.92694683E+01   2.10097092E+02   1.80482578E+01   7.97840023E+00
             2179                2   2.20000000E+02   2.10704117E+02   2.10704117E+02  -2.80992317E+01   1.62709942E+01   2.10704117E+02   2.10704117E+02   1.62709942E+01  -2.80992317E+01   2.38803345E+02  -6.62919617E+01   2.09575424E+02  -2.79504128E+01   2.10555298E+02   1.62709942E+01   5.95963240E+00
             2179                3   2.20000000E+02   2.10085266E+02   2.10085266E+02  -3.06236534E+01   1.94142704E+01   2.10085266E+02   2.10085266E+02   1.94142704E+01  -3.06236534E+01   2.40708923E+02  -6.62919617E+01   2.06606567E+02  -3.05501213E+01   2.10011734E+02   1.94142704E+01   4.20637846E+00
             2179                4   2.20000000E+02   2.10431213E+02   2.10431213E+02  -2.92562046E+01   1.77008762E+01   2.10431213E+02   2.10431213E+02   1.77008762E+01  -2.92562046E+01   2.39687408E+02  -6.62919617E+01   2.08272369E+02  -2.92354698E+01   2.10410477E+02   1.77008762E+01   2.22901225E+00
             2180                1   2.20000000E+02   1.49596619E+02   1.49596619E+02  -7.21814957E+01  -6.85810471E+01   1.49596619E+02   1.49596619E+02  -6.85810471E+01  -7.21814957E+01   2.21778122E+02  -2.94469452E+00   2.19933685E+02  -7.21696014E+01   1.49584732E+02  -6.85810471E+01   1.62407887E+00
             2180                2   2.19763229E+02   1.49440979E+02   1.49440979E+02  -6.86434174E+01  -7.19634705E+01   1.49440979E+02   1.49440979E+02  -6.86434174E+01  -7.19634705E+01   2.21404449E+02  -2.94469714E+00   2.19706787E+02  -6.86134033E+01   1.49410965E+02  -7.19634705E+01   2.55809784E+00
             2180                3   2.20000015E+02   1.49601959E+02   1.49601959E+02  -7.18232040E+01  -6.89446564E+01   1.49601959E+02   1.49601959E+02  -6.89446564E+01  -7.18232040E+01   2.21425156E+02  -2.94469953E+00   2.19957626E+02  -7.17023697E+01   1.49481125E+02  -6.89446564E+01  -5.17110205E+00
             2180                4   2.19805939E+02   1.49462509E+02   1.49462509E+02  -6.82446136E+01  -7.23837967E+01   1.49462509E+02   1.49462509E+02  -6.82446136E+01  -7.23837967E+01   2.21846298E+02  -2.94469953E+00   2.19718231E+02  -6.81532440E+01   1.49371140E+02  -7.23837967E+01  -4.45900917E+00
             2181                1   2.02212769E+02   1.70089523E+02   1.70089523E+02  -3.33961372E+01  -3.08258362E+01   1.70089523E+02   1.70089523E+02  -3.08258362E+01  -3.33961372E+01   2.03485672E+02  -3.52891846E+01   2.02176010E+02  -3.33810654E+01   1.70074463E+02  -3.08258362E+01   1.75081396E+00
             2181                2   2.03095856E+02   1.70649216E+02   1.70649216E+02  -3.51395721E+01  -2.96420727E+01   1.70649216E+02   1.70649216E+02  -2.96420727E+01  -3.51395721E+01   2.05788788E+02  -3.52891884E+01   2.02928329E+02  -3.50819321E+01   1.70591568E+02  -2.96420727E+01   3.44380379E+00
             2181                3   2.01498993E+02   1.69620636E+02   1.69620636E+02  -3.23696022E+01  -3.13834839E+01   1.69620636E+02   1.69620636E+02  -3.13834839E+01  -3.23696022E+01   2.01990250E+02  -3.52891846E+01   2.01493576E+02  -3.22615738E+01   1.69512619E+02  -3.13834839E+01   4.66986704E+00
             2181                4   2.02536819E+02   1.70294144E+02   1.70294144E+02  -3.42053833E+01  -3.02211952E+01   1.70294144E+02   1.70294144E+02  -3.02211952E+01  -3.42053833E+01   2.04499527E+02  -3.52891884E+01   2.02448624E+02  -3.40083275E+01   1.70097092E+02  -3.02211952E+01   6.34494209E+00
             2182                1   2.20000000E+02   1.75106339E+02   1.75106339E+02  -5.04109192E+01  -3.89265327E+01   1.75106339E+02   1.75106339E+02  -3.89265327E+01  -5.04109192E+01   2.25517258E+02  -2.85896301E+01   2.19324066E+02  -5.01264877E+01   1.74821915E+02  -3.89265327E+01   8.00400257E+00
             2182                2   2.20000000E+02   1.75214920E+02   1.75214920E+02  -4.77398834E+01  -4.17061462E+01   1.75214920E+02   1.75214920E+02  -4.17061462E+01  -4.77398834E+01   2.22954803E+02  -2.85896301E+01   2.19813721E+02  -4.71874275E+01   1.74662460E+02  -4.17061462E+01   1.10846024E+01
             2182                3   2.20000000E+02   1.75169830E+02   1.75169830E+02  -4.90616531E+01  -4.03392792E+01   1.75169830E+02   1.75169830E+02  -4.03392792E+01  -4.90616531E+01   2.24231476E+02  -2.85896301E+01   2.19610474E+02  -4.90384789E+01   1.75146652E+02  -4.03392792E+01   2.27926564E+00
             2182                4   2.20000000E+02   1.75246643E+02   1.75246643E+02  -4.61960106E+01  -4.32817421E+01   1.75246643E+02   1.75246643E+02  -4.32817421E+01  -4.61960106E+01   2.21442657E+02  -2.85896301E+01   2.19956558E+02  -4.60732002E+01   1.75123825E+02  -4.32817421E+01   5.21359015E+00
             2183                1   2.20000000E+02   2.13631363E+02   2.13631363E+02  -9.40942287E+00  -3.19622374E+00   2.13631363E+02   2.13631363E+02  -3.19622374E+00  -9.40942287E+00   2.23040787E+02  -6.70085678E+01   2.19802460E+02  -8.37523460E+00   2.12597168E+02  -3.19622374E+00   1.51524878E+01
             2183                2   2.20000000E+02   2.13643982E+02   2.13643982E+02  -8.93156052E+00  -3.68669677E+00   2.13643982E+02   2.13643982E+02  -3.68669677E+00  -8.93156052E+00   2.22575546E+02  -6.70085754E+01   2.19859253E+02  -8.21541500E+00   2.12927826E+02  -3.68669677E+00   1.26049652E+01
             2183                3   2.20000000E+02   2.13586472E+02   2.13586472E+02  -1.06989698E+01  -1.86178017E+00   2.13586472E+02   2.13586472E+02  -1.86178017E+00  -1.06989698E+01   2.24285431E+02  -6.70085678E+01   2.19600128E+02  -9.77029991E+00   2.12657791E+02  -1.86178017E+00   1.44022884E+01
             2183                4   2.20000000E+02   2.13603256E+02   2.13603256E+02  -1.02678671E+01  -2.30968118E+00   2.13603256E+02   2.13603256E+02  -2.30968118E+00  -1.02678671E+01   2.23871124E+02  -6.70085678E+01   2.19675797E+02  -9.63515472E+00   2.12970551E+02  -2.30968118E+00   1.18846083E+01
             2184                1   2.17716965E+02   2.06870544E+02   2.06870544E+02  -2.24121265E+01   2.93885159E+00   2.06870544E+02   2.06870544E+02   2.93885159E+00  -2.24121265E+01   2.29282669E+02  -6.24657593E+01   2.14358673E+02  -2.23232307E+01   2.06781647E+02   2.93885159E+00   4.51388454E+00
             2184                2   2.18088608E+02   2.06754181E+02   2.06754181E+02  -2.51656590E+01   5.80875826E+00   2.06754181E+02   2.06754181E+02   5.80875826E+00  -2.51656590E+01   2.31919830E+02  -6.24657593E+01   2.13055557E+02  -2.49627552E+01   2.06551270E+02   5.80875826E+00  -6.85686493E+00
             2184                3   2.18604202E+02   2.06957703E+02   2.06957703E+02  -2.62369576E+01   6.67651701E+00   2.06957703E+02   2.06957703E+02   6.67651701E+00  -2.62369576E+01   2.33194656E+02  -6.24657555E+01   2.12922516E+02  -2.54194164E+01   2.06140167E+02   6.67651701E+00   1.37832222E+01
             2184                4   2.18544983E+02   2.06557297E+02   2.06557297E+02  -2.82576981E+01   9.09764671E+00   2.06557297E+02   2.06557297E+02   9.09764671E+00  -2.82576981E+01   2.34815002E+02  -6.24657478E+01   2.11182480E+02  -2.82293644E+01   2.06528976E+02   9.09764671E+00   2.57891726E+00
             2185                1   2.19283997E+02   1.74964554E+02   1.74964554E+02  -5.05919304E+01  -3.74564400E+01   1.74964554E+02   1.74964554E+02  -3.74564400E+01  -5.05919304E+01   2.25556488E+02  -2.89720612E+01   2.18396210E+02  -5.05919228E+01   1.74964539E+02  -3.74564400E+01  -5.18370569E-02
             2185                2   2.19480179E+02   1.74854767E+02   1.74854767E+02  -5.37599831E+01  -3.41786270E+01   1.74854767E+02   1.74854767E+02  -3.41786270E+01  -5.37599831E+01   2.28614746E+02  -2.89720535E+01   2.17501938E+02  -5.36049156E+01   1.74699707E+02  -3.41786270E+01  -5.95192099E+00
             2185                3   2.19384048E+02   1.74827240E+02   1.74827240E+02  -5.33267517E+01  -3.45843239E+01   1.74827240E+02   1.74827240E+02  -3.45843239E+01  -5.33267517E+01   2.28153992E+02  -2.89720554E+01   2.17571884E+02  -5.31402283E+01   1.74640717E+02  -3.45843239E+01   6.52083302E+00
             2185                4   2.19567261E+02   1.74662476E+02   1.74662476E+02  -5.61472435E+01  -3.15990734E+01   1.74662476E+02   1.74662476E+02  -3.15990734E+01  -5.61472435E+01   2.30809723E+02  -2.89720535E+01   2.16447617E+02  -5.61458359E+01   1.74661072E+02  -3.15990734E+01   5.69133759E-01
             2186                1   2.20000000E+02   2.23762039E+02   2.23762039E+02  -1.72291050E+01   3.36787415E+01   2.23762039E+02   2.23762039E+02   3.36787415E+01  -1.72291050E+01   2.40991135E+02  -8.00705566E+01   2.06113205E+02  -1.70809536E+01   2.23613876E+02   3.36787415E+01   5.97350883E+00
             2186                2   2.20000000E+02   2.24075195E+02   2.24075195E+02  -1.60218296E+01   3.21582909E+01   2.24075195E+02   2.24075195E+02   3.21582909E+01  -1.60218296E+01   2.40097015E+02  -8.00705490E+01   2.07626099E+02  -1.54923334E+01   2.23545700E+02   3.21582909E+01   1.12627077E+01
             2186                3   2.20000000E+02   2.24147888E+02   2.24147888E+02  -1.57299776E+01   3.17937641E+01   2.24147888E+02   2.24147888E+02   3.17937641E+01  -1.57299776E+01   2.39877869E+02  -8.00705566E+01   2.07975372E+02  -1.57100573E+01   2.24127960E+02   3.17937641E+01   2.18616247E+00
             2186                4   2.20000000E+02   2.24467712E+02   2.24467712E+02  -1.43862562E+01   3.01302128E+01   2.24467712E+02   2.24467712E+02   3.01302128E+01  -1.43862562E+01   2.38853958E+02  -8.00705566E+01   2.09504028E+02  -1.41525640E+01   2.24234009E+02   3.01302128E+01   7.46761131E+00
             2187                1   2.20000000E+02   2.32066406E+02   2.32066406E+02  -1.15204487E+01   4.78303337E+01   2.32066406E+02   2.32066406E+02   4.78303337E+01  -1.15204487E+01   2.43586853E+02  -8.94587631E+01   2.00770355E+02  -1.14597120E+01   2.32005676E+02   4.78303337E+01   3.84575391E+00
             2187                2   2.20000000E+02   2.31534531E+02   2.31534531E+02  -1.31099014E+01   4.99516602E+01   2.31534531E+02   2.31534531E+02   4.99516602E+01  -1.31099014E+01   2.44644440E+02  -8.94587631E+01   1.98083344E+02  -1.30648003E+01   2.31489441E+02   4.99516602E+01  -3.32125235E+00
             2187                3   2.20000000E+02   2.31439972E+02   2.31439972E+02  -1.33804674E+01   5.03167915E+01   2.31439972E+02   2.31439972E+02   5.03167915E+01  -1.33804674E+01   2.44820450E+02  -8.94587708E+01   1.97600800E+02  -1.30114317E+01   2.31070938E+02   5.03167915E+01   9.49799442E+00
             2187                4   2.20000000E+02   2.30945343E+02   2.30945343E+02  -1.47433863E+01   5.21743507E+01   2.30945343E+02   2.30945343E+02   5.21743507E+01  -1.47433863E+01   2.45688721E+02  -8.94587708E+01   1.95052246E+02  -1.47210569E+01   2.30923004E+02   5.21743507E+01   2.34226584E+00
             2188                1   2.20000000E+02   2.43360352E+02   2.43360352E+02  -1.04709578E+00   6.11670799E+01   2.43360352E+02   2.43360352E+02   6.11670799E+01  -1.04709578E+00   2.44407455E+02  -1.01160118E+02   1.98716217E+02  -9.96328533E-01   2.43309586E+02   6.11670799E+01   3.52232456E+00
             2188                2   2.20000000E+02   2.42936615E+02   2.42936615E+02  -2.25351429E+00   6.27972336E+01   2.42936615E+02   2.42936615E+02   6.27972336E+01  -2.25351429E+00   2.45190140E+02  -1.01160118E+02   1.96551178E+02  -2.22696042E+00   2.42910065E+02   6.27972336E+01  -2.55153346E+00
             2188                3   2.20000000E+02   2.42856232E+02   2.42856232E+02  -2.47501826E+00   6.30991211E+01   2.42856232E+02   2.42856232E+02   6.30991211E+01  -2.47501826E+00   2.45331253E+02  -1.01160118E+02   1.96137024E+02  -2.19222331E+00   2.42573441E+02   6.30991211E+01   8.32446671E+00
             2188                4   2.20000000E+02   2.42467377E+02   2.42467377E+02  -3.51594830E+00   6.45289078E+01   2.42467377E+02   2.42467377E+02   6.45289078E+01  -3.51594830E+00   2.45983322E+02  -1.01160118E+02   1.94117905E+02  -3.49362445E+00   2.42445053E+02   6.45289078E+01   2.34338856E+00
             2189                1   2.20000000E+02   1.52115402E+02   1.52115402E+02  -6.61743088E+01  -6.95558929E+01   1.52115402E+02   1.52115402E+02  -6.61743088E+01  -6.95558929E+01   2.21671295E+02  -5.46173096E+00   2.19941513E+02  -6.61329193E+01   1.52074005E+02  -6.95558929E+01   3.00565863E+00
             2189                2   2.20000000E+02   1.52106750E+02   1.52106750E+02  -6.56780319E+01  -7.00435104E+01   1.52106750E+02   1.52106750E+02  -6.56780319E+01  -7.00435104E+01   2.22150253E+02  -5.46173334E+00   2.19902512E+02  -6.55967865E+01   1.52025497E+02  -7.00435104E+01  -4.20565701E+00
             2189                3   2.20000000E+02   1.52112656E+02   1.52112656E+02  -6.97240829E+01  -6.60033798E+01   1.52112656E+02   1.52112656E+02  -6.60033798E+01  -6.97240829E+01   2.21836746E+02  -5.46173096E+00   2.19929184E+02  -6.97074966E+01   1.52096069E+02  -6.60033798E+01   1.91843128E+00
             2189                4   2.20000000E+02   1.52119125E+02   1.52119125E+02  -6.92953262E+01  -6.64385986E+01   1.52119125E+02   1.52119125E+02  -6.64385986E+01  -6.92953262E+01   2.21414444E+02  -5.46173096E+00   2.19958252E+02  -6.91802673E+01   1.52004059E+02  -6.64385986E+01  -5.04609966E+00
             2190                1   2.20000000E+02   1.75336823E+02   1.75336823E+02  -4.81306496E+01  -4.10234756E+01   1.75336823E+02   1.75336823E+02  -4.10234756E+01  -4.81306496E+01   2.23467468E+02  -2.87275677E+01   2.19741486E+02  -4.79024811E+01   1.75108658E+02  -4.10234756E+01   7.13695812E+00
             2190                2   2.20000000E+02   1.75391464E+02   1.75391464E+02  -4.53848000E+01  -4.38239670E+01   1.75391464E+02   1.75391464E+02  -4.38239670E+01  -4.53848000E+01   2.20776260E+02  -2.87275677E+01   2.19987549E+02  -4.50017395E+01   1.75008408E+02  -4.38239670E+01   9.18824673E+00
             2190                3   2.20000000E+02   1.75362915E+02   1.75362915E+02  -4.72151451E+01  -4.19650612E+01   1.75362915E+02   1.75362915E+02  -4.19650612E+01  -4.72151451E+01   2.22578049E+02  -2.87275696E+01   2.19858978E+02  -4.72043991E+01   1.75352158E+02  -4.19650612E+01   1.54700208E+00
             2190                4   2.20000000E+02   1.75393906E+02   1.75393906E+02  -4.43383064E+01  -4.48728981E+01   1.75393906E+02   1.75393906E+02  -4.43383064E+01  -4.48728981E+01   2.20266800E+02  -2.87275696E+01   2.19998535E+02  -4.42849045E+01   1.75340500E+02  -4.48728981E+01   3.42533851E+00
             2191                1   2.11657898E+02   1.84108597E+02   1.84108597E+02  -3.25981598E+01  -2.21105270E+01   1.84108597E+02   1.84108597E+02  -2.21105270E+01  -3.25981598E+01   2.16706757E+02  -4.31333008E+01   2.11072128E+02  -3.24949646E+01   1.84005402E+02  -2.21105270E+01   4.72785902E+00
             2191                2   2.12605667E+02   1.84633011E+02   1.84633011E+02  -3.47180061E+01  -2.05150814E+01   1.84633011E+02   1.84633011E+02  -2.05150814E+01  -3.47180061E+01   2.19351013E+02  -4.31333122E+01   2.11534332E+02  -3.47165718E+01   1.84631577E+02  -2.05150814E+01   5.61437666E-01
             2191                3   2.12745041E+02   1.84705856E+02   1.84705856E+02  -3.50507317E+01  -2.02551994E+01   1.84705856E+02   1.84705856E+02  -2.02551994E+01  -3.50507317E+01   2.19756592E+02  -4.31333046E+01   2.11582855E+02  -3.47031250E+01   1.84358246E+02  -2.02551994E+01   8.73317146E+00
             2191                4   2.13250473E+02   1.84910538E+02   1.84910538E+02  -3.68656960E+01  -1.86449242E+01   1.84910538E+02   1.84910538E+02  -1.86449242E+01  -3.68656960E+01   2.21776230E+02  -4.31333046E+01   2.11488510E+02  -3.67716255E+01   1.84816467E+02  -1.86449242E+01   4.56664658E+00
             2192                1   2.20000000E+02   1.75714508E+02   1.75714508E+02  -5.12040901E+01  -3.66435394E+01   1.75714508E+02   1.75714508E+02  -3.66435394E+01  -5.12040901E+01   2.26918594E+02  -2.92889614E+01   2.18911972E+02  -5.11972809E+01   1.75707703E+02  -3.66435394E+01   1.24288940E+00
             2192                2   2.20000000E+02   1.75440964E+02   1.75440964E+02  -5.44185600E+01  -3.31555176E+01   1.75440964E+02   1.75440964E+02  -3.31555176E+01  -5.44185600E+01   2.29859512E+02  -2.92889614E+01   2.17670227E+02  -5.43014030E+01   1.75323807E+02  -3.31555176E+01  -5.18796730E+00
             2192                3   2.20000000E+02   1.75469559E+02   1.75469559E+02  -5.41337242E+01  -3.34689445E+01   1.75469559E+02   1.75469559E+02  -3.34689445E+01  -5.41337242E+01   2.29603271E+02  -2.92889614E+01   2.17800415E+02  -5.38418159E+01   1.75177643E+02  -3.34689445E+01   8.18160057E+00
             2192                4   2.20000000E+02   1.75147232E+02   1.75147232E+02  -5.69576988E+01  -3.03226547E+01   1.75147232E+02   1.75147232E+02  -3.03226547E+01  -5.69576988E+01   2.32104935E+02  -2.92889576E+01   2.16327972E+02  -5.69452782E+01   1.75134811E+02  -3.03226547E+01   1.69768894E+00
             2193                1   2.20000000E+02   2.16390106E+02   2.16390106E+02  -5.63318396E+00  -1.52916968E+00   2.16390106E+02   2.16390106E+02  -1.52916968E+00  -5.63318396E+00   2.22023300E+02  -6.97425842E+01   2.19913849E+02  -4.62374353E+00   2.15380676E+02  -1.52916968E+00   1.49365034E+01
             2193                2   2.20000000E+02   2.16396362E+02   2.16396362E+02  -5.26839018E+00  -1.90020406E+00   2.16396362E+02   2.16396362E+02  -1.90020406E+00  -5.26839018E+00   2.21664749E+02  -6.97425919E+01   2.19941986E+02  -4.57211590E+00   2.15700089E+02  -1.90020406E+00   1.24038420E+01
             2193                3   2.20000000E+02   2.16358978E+02   2.16358978E+02  -6.89098930E+00  -2.40226611E-01   2.16358978E+02   2.16358978E+02  -2.40226611E-01  -6.89098930E+00   2.23249969E+02  -6.97425919E+01   2.19773636E+02  -5.95549011E+00   2.15423477E+02  -2.40226611E-01   1.44213400E+01
             2193                4   2.20000000E+02   2.16369446E+02   2.16369446E+02  -6.53030300E+00  -6.11377001E-01   2.16369446E+02   2.16369446E+02  -6.11377001E-01  -6.53030300E+00   2.22899750E+02  -6.97425919E+01   2.19820755E+02  -5.88944292E+00   2.15728592E+02  -6.11377001E-01   1.19346247E+01
             2194                1   2.20000000E+02   1.94336243E+02   1.94336243E+02  -2.75145454E+01  -2.37650414E+01   1.94336243E+02   1.94336243E+02  -2.37650414E+01  -2.75145454E+01   2.21850800E+02  -4.76855507E+01   2.19928101E+02  -2.71541271E+01   1.93975830E+02  -2.37650414E+01   8.93469524E+00
             2194                2   2.20000000E+02   1.94276520E+02   1.94276520E+02  -2.96902161E+01  -2.15296516E+01   1.94276520E+02   1.94276520E+02  -2.15296516E+01  -2.96902161E+01   2.23966736E+02  -4.76855507E+01   2.19659073E+02  -2.94834442E+01   1.94069748E+02  -2.15296516E+01   6.80199194E+00
             2194                3   2.20000000E+02   1.94311554E+02   1.94311554E+02  -2.86182766E+01  -2.26366215E+01   1.94311554E+02   1.94311554E+02  -2.26366215E+01  -2.86182766E+01   2.22929840E+02  -4.76855507E+01   2.19816940E+02  -2.78136883E+01   1.93506973E+02  -2.26366215E+01   1.33685818E+01
             2194                4   2.20000000E+02   1.94234329E+02   1.94234329E+02  -3.06803932E+01  -2.04972916E+01   1.94234329E+02   1.94234329E+02  -2.04972916E+01  -3.06803932E+01   2.24914734E+02  -4.76855469E+01   2.19468826E+02  -3.01268101E+01   1.93680756E+02  -2.04972916E+01   1.11445627E+01
             2195                1   2.20000000E+02   2.17905182E+02   2.17905182E+02  -2.15731888E+01   2.47658710E+01   2.17905182E+02   2.17905182E+02   2.47658710E+01  -2.15731888E+01   2.39478378E+02  -7.36992874E+01   2.08591492E+02  -2.13759518E+01   2.17707947E+02   2.47658710E+01   6.86996269E+00
             2195                2   2.20000000E+02   2.18139862E+02   2.18139862E+02  -2.05669651E+01   2.35249653E+01   2.18139862E+02   2.18139862E+02   2.35249653E+01  -2.05669651E+01   2.38706818E+02  -7.36992874E+01   2.09710526E+02  -2.00909386E+01   2.17663834E+02   2.35249653E+01   1.06491003E+01
             2195                3   2.20000000E+02   2.18204361E+02   2.18204361E+02  -2.02798862E+01   2.31733990E+01   2.18204361E+02   2.18204361E+02   2.31733990E+01  -2.02798862E+01   2.38484238E+02  -7.36992874E+01   2.10016846E+02  -2.01965847E+01   2.18121048E+02   2.31733990E+01   4.45651293E+00
             2195                4   2.20000000E+02   2.18442764E+02   2.18442764E+02  -1.91743431E+01   2.18294449E+01   2.18442764E+02   2.18442764E+02   2.18294449E+01  -1.91743431E+01   2.37617096E+02  -7.36992874E+01   2.11144608E+02  -1.88838863E+01   2.18152298E+02   2.18294449E+01   8.30266762E+00
             2196                1   2.20000000E+02   1.66185532E+02   1.66185532E+02  -6.07739830E+01  -4.61225510E+01   1.66185532E+02   1.66185532E+02  -4.61225510E+01  -6.07739830E+01   2.26959503E+02  -1.97629986E+01   2.18898300E+02  -6.06248055E+01   1.66036346E+02  -4.61225510E+01   5.81684113E+00
             2196                2   2.20000000E+02   1.66345490E+02   1.66345490E+02  -5.78309860E+01  -4.92255096E+01   1.66345490E+02   1.66345490E+02  -4.92255096E+01  -5.78309860E+01   2.24176468E+02  -1.97629948E+01   2.19620834E+02  -5.73776436E+01   1.65892136E+02  -4.92255096E+01   1.00709591E+01
             2196                3   2.20000000E+02   1.66295120E+02   1.66295120E+02  -5.89424210E+01  -4.80637131E+01   1.66295120E+02   1.66295120E+02  -4.80637131E+01  -5.89424210E+01   2.25237534E+02  -1.97629929E+01   2.19393616E+02  -5.89404106E+01   1.66293106E+02  -4.80637131E+01  -6.72553301E-01
             2196                4   2.20000000E+02   1.66408478E+02   1.66408478E+02  -5.57186584E+01  -5.14008331E+01   1.66408478E+02   1.66408478E+02  -5.14008331E+01  -5.57186584E+01   2.22127136E+02  -1.97629948E+01   2.19904633E+02  -5.56653900E+01   1.66355209E+02  -5.14008331E+01   3.43936014E+00
             2197                1   2.18965851E+02   2.14288605E+02   2.14288605E+02  -2.07066135E+01   1.59888611E+01   2.14288605E+02   2.14288605E+02   1.59888611E+01  -2.07066135E+01   2.34995209E+02  -6.98569489E+01   2.11881836E+02  -2.00863914E+01   2.13668381E+02   1.59888611E+01   1.20566788E+01
             2197                2   2.18612152E+02   2.14528488E+02   2.14528488E+02  -1.77441940E+01   1.27865572E+01   2.14528488E+02   2.14528488E+02   1.27865572E+01  -1.77441940E+01   2.32272690E+02  -6.98569565E+01   2.13736740E+02  -1.76757698E+01   2.14460068E+02   1.27865572E+01   3.98612595E+00
             2197                3   2.19048203E+02   2.13914688E+02   2.13914688E+02  -2.28978691E+01   1.85540428E+01   2.13914688E+02   2.13914688E+02   1.85540428E+01  -2.28978691E+01   2.36812561E+02  -6.98569565E+01   2.09950180E+02  -2.28574448E+01   2.13874252E+02   1.85540428E+01   3.09407425E+00
             2197                4   2.18755676E+02   2.14181976E+02   2.14181976E+02  -2.04456520E+01   1.58345318E+01   2.14181976E+02   2.14181976E+02   1.58345318E+01  -2.04456520E+01   2.34627625E+02  -6.98569565E+01   2.11827927E+02  -2.03471603E+01   2.14083481E+02   1.58345318E+01  -4.80634069E+00
             2198                1   4.86057549E+01   4.50782852E+01   4.50782852E+01  -2.27551246E+00  -4.68947268E+00   4.50782852E+01   4.50782852E+01  -2.27551246E+00  -4.68947268E+00   4.97677574E+01  -1.27044334E+01   4.84706116E+01  -1.90041706E-01   4.29928131E+01  -4.68947268E+00   9.71626568E+00
             2198                2   4.90375061E+01   4.53732033E+01   4.53732033E+01  -2.57042980E+00  -4.68947268E+00   4.53732033E+01   4.53732033E+01  -2.57042980E+00  -4.68947268E+00   5.00626755E+01  -1.27044334E+01   4.89343300E+01  -5.23189843E-01   4.33259621E+01  -4.68947268E+00   9.69334507E+00
             2198                3   4.88598633E+01   4.52519836E+01   4.52519836E+01  -2.44921255E+00  -4.68947268E+00   4.52519836E+01   4.52519836E+01  -2.44921255E+00  -4.68947268E+00   4.99414597E+01  -1.27044334E+01   4.87441063E+01  -2.23964229E-01   4.30267372E+01  -4.68947268E+00   1.00595856E+01
             2198                4   4.92974281E+01   4.55502548E+01   4.55502548E+01  -2.74748182E+00  -4.68947268E+00   4.55502548E+01   4.55502548E+01  -2.74748182E+00  -4.68947268E+00   5.02397270E+01  -1.27044334E+01   4.92112541E+01  -5.64954638E-01   4.33677254E+01  -4.68947268E+00   1.00323362E+01
             2199                1   3.73730431E+01   3.22864227E+01   3.22864227E+01  -1.36157072E+00  -7.93850994E+00   3.22864227E+01   3.22864227E+01  -1.36157072E+00  -7.93850994E+00   4.02249298E+01  -7.66211319E+00   3.60363846E+01   5.17072082E-01   3.04077778E+01  -7.93850994E+00   7.72549534E+00
             2199                2   3.79170532E+01   3.26874008E+01   3.26874008E+01  -1.76254916E+00  -7.93850994E+00   3.26874008E+01   3.26874008E+01  -1.76254916E+00  -7.93850994E+00   4.06259079E+01  -7.66211319E+00   3.67598343E+01   9.77587104E-02   3.08270912E+01  -7.93850994E+00   7.78632021E+00
             2199                3   3.75504837E+01   3.24176140E+01   3.24176140E+01  -1.49276209E+00  -7.93850994E+00   3.24176140E+01   3.24176140E+01  -1.49276209E+00  -7.93850994E+00   4.03561211E+01  -7.66211319E+00   3.62743759E+01   5.95053136E-01   3.03297977E+01  -7.93850994E+00   8.15104961E+00
             2199                4   3.80919189E+01   3.28155289E+01   3.28155289E+01  -1.89067900E+00  -7.93850994E+00   3.28155289E+01   3.28155289E+01  -1.89067900E+00  -7.93850994E+00   4.07540398E+01  -7.66211319E+00   3.69885826E+01   1.75894693E-01   3.07489567E+01  -7.93850994E+00   8.21292782E+00
             2200                1   2.09845627E+02   1.77686905E+02   1.77686905E+02  -3.69194450E+01  -2.70497017E+01   1.77686905E+02   1.77686905E+02  -2.70497017E+01  -3.69194450E+01   2.14606339E+02  -3.79059181E+01   2.09322449E+02  -3.69164276E+01   1.77683884E+02  -2.70497017E+01   8.04484904E-01
             2200                2   2.10524963E+02   1.78029236E+02   1.78029236E+02  -3.90607986E+01  -2.52506676E+01   1.78029236E+02   1.78029236E+02  -2.52506676E+01  -3.90607986E+01   2.17090027E+02  -3.79059181E+01   2.09502213E+02  -3.89791718E+01   1.77947601E+02  -2.52506676E+01   4.20880604E+00
             2200                3   2.09297150E+02   1.77384003E+02   1.77384003E+02  -3.51743774E+01  -2.84918594E+01   1.77384003E+02   1.77384003E+02  -2.84918594E+01  -3.51743774E+01   2.12558380E+02  -3.79059219E+01   2.09056915E+02  -3.50641098E+01   1.77273727E+02  -2.84918594E+01   4.84024048E+00
             2200                4   2.10014587E+02   1.77775574E+02   1.77775574E+02  -3.74512138E+01  -2.66066074E+01   1.77775574E+02   1.77775574E+02  -2.66066074E+01  -3.74512138E+01   2.15226791E+02  -3.79059181E+01   2.09383224E+02  -3.71363029E+01   1.77460663E+02  -2.66066074E+01   8.22663403E+00
             2201                1   5.36853371E+01   4.93091164E+01   4.93091164E+01  -3.55550885E+00  -5.16091919E+00   4.93091164E+01   4.93091164E+01  -3.55550885E+00  -5.16091919E+00   5.44700356E+01  -1.35308962E+01   5.36312904E+01  -1.32314765E+00   4.70767555E+01  -5.16091919E+00   1.06315355E+01
             2201                2   5.32441597E+01   4.90099678E+01   4.90099678E+01  -3.25635886E+00  -5.16091919E+00   4.90099678E+01   4.90099678E+01  -3.25635886E+00  -5.16091919E+00   5.41708870E+01  -1.35308962E+01   5.31674385E+01  -9.24881876E-01   4.66784897E+01  -5.16091919E+00   1.07899027E+01
             2201                3   5.33294373E+01   4.90678673E+01   4.90678673E+01  -3.31425714E+00  -5.16091919E+00   4.90678673E+01   4.90678673E+01  -3.31425714E+00  -5.16091919E+00   5.42287865E+01  -1.35308962E+01   5.32574310E+01  -1.24093652E+00   4.69945450E+01  -5.16091919E+00   1.02130451E+01
             2201                4   5.28843269E+01   4.87652702E+01   4.87652702E+01  -3.01166582E+00  -5.16091919E+00   4.87652702E+01   4.87652702E+01  -3.01166582E+00  -5.16091919E+00   5.39261894E+01  -1.35308952E+01   5.27859306E+01  -8.44802618E-01   4.65984077E+01  -5.16091919E+00   1.03681355E+01
             2202                1   2.20000000E+02   2.32037720E+02   2.32037720E+02  -1.11849794E+01   4.69280319E+01   2.32037720E+02   2.32037720E+02   4.69280319E+01  -1.11849794E+01   2.43222702E+02  -8.92602539E+01   2.01618927E+02  -1.11057873E+01   2.31958527E+02   4.69280319E+01   4.38800192E+00
             2202                2   2.20000015E+02   2.31564133E+02   2.31564133E+02  -1.26413231E+01   4.88579826E+01   2.31564133E+02   2.31564133E+02   4.88579826E+01  -1.26413231E+01   2.44205444E+02  -8.92602615E+01   1.99241165E+02  -1.26210394E+01   2.31543839E+02   4.88579826E+01  -2.22587299E+00
             2202                3   2.20000000E+02   2.31456772E+02   2.31456772E+02  -1.29578991E+01   4.92819061E+01   2.31456772E+02   2.31456772E+02   4.92819061E+01  -1.29578991E+01   2.44414673E+02  -8.92602539E+01   1.98697281E+02  -1.25913372E+01   2.31090210E+02   4.92819061E+01   9.45823288E+00
             2202                4   2.20000000E+02   2.31020248E+02   2.31020248E+02  -1.41990376E+01   5.09595604E+01   2.31020248E+02   2.31020248E+02   5.09595604E+01  -1.41990376E+01   2.45219284E+02  -8.92602539E+01   1.96466232E+02  -1.41631947E+01   2.30984406E+02   5.09595604E+01   2.96456599E+00
             2203                1   2.20000015E+02   1.55231339E+02   1.55231339E+02  -6.65886459E+01  -6.29023552E+01   1.55231339E+02   1.55231339E+02  -6.29023552E+01  -6.65886459E+01   2.21819992E+02  -8.58011532E+00   2.19930511E+02  -6.65679626E+01   1.55210663E+02  -6.29023552E+01   2.14177585E+00
             2203                2   2.20000000E+02   1.55233627E+02   1.55233627E+02  -6.30459480E+01  -6.64473419E+01   1.55233627E+02   1.55233627E+02  -6.30459480E+01  -6.64473419E+01   2.21680969E+02  -8.58011341E+00   2.19940826E+02  -6.30017700E+01   1.55189453E+02  -6.64473419E+01   3.10501838E+00
             2203                3   2.20000000E+02   1.55236984E+02   1.55236984E+02  -6.62166519E+01  -6.32799873E+01   1.55236984E+02   1.55236984E+02  -6.32799873E+01  -6.62166519E+01   2.21453629E+02  -8.58011246E+00   2.19955902E+02  -6.61131287E+01   1.55133453E+02  -6.32799873E+01  -4.78702641E+00
             2203                4   2.20000000E+02   1.55226181E+02   1.55226181E+02  -6.26141663E+01  -6.68716736E+01   1.55226181E+02   1.55226181E+02  -6.26141663E+01  -6.68716736E+01   2.22097855E+02  -8.58011341E+00   2.19907288E+02  -6.25377617E+01   1.55149780E+02  -6.68716736E+01  -4.07893181E+00
             2204                1   1.99573120E+02   1.74222946E+02   1.74222946E+02  -2.65307293E+01  -2.41483040E+01   1.74222946E+02   1.74222946E+02  -2.41483040E+01  -2.65307293E+01   2.00753677E+02  -4.11813049E+01   1.99541122E+02  -2.65056553E+01   1.74197876E+02  -2.41483040E+01   2.24318624E+00
             2204                2   2.00088455E+02   1.74546906E+02   1.74546906E+02  -2.78130283E+01  -2.31899681E+01   1.74546906E+02   1.74546906E+02  -2.31899681E+01  -2.78130283E+01   2.02359924E+02  -4.11813011E+01   1.99968246E+02  -2.77434654E+01   1.74477341E+02  -2.31899681E+01   3.75117588E+00
             2204                3   1.99032578E+02   1.73868530E+02   1.73868530E+02  -2.56422920E+01  -2.46823330E+01   1.73868530E+02   1.73868530E+02  -2.46823330E+01  -2.56422920E+01   1.99510834E+02  -4.11813011E+01   1.99027374E+02  -2.55423393E+01   1.73768585E+02  -2.46823330E+01   4.46440887E+00
             2204                4   1.99564011E+02   1.74210739E+02   1.74210739E+02  -2.69583626E+01  -2.37084637E+01   1.74210739E+02   1.74210739E+02  -2.37084637E+01  -2.69583626E+01   2.01169113E+02  -4.11813049E+01   1.99504456E+02  -2.67815456E+01   1.74033920E+02  -2.37084637E+01   5.96155691E+00
             2205                1   2.20000000E+02   2.42291687E+02   2.42291687E+02  -2.15894651E+00   6.02088852E+01   2.42291687E+02   2.42291687E+02   6.02088852E+01  -2.15894651E+00   2.44450623E+02  -1.00113869E+02   1.98602341E+02  -2.14436579E+00   2.42277100E+02   6.02088852E+01  -1.88802099E+00
             2205                2   2.20000000E+02   2.41856995E+02   2.41856995E+02  -3.39200187E+00   6.18766212E+01   2.41856995E+02   2.41856995E+02   6.18766212E+01  -3.39200187E+00   2.45248993E+02  -1.00113869E+02   1.96379349E+02  -3.36260939E+00   2.41827606E+02   6.18766212E+01   2.68468308E+00
             2205                3   2.20000000E+02   2.42681519E+02   2.42681519E+02  -9.89147365E-01   5.86492577E+01   2.42681519E+02   2.42681519E+02   5.86492577E+01  -9.89147365E-01   2.43670670E+02  -1.00113869E+02   2.00569794E+02  -9.29677784E-01   2.42622040E+02   5.86492577E+01   3.80641699E+00
             2205                4   2.20000000E+02   2.42217850E+02   2.42217850E+02  -2.37340236E+00   6.04971542E+01   2.42217850E+02   2.42217850E+02   6.04971542E+01  -2.37340236E+00   2.44591263E+02  -1.00113869E+02   1.98227005E+02  -2.09169769E+00   2.41936157E+02   6.04971542E+01   8.29586029E+00
             2206                1   1.96304596E+02   1.73298370E+02   1.73298370E+02  -2.34504471E+01  -2.25589619E+01   1.73298370E+02   1.73298370E+02  -2.25589619E+01  -2.34504471E+01   1.96748825E+02  -4.24296570E+01   1.96300034E+02  -2.34379044E+01   1.73285828E+02  -2.25589619E+01   1.57128298E+00
             2206                2   1.96867386E+02   1.73664795E+02   1.73664795E+02  -2.45757732E+01  -2.18000698E+01   1.73664795E+02   1.73664795E+02  -2.18000698E+01  -2.45757732E+01   1.98240570E+02  -4.24296494E+01   1.96823364E+02  -2.45417099E+01   1.73630737E+02  -2.18000698E+01   2.59807158E+00
             2206                3   1.95871780E+02   1.73010834E+02   1.73010834E+02  -2.28202953E+01  -2.29015827E+01   1.73010834E+02   1.73010834E+02  -2.28202953E+01  -2.29015827E+01   1.95912415E+02  -4.24296532E+01   1.95871750E+02  -2.27596836E+01   1.72950226E+02  -2.29015827E+01   3.44451594E+00
             2206                4   1.96445419E+02   1.73389008E+02   1.73389008E+02  -2.39653263E+01  -2.21347294E+01   1.73389008E+02   1.73389008E+02  -2.21347294E+01  -2.39653263E+01   1.97354324E+02  -4.24296494E+01   1.96426239E+02  -2.38643284E+01   1.73288010E+02  -2.21347294E+01   4.46328020E+00
             2207                1   2.15371796E+02   1.49974915E+02   1.49974915E+02  -6.78940506E+01  -6.28096619E+01   1.49974915E+02   1.49974915E+02  -6.28096619E+01  -6.78940506E+01   2.17868958E+02  -6.42373419E+00   2.15236694E+02  -6.78843155E+01   1.49965179E+02  -6.28096619E+01   1.45651519E+00
             2207                2   2.14515289E+02   1.49432724E+02   1.49432724E+02  -6.45732346E+01  -6.55882874E+01   1.49432724E+02   1.49432724E+02  -6.45732346E+01  -6.55882874E+01   2.15021011E+02  -6.42373657E+00   2.14509888E+02  -6.45253143E+01   1.49384811E+02  -6.55882874E+01   3.20195198E+00
             2207                3   2.15244308E+02   1.49905151E+02   1.49905151E+02  -6.71010818E+01  -6.35328712E+01   1.49905151E+02   1.49905151E+02  -6.35328712E+01  -6.71010818E+01   2.17006241E+02  -6.42373514E+00   2.15177750E+02  -6.70020142E+01   1.49806091E+02  -6.35328712E+01  -4.63548183E+00
             2207                4   2.14369263E+02   1.49328079E+02   1.49328079E+02  -6.36783409E+01  -6.63785248E+01   1.49328079E+02   1.49328079E+02  -6.36783409E+01  -6.63785248E+01   2.15706604E+02  -6.42373657E+00   2.14330994E+02  -6.36351776E+01   1.49284912E+02  -6.63785248E+01  -3.03188825E+00
             2208                1   2.14892639E+02   1.82616302E+02   1.82616302E+02  -3.87555046E+01  -2.51507130E+01   1.82616302E+02   1.82616302E+02  -2.51507130E+01  -3.87555046E+01   2.21371811E+02  -3.95700264E+01   2.13920486E+02  -3.87036896E+01   1.82564484E+02  -2.51507130E+01  -3.38643384E+00
             2208                2   2.15765030E+02   1.83004700E+02   1.83004700E+02  -4.15311050E+01  -2.27635059E+01   1.83004700E+02   1.83004700E+02  -2.27635059E+01  -4.15311050E+01   2.24535797E+02  -3.95700264E+01   2.13917114E+02  -4.12400475E+01   1.82713638E+02  -2.27635059E+01  -8.07883263E+00
             2208                3   2.15691727E+02   1.82982666E+02   1.82982666E+02  -4.12055664E+01  -2.30670242E+01   1.82982666E+02   1.82982666E+02  -2.30670242E+01  -4.12055664E+01   2.24188232E+02  -3.95700264E+01   2.13965729E+02  -4.11926193E+01   1.82969727E+02  -2.30670242E+01   1.70306814E+00
             2208                4   2.16190994E+02   1.83088181E+02   1.83088181E+02  -4.36528091E+01  -2.07252922E+01   1.83088181E+02   1.83088181E+02  -2.07252922E+01  -4.36528091E+01   2.26740997E+02  -3.95700264E+01   2.13430054E+02  -4.36118507E+01   1.83047226E+02  -2.07252922E+01  -3.04726744E+00
             2209                1   2.20000000E+02   2.16869720E+02   2.16869720E+02  -2.31800251E+01   2.48581257E+01   2.16869720E+02   2.16869720E+02   2.48581257E+01  -2.31800251E+01   2.40049744E+02  -7.28492737E+01   2.07702118E+02  -2.31712399E+01   2.16860931E+02   2.48581257E+01   1.45272529E+00
             2209                2   2.20000000E+02   2.16413910E+02   2.16413910E+02  -2.49182262E+01   2.70521278E+01   2.16413910E+02   2.16413910E+02   2.70521278E+01  -2.49182262E+01   2.41332138E+02  -7.28492661E+01   2.05496643E+02  -2.48343773E+01   2.16330063E+02   2.70521278E+01  -4.49747610E+00
             2209                3   2.19999985E+02   2.16284622E+02   2.16284622E+02  -2.53836346E+01   2.76468239E+01   2.16284622E+02   2.16284622E+02   2.76468239E+01  -2.53836346E+01   2.41668259E+02  -7.28492661E+01   2.04865875E+02  -2.52709370E+01   2.16171921E+02   2.76468239E+01   5.21756887E+00
             2209                4   2.20000000E+02   2.15848297E+02   2.15848297E+02  -2.68777466E+01   2.95772514E+01   2.15848297E+02   2.15848297E+02   2.95772514E+01  -2.68777466E+01   2.42726044E+02  -7.28492661E+01   2.02719543E+02  -2.68767166E+01   2.15847275E+02   2.95772514E+01  -4.98040527E-01
             2210                1   2.16394241E+02   1.98979202E+02   1.98979202E+02  -2.86617603E+01  -4.06660032E+00   1.98979202E+02   1.98979202E+02  -4.06660032E+00  -2.86617603E+01   2.27640961E+02  -5.54169464E+01   2.13215607E+02  -2.86428375E+01   1.98960281E+02  -4.06660032E+00  -2.07543349E+00
             2210                2   2.16890579E+02   1.99006134E+02   1.99006134E+02  -3.11125431E+01  -1.64274836E+00   1.99006134E+02   1.99006134E+02  -1.64274836E+00  -3.11125431E+01   2.30118668E+02  -5.54169464E+01   2.12316147E+02  -3.10381889E+01   1.98931778E+02  -1.64274836E+00   4.13568449E+00
             2210                3   2.15914795E+02   1.98907394E+02   1.98907394E+02  -2.62076149E+01  -6.44893551E+00   1.98907394E+02   1.98907394E+02  -6.44893551E+00  -2.62076149E+01   2.25115021E+02  -5.54169502E+01   2.13866592E+02  -2.61311836E+01   1.98830963E+02  -6.44893551E+00   4.14739799E+00
             2210                4   2.16741791E+02   1.99178574E+02   1.99178574E+02  -2.90514679E+01  -3.87624693E+00   1.99178574E+02   1.99178574E+02  -3.87624693E+00  -2.90514679E+01   2.28230042E+02  -5.54169502E+01   2.13415192E+02  -2.85827103E+01   1.98709808E+02  -3.87624693E+00   1.03327885E+01
             2211                1   7.02507172E+01   6.54895172E+01   6.54895172E+01  -4.79505491E+00  -4.72728777E+00   6.54895172E+01   6.54895172E+01  -4.72728777E+00  -4.79505491E+00   7.02845764E+01  -1.86557255E+01   7.02506409E+01  -4.57430267E+00   6.52687683E+01  -4.72728777E+00   3.93277717E+00
             2211                2   7.00986176E+01   6.53881302E+01   6.53881302E+01  -4.69366741E+00  -4.72728777E+00   6.53881302E+01   6.53881302E+01  -4.69366741E+00  -4.72728777E+00   7.01154175E+01  -1.86557255E+01   7.00985947E+01  -4.45146370E+00   6.51459274E+01  -4.72728777E+00   4.11285210E+00
             2211                3   6.99627609E+01   6.52975082E+01   6.52975082E+01  -4.60304499E+00  -4.72728777E+00   6.52975082E+01   6.52975082E+01  -4.60304499E+00  -4.72728777E+00   7.00247955E+01  -1.86557255E+01   6.99625092E+01  -4.39493561E+00   6.50894012E+01  -4.72728777E+00   3.80836654E+00
             2211                4   6.98098602E+01   6.51954498E+01   6.51954498E+01  -4.50098276E+00  -4.72728777E+00   6.51954498E+01   6.51954498E+01  -4.50098276E+00  -4.72728777E+00   6.99227371E+01  -1.86557255E+01   6.98090363E+01  -4.27199554E+00   6.49664612E+01  -4.72728777E+00   3.98837614E+00
             2212                1   2.15323853E+02   2.17427948E+02   2.17427948E+02  -7.28816843E+00   1.29213228E+01   2.17427948E+02   2.17427948E+02   1.29213228E+01  -7.28816843E+00   2.24716125E+02  -7.43537064E+01   2.13174454E+02  -7.26663637E+00   2.17406418E+02   1.29213228E+01   2.19979143E+00
             2212                2   2.15572433E+02   2.17488525E+02   2.17488525E+02  -8.38549614E+00   1.39580784E+01   2.17488525E+02   2.17488525E+02   1.39580784E+01  -8.38549614E+00   2.25874023E+02  -7.43537064E+01   2.12943939E+02  -8.24931240E+00   2.17352341E+02   1.39580784E+01   5.54451847E+00
             2212                3   2.14874817E+02   2.17254349E+02   2.17254349E+02  -5.75386477E+00   1.15606127E+01   2.17254349E+02   2.17254349E+02   1.15606127E+01  -5.75386477E+00   2.23008224E+02  -7.43536987E+01   2.13296860E+02  -5.66092253E+00   2.17161407E+02   1.15606127E+01   4.55180740E+00
             2212                4   2.15135559E+02   2.17333008E+02   2.17333008E+02  -6.90620947E+00   1.26343117E+01   2.17333008E+02   2.17333008E+02   1.26343117E+01  -6.90620947E+00   2.24239227E+02  -7.43537064E+01   2.13125290E+02  -6.62996435E+00   2.17056763E+02   1.26343117E+01   7.86573935E+00
             2213                1   1.93224518E+02   1.77903320E+02   1.77903320E+02  -1.55883102E+01  -1.50529613E+01   1.77903320E+02   1.77903320E+02  -1.50529613E+01  -1.55883102E+01   1.93491638E+02  -4.90873528E+01   1.93222855E+02  -1.55576935E+01   1.77872711E+02  -1.50529613E+01   2.43374729E+00
             2213                2   1.92828888E+02   1.77639740E+02   1.77639740E+02  -1.49922686E+01  -1.53854074E+01   1.77639740E+02   1.77639740E+02  -1.49922686E+01  -1.53854074E+01   1.93025146E+02  -4.90873566E+01   1.92827972E+02  -1.49724302E+01   1.77619904E+02  -1.53854074E+01   1.95488834E+00
             2213                3   1.93545776E+02   1.78116592E+02   1.78116592E+02  -1.59241590E+01  -1.49303780E+01   1.78116592E+02   1.78116592E+02  -1.49303780E+01  -1.59241590E+01   1.94040741E+02  -4.90873528E+01   1.93540024E+02  -1.59122601E+01   1.78104691E+02  -1.49303780E+01   1.51936126E+00
             2213                4   1.93153625E+02   1.77856430E+02   1.77856430E+02  -1.53329153E+01  -1.52614584E+01   1.77856430E+02   1.77856430E+02  -1.52614584E+01  -1.53329153E+01   1.93189346E+02  -4.90873528E+01   1.93153595E+02  -1.53273354E+01   1.77850845E+02  -1.52614584E+01   1.03862500E+00
             2214                1   2.20000015E+02   1.64024719E+02   1.64024719E+02  -6.04255295E+01  -5.12371521E+01   1.64024719E+02   1.64024719E+02  -5.12371521E+01  -6.04255295E+01   2.24450241E+02  -1.74540100E+01   2.19567673E+02  -6.02773132E+01   1.63876495E+02  -5.12371521E+01   5.76586676E+00
             2214                2   2.20000000E+02   1.64111038E+02   1.64111038E+02  -5.73305130E+01  -5.44185028E+01   1.64111038E+02   1.64111038E+02  -5.44185028E+01  -5.73305130E+01   2.21441559E+02  -1.74540081E+01   2.19956635E+02  -5.69852371E+01   1.63765762E+02  -5.44185028E+01   8.73719215E+00
             2214                3   2.20000000E+02   1.64072418E+02   1.64072418E+02  -5.91127434E+01  -5.25976601E+01   1.64072418E+02   1.64072418E+02  -5.25976601E+01  -5.91127434E+01   2.23185165E+02  -1.74540062E+01   2.19782791E+02  -5.91106491E+01   1.64070328E+02  -5.25976601E+01  -6.84398890E-01
             2214                4   2.20000000E+02   1.64120651E+02   1.64120651E+02  -5.58143578E+01  -5.59442711E+01   1.64120651E+02   1.64120651E+02  -5.58143578E+01  -5.59442711E+01   2.20064926E+02  -1.74540081E+01   2.19999924E+02  -5.57944260E+01   1.64100723E+02  -5.59442711E+01   2.09378028E+00
             2215                1   3.93911324E+01   3.46697845E+01   3.46697845E+01  -1.55445254E+00  -7.26489782E+00   3.46697845E+01   3.46697845E+01  -1.55445254E+00  -7.26489782E+00   4.19346848E+01  -8.61681175E+00   3.84433365E+01   3.67914945E-01   3.27474174E+01  -7.26489782E+00   8.12039661E+00
             2215                2   3.99225693E+01   3.50535851E+01   3.50535851E+01  -1.93825495E+00  -7.26489782E+00   3.50535851E+01   3.50535851E+01  -1.93825495E+00  -7.26489782E+00   4.23184814E+01  -8.61681080E+00   3.91111107E+01  -3.81741449E-02   3.31535034E+01  -7.26489782E+00   8.16561031E+00
             2215                3   3.95756607E+01   3.48033829E+01   3.48033829E+01  -1.68804765E+00  -7.26489782E+00   3.48033829E+01   3.48033829E+01  -1.68804765E+00  -7.26489782E+00   4.20682793E+01  -8.61681175E+00   3.86768036E+01   4.30396348E-01   3.26849365E+01  -7.26489782E+00   8.53330326E+00
             2215                4   4.01047173E+01   3.51844749E+01   3.51844749E+01  -2.06914067E+00  -7.26489782E+00   3.51844749E+01   3.51844749E+01  -2.06914067E+00  -7.26489782E+00   4.24493713E+01  -8.61681175E+00   3.93368149E+01   2.47257464E-02   3.30906067E+01  -7.26489782E+00   8.58020115E+00
             2216                1   2.20000000E+02   2.18732330E+02   2.18732330E+02  -2.42463040E+00  -9.21635255E-02   2.18732330E+02   2.18732330E+02  -9.21635255E-02  -2.42463040E+00   2.21156952E+02  -7.20718460E+01   2.19972168E+02  -1.49780846E+00   2.17805496E+02  -9.21635255E-02   1.42868958E+01
             2216                2   2.20000000E+02   2.18734253E+02   2.18734253E+02  -2.22652030E+00  -2.92213529E-01   2.18734253E+02   2.18734253E+02  -2.92213529E-01  -2.22652030E+00   2.20960770E+02  -7.20718384E+01   2.19980881E+02  -1.57546639E+00   2.18083206E+02  -2.92213529E-01   1.19763403E+01
             2216                3   2.20000000E+02   2.18712769E+02   2.18712769E+02  -3.62786078E+00   1.13061368E+00   2.18712769E+02   2.18712769E+02   1.13061368E+00  -3.62786078E+00   2.22340637E+02  -7.20718460E+01   2.19884171E+02  -2.72482491E+00   2.17809738E+02   1.13061368E+00   1.41409521E+01
             2216                4   2.20000000E+02   2.18716675E+02   2.18716675E+02  -3.44223237E+00   9.41090643E-01   2.18716675E+02   2.18716675E+02   9.41090643E-01  -3.44223237E+00   2.22158905E+02  -7.20718460E+01   2.19901718E+02  -2.80661535E+00   2.18081055E+02   9.41090643E-01   1.18661337E+01
             2217                1   2.20000000E+02   1.72876587E+02   1.72876587E+02  -5.18344193E+01  -4.20884476E+01   1.72876587E+02   1.72876587E+02  -4.20884476E+01  -5.18344193E+01   2.24711014E+02  -2.63179092E+01   2.19513504E+02  -5.17295418E+01   1.72771713E+02  -4.20884476E+01   4.85353422E+00
             2217                2   2.20000000E+02   1.72695969E+02   1.72695969E+02  -5.48354721E+01  -3.89067802E+01   1.72695969E+02   1.72695969E+02  -3.89067802E+01  -5.48354721E+01   2.27531448E+02  -2.63179073E+01   2.18696991E+02  -5.48354149E+01   1.72695923E+02  -3.89067802E+01  -1.08341195E-01
             2217                3   2.20000000E+02   1.72739044E+02   1.72739044E+02  -5.42391739E+01  -3.95461464E+01   1.72739044E+02   1.72739044E+02  -3.95461464E+01  -5.42391739E+01   2.26978226E+02  -2.63179111E+01   2.18892014E+02  -5.36824188E+01   1.72182297E+02  -3.95461464E+01   1.12276964E+01
             2217                4   2.20000000E+02   1.72515945E+02   1.72515945E+02  -5.69268608E+01  -3.66353531E+01   1.72515945E+02   1.72515945E+02  -3.66353531E+01  -5.69268608E+01   2.29442795E+02  -2.63179092E+01   2.17879730E+02  -5.67604332E+01   1.72349518E+02  -3.66353531E+01   6.17710686E+00
             2218                1   2.20000000E+02   2.18905060E+02   2.18905060E+02  -1.84362912E+00  -3.38531613E-01   2.18905060E+02   2.18905060E+02  -3.38531613E-01  -1.84362912E+00   2.20748688E+02  -7.22409668E+01   2.19988419E+02  -9.95324314E-01   2.18056763E+02  -3.38531613E-01   1.36580057E+01
             2218                2   2.20000000E+02   2.18906708E+02   2.18906708E+02  -1.54365122E+00  -6.40148520E-01   2.18906708E+02   2.18906708E+02  -6.40148520E-01  -1.54365122E+00   2.20450348E+02  -7.22409668E+01   2.19995819E+02  -9.82773960E-01   2.18345825E+02  -6.40148520E-01   1.11054602E+01
             2218                3   2.20000000E+02   2.18887833E+02   2.18887833E+02  -3.16956615E+00   1.00464606E+00   2.18887833E+02   2.18887833E+02   1.00464606E+00  -3.16956615E+00   2.22057388E+02  -7.22409668E+01   2.19910873E+02  -2.38834310E+00   2.18106598E+02   1.00464606E+00   1.31479120E+01
             2218                4   2.20000000E+02   2.18892853E+02   2.18892853E+02  -2.88887906E+00   7.18936920E-01   2.18892853E+02   2.18892853E+02   7.18936920E-01  -2.88887906E+00   2.21781723E+02  -7.22409668E+01   2.19933441E+02  -2.37757301E+00   2.18381546E+02   7.18936920E-01   1.06365242E+01
             2219                1   2.20000000E+02   1.60622604E+02   1.60622604E+02  -6.22109108E+01  -5.64299164E+01   1.60622604E+02   1.60622604E+02  -5.64299164E+01  -6.22109108E+01   2.22833527E+02  -1.39939270E+01   2.19829010E+02  -6.21172638E+01   1.60528961E+02  -5.64299164E+01   4.56719255E+00
             2219                2   2.20000000E+02   1.60659790E+02   1.60659790E+02  -5.89155960E+01  -5.97624016E+01   1.60659790E+02   1.60659790E+02  -5.89155960E+01  -5.97624016E+01   2.20422180E+02  -1.39939280E+01   2.19996338E+02  -5.87241211E+01   1.60468307E+02  -5.97624016E+01   6.48126554E+00
             2219                3   2.20000000E+02   1.60641632E+02   1.60641632E+02  -6.13727646E+01  -5.72870712E+01   1.60641632E+02   1.60641632E+02  -5.72870712E+01  -6.13727646E+01   2.22014389E+02  -1.39939299E+01   2.19914612E+02  -6.13540688E+01   1.60622925E+02  -5.72870712E+01  -2.03748965E+00
             2219                4   2.20000000E+02   1.60651810E+02   1.60651810E+02  -5.79450607E+01  -6.07249718E+01   1.60651810E+02   1.60651810E+02  -5.79450607E+01  -6.07249718E+01   2.21376785E+02  -1.39939280E+01   2.19960480E+02  -5.79444885E+01   1.60651245E+02  -6.07249718E+01  -3.53659153E-01
             2220                1   2.20000000E+02   1.68774185E+02   1.68774185E+02  -5.77511177E+01  -4.40611191E+01   1.68774185E+02   1.68774185E+02  -4.40611191E+01  -5.77511177E+01   2.26525299E+02  -2.23206501E+01   2.19038589E+02  -5.75563164E+01   1.68579391E+02  -4.40611191E+01   6.63991404E+00
             2220                2   2.20000000E+02   1.68918152E+02   1.68918152E+02  -5.48782692E+01  -4.70779381E+01   1.68918152E+02   1.68918152E+02  -4.70779381E+01  -5.48782692E+01   2.23796417E+02  -2.23206482E+01   2.19688538E+02  -5.43834953E+01   1.68423386E+02  -4.70779381E+01   1.05110703E+01
             2220                3   2.20000000E+02   1.68867920E+02   1.68867920E+02  -5.60771217E+01  -4.58288383E+01   1.68867920E+02   1.68867920E+02  -4.58288383E+01  -5.60771217E+01   2.24945038E+02  -2.23206539E+01   2.19461975E+02  -5.60765724E+01   1.68867371E+02  -4.58288383E+01   3.52171212E-01
             2220                4   2.20000000E+02   1.68970123E+02   1.68970123E+02  -5.29497566E+01  -4.90583992E+01   1.68970123E+02   1.68970123E+02  -4.90583992E+01  -5.29497566E+01   2.21919876E+02  -2.23206539E+01   2.19922562E+02  -5.28749008E+01   1.68895264E+02  -4.90583992E+01   4.07502365E+00
             2221                1   2.20000000E+02   2.37265915E+02   2.37265915E+02  -5.64407444E+00   5.14210625E+01   2.37265915E+02   2.37265915E+02   5.14210625E+01  -5.64407444E+00   2.42909988E+02  -9.43476334E+01   2.02319275E+02  -5.55402899E+00   2.37175873E+02   5.14210625E+01   4.67591667E+00
             2221                2   2.20000000E+02   2.36865250E+02   2.36865250E+02  -6.90916395E+00   5.30868225E+01   2.36865250E+02   2.36865250E+02   5.30868225E+01  -6.90916395E+00   2.43774414E+02  -9.43476334E+01   2.00318665E+02  -6.90264034E+00   2.36858719E+02   5.30868225E+01  -1.26170743E+00
             2221                3   2.20000000E+02   2.36781769E+02   2.36781769E+02  -7.16336203E+00   5.34244957E+01   2.36781769E+02   2.36781769E+02   5.34244957E+01  -7.16336203E+00   2.43945129E+02  -9.43476334E+01   1.99898697E+02  -6.80901575E+00   2.36427429E+02   5.34244957E+01   9.29054260E+00
             2221                4   2.20000000E+02   2.36409988E+02   2.36409988E+02  -8.25964355E+00   5.48925667E+01   2.36409988E+02   2.36409988E+02   5.48925667E+01  -8.25964355E+00   2.44669632E+02  -9.43476334E+01   1.98014923E+02  -8.21118355E+00   2.36361526E+02   5.48925667E+01   3.44308949E+00
             2222                1   2.20000000E+02   1.58783401E+02   1.58783401E+02  -5.95414047E+01  -6.28543587E+01   1.58783401E+02   1.58783401E+02  -5.95414047E+01  -6.28543587E+01   2.21637772E+02  -1.21292152E+01   2.19943863E+02  -5.94970589E+01   1.58739059E+02  -6.28543587E+01   3.11133313E+00
             2222                2   2.20000000E+02   1.58776978E+02   1.58776978E+02  -5.91556282E+01  -6.32337151E+01   1.58776978E+02   1.58776978E+02  -5.91556282E+01  -6.32337151E+01   2.22010696E+02  -1.21292124E+01   2.19914932E+02  -5.90879631E+01   1.58709320E+02  -6.32337151E+01  -3.83945370E+00
             2222                3   2.20000000E+02   1.58781464E+02   1.58781464E+02  -6.29768791E+01  -5.94169540E+01   1.58781464E+02   1.58781464E+02  -5.94169540E+01  -6.29768791E+01   2.21758347E+02  -1.21292114E+01   2.19935181E+02  -6.29542313E+01   1.58758820E+02  -5.94169540E+01   2.24116158E+00
             2222                4   2.20000000E+02   1.58786392E+02   1.58786392E+02  -6.26444359E+01  -5.97543182E+01   1.58786392E+02   1.58786392E+02  -5.97543182E+01  -6.26444359E+01   2.21430817E+02  -1.21292114E+01   2.19957291E+02  -6.25545921E+01   1.58696548E+02  -5.97543182E+01  -4.45924520E+00
             2223                1   2.20000000E+02   2.26150146E+02   2.26150146E+02  -5.52610445E+00   2.00646381E+01   2.26150146E+02   2.26150146E+02   2.00646381E+01  -5.52610445E+00   2.31676254E+02  -8.02295609E+01   2.16613495E+02  -5.12267923E+00   2.25746719E+02   2.00646381E+01   9.65924072E+00
             2223                2   2.20000000E+02   2.26029785E+02   2.26029785E+02  -6.45652485E+00   2.11154156E+01   2.26029785E+02   2.26029785E+02   2.11154156E+01  -6.45652485E+00   2.32486313E+02  -8.02295609E+01   2.16061584E+02  -6.24959326E+00   2.25822845E+02   2.11154156E+01   6.93304634E+00
             2223                3   2.20000000E+02   2.26016251E+02   2.26016251E+02  -6.55679035E+00   2.12292194E+01   2.26016251E+02   2.26016251E+02   2.12292194E+01  -6.55679035E+00   2.32573044E+02  -8.02295609E+01   2.15999390E+02  -5.94358444E+00   2.25403046E+02   2.12292194E+01   1.19263687E+01
             2223                4   2.20000000E+02   2.25892899E+02   2.25892899E+02  -7.43375492E+00   2.22295399E+01   2.25892899E+02   2.25892899E+02   2.22295399E+01  -7.43375492E+00   2.33326645E+02  -8.02295609E+01   2.15431900E+02  -7.07040882E+00   2.25529541E+02   2.22295399E+01   9.20040417E+00
             2224                1   2.20000000E+02   1.89471329E+02   1.89471329E+02  -3.31308861E+01  -2.78306808E+01   1.89471329E+02   1.89471329E+02  -2.78306808E+01  -3.31308861E+01   2.22602203E+02  -4.28365898E+01   2.19856277E+02  -3.28570976E+01   1.89197540E+02  -2.78306808E+01   7.80191612E+00
             2224                2   2.20000000E+02   1.89502914E+02   1.89502914E+02  -3.07724838E+01  -3.02206631E+01   1.89502914E+02   1.89502914E+02  -3.02206631E+01  -3.07724838E+01   2.20275391E+02  -4.28365898E+01   2.19998444E+02  -3.03872013E+01   1.89117630E+02  -3.02206631E+01   9.20427608E+00
             2224                3   2.20000000E+02   1.89484909E+02   1.89484909E+02  -3.24959450E+01  -2.84792118E+01   1.89484909E+02   1.89484909E+02  -2.84792118E+01  -3.24959450E+01   2.21980865E+02  -4.28365822E+01   2.19917480E+02  -3.24519920E+01   1.89440964E+02  -2.84792118E+01   3.12314177E+00
             2224                4   2.20000000E+02   1.89502380E+02   1.89502380E+02  -3.00587616E+01  -3.09338589E+01   1.89502380E+02   1.89502380E+02  -3.00587616E+01  -3.09338589E+01   2.20436234E+02  -4.28365898E+01   2.19996078E+02  -2.99708672E+01   1.89414490E+02  -3.09338589E+01   4.39198875E+00
             2225                1   2.20000000E+02   1.67428619E+02   1.67428619E+02  -5.66926422E+01  -4.82044449E+01   1.67428619E+02   1.67428619E+02  -4.82044449E+01  -5.66926422E+01   2.24121262E+02  -2.08438435E+01   2.19631134E+02  -5.65161552E+01   1.67252136E+02  -4.82044449E+01   6.28665829E+00
             2225                2   2.20000000E+02   1.67503845E+02   1.67503845E+02  -5.36962471E+01  -5.12760735E+01   1.67503845E+02   1.67503845E+02  -5.12760735E+01  -5.36962471E+01   2.21200104E+02  -2.08438435E+01   2.19970032E+02  -5.33353729E+01   1.67142975E+02  -5.12760735E+01   8.92721748E+00
             2225                3   2.20000000E+02   1.67468063E+02   1.67468063E+02  -5.55235519E+01  -4.94129868E+01   1.67468063E+02   1.67468063E+02  -4.94129868E+01  -5.55235519E+01   2.22991608E+02  -2.08438416E+01   2.19808929E+02  -5.55235214E+01   1.67468033E+02  -4.94129868E+01   8.71822983E-02
             2225                4   2.20000000E+02   1.67510422E+02   1.67510422E+02  -5.23487434E+01  -5.26301460E+01   1.67510422E+02   1.67510422E+02  -5.23487434E+01  -5.26301460E+01   2.20140564E+02  -2.08438454E+01   2.19999603E+02  -5.23194733E+01   1.67481155E+02  -5.26301460E+01   2.53661513E+00
             2226                1   2.19999985E+02   2.18060303E+02   2.18060303E+02  -1.57939720E+01   1.52021885E+01   2.18060303E+02   2.18060303E+02   1.52021885E+01  -1.57939720E+01   2.33854263E+02  -7.24895096E+01   2.15005035E+02  -1.53298616E+01   2.17596191E+02   1.52021885E+01   1.04075975E+01
             2226                2   2.20000000E+02   2.17917969E+02   2.17917969E+02  -1.66945362E+01   1.62450886E+01   2.17917969E+02   2.17917969E+02   1.62450886E+01  -1.66945362E+01   2.34612503E+02  -7.24895096E+01   2.14346603E+02  -1.64168243E+01   2.17640259E+02   1.62450886E+01   8.06705475E+00
             2226                3   2.20000000E+02   2.17901703E+02   2.17901703E+02  -1.67938023E+01   1.63606262E+01   2.17901703E+02   2.17901703E+02   1.63606262E+01  -1.67938023E+01   2.34695496E+02  -7.24895096E+01   2.14271179E+02  -1.61686687E+01   2.17276566E+02   1.63606262E+01   1.20964804E+01
             2226                4   2.20000000E+02   2.17756805E+02   2.17756805E+02  -1.76482811E+01   1.73600044E+01   2.17756805E+02   2.17756805E+02   1.73600044E+01  -1.76482811E+01   2.35405090E+02  -7.24895096E+01   2.13598190E+02  -1.72429886E+01   2.17351517E+02   1.73600044E+01   9.75920010E+00
             2227                1   2.20000000E+02   2.36677109E+02   2.36677109E+02  -5.37280035E+00   4.88773232E+01   2.36677109E+02   2.36677109E+02   4.88773232E+01  -5.37280035E+00   2.42049911E+02  -9.33938828E+01   2.04120667E+02  -5.26715755E+00   2.36571457E+02   4.88773232E+01   5.05581665E+00
             2227                2   2.20000000E+02   2.36311340E+02   2.36311340E+02  -6.60051918E+00   5.04708252E+01   2.36311340E+02   2.36311340E+02   5.04708252E+01  -6.60051918E+00   2.42911850E+02  -9.33938828E+01   2.02315170E+02  -6.59952259E+00   2.36310333E+02   5.04708252E+01  -4.93230999E-01
             2227                3   2.20000000E+02   2.36235825E+02   2.36235825E+02  -6.84492636E+00   5.07907333E+01   2.36235825E+02   2.36235825E+02   5.07907333E+01  -6.84492636E+00   2.43080750E+02  -9.33938828E+01   2.01939987E+02  -6.48333740E+00   2.35874237E+02   5.07907333E+01   9.36827564E+00
             2227                4   2.20000000E+02   2.35893784E+02   2.35893784E+02  -7.91712427E+00   5.22049675E+01   2.35893784E+02   2.35893784E+02   5.22049675E+01  -7.91712427E+00   2.43810898E+02  -9.33938675E+01   2.00229675E+02  -7.85450220E+00   2.35831161E+02   5.22049675E+01   3.90675926E+00
             2228                1   2.20000000E+02   2.41548492E+02   2.41548492E+02  -2.06429005E+00   5.73753586E+01   2.41548492E+02   2.41548492E+02   5.73753586E+01  -2.06429005E+00   2.43612793E+02  -9.89531860E+01   2.00708527E+02  -2.05813003E+00   2.41542343E+02   5.73753586E+01  -1.22440624E+00
             2228                2   2.20000000E+02   2.41144089E+02   2.41144089E+02  -3.28141236E+00   5.89968948E+01   2.41144089E+02   2.41144089E+02   5.89968948E+01  -3.28141236E+00   2.44425491E+02  -9.89531860E+01   1.98668762E+02  -3.24422574E+00   2.41106903E+02   5.89968948E+01   3.01436925E+00
             2228                3   2.20000000E+02   2.41903442E+02   2.41903442E+02  -9.34102237E-01   5.58902321E+01   2.41903442E+02   2.41903442E+02   5.58902321E+01  -9.34102237E-01   2.42837555E+02  -9.89531937E+01   2.02477875E+02  -8.63134801E-01   2.41832474E+02   5.58902321E+01   4.15090466E+00
             2228                4   2.20000000E+02   2.41475388E+02   2.41475388E+02  -2.28959012E+00   5.76737747E+01   2.41475388E+02   2.41475388E+02   5.76737747E+01  -2.28959012E+00   2.43764969E+02  -9.89531860E+01   2.00341675E+02  -2.00595284E+00   2.41191742E+02   5.76737747E+01   8.31028461E+00
             2229                1   2.20000000E+02   1.94363068E+02   1.94363068E+02  -2.95821514E+01  -2.14671593E+01   1.94363068E+02   1.94363068E+02  -2.14671593E+01  -2.95821514E+01   2.23945221E+02  -4.77712517E+01   2.19662872E+02  -2.91167679E+01   1.93897675E+02  -2.14671593E+01   1.01983004E+01
             2229                2   2.20000000E+02   1.94263062E+02   1.94263062E+02  -3.16750240E+01  -1.92742939E+01   1.94263062E+02   1.94263062E+02  -1.92742939E+01  -3.16750240E+01   2.25938095E+02  -4.77712517E+01   2.19211594E+02  -3.14354420E+01   1.94023483E+02  -1.92742939E+01   7.35347700E+00
             2229                3   2.20000000E+02   1.94301025E+02   1.94301025E+02  -3.09801502E+01  -2.00071239E+01   1.94301025E+02   1.94301025E+02  -2.00071239E+01  -3.09801502E+01   2.25281174E+02  -4.77712517E+01   2.19383026E+02  -3.00260067E+01   1.93346878E+02  -2.00071239E+01   1.46301622E+01
             2229                4   2.20000000E+02   1.94181961E+02   1.94181961E+02  -3.29347992E+01  -1.79334068E+01   1.94181961E+02   1.94181961E+02  -1.79334068E+01  -3.29347992E+01   2.27116760E+02  -4.77712517E+01   2.18844833E+02  -3.23292007E+01   1.93576355E+02  -1.79334068E+01   1.17122536E+01
             2230                1   2.15328751E+02   1.99084152E+02   1.99084152E+02  -2.67118664E+01  -3.97254610E+00   1.99084152E+02   1.99084152E+02  -3.97254610E+00  -2.67118664E+01   2.25796021E+02  -5.61332436E+01   2.12602310E+02  -2.62310009E+01   1.98603287E+02  -3.97254610E+00   1.04089317E+01
             2230                2   2.14713196E+02   1.98899048E+02   1.98899048E+02  -2.42327709E+01  -6.26654482E+00   1.98899048E+02   1.98899048E+02  -6.26654482E+00  -2.42327709E+01   2.23131821E+02  -5.61332436E+01   2.13012207E+02  -2.41239471E+01   1.98790222E+02  -6.26654482E+00   4.92647171E+00
             2230                3   2.15572357E+02   1.99012833E+02   1.99012833E+02  -2.87060452E+01  -1.90705419E+00   1.99012833E+02   1.99012833E+02  -1.90705419E+00  -2.87060452E+01   2.27718887E+02  -5.61332436E+01   2.11776077E+02  -2.86076202E+01   1.98914413E+02  -1.90705419E+00   4.73324347E+00
             2230                4   2.15004745E+02   1.98881683E+02   1.98881683E+02  -2.64738388E+01  -4.00809574E+00   1.98881683E+02   1.98881683E+02  -4.00809574E+00  -2.64738388E+01   2.25355515E+02  -5.61332436E+01   2.12340027E+02  -2.64713936E+01   1.98879227E+02  -4.00809574E+00  -7.42969692E-01
             2231                1   2.20000000E+02   2.18830994E+02   2.18830994E+02  -3.83806252E+00   1.60091913E+00   2.18830994E+02   2.18830994E+02   1.60091913E+00  -3.83806252E+00   2.22669067E+02  -7.21979523E+01   2.19848648E+02  -2.84546542E+00   2.17838394E+02   1.60091913E+00   1.48336382E+01
             2231                2   2.20000000E+02   2.18852676E+02   2.18852676E+02  -2.74994850E+00   4.91114825E-01   2.18852676E+02   2.18852676E+02   4.91114825E-01  -2.74994850E+00   2.21602615E+02  -7.21979446E+01   2.19946259E+02  -1.81137013E+00   2.17914093E+02   4.91114825E-01   1.43913279E+01
             2231                3   2.20000000E+02   2.18831711E+02   2.18831711E+02  -3.80936241E+00   1.57149720E+00   2.18831711E+02   2.18831711E+02   1.57149720E+00  -3.80936241E+00   2.22641083E+02  -7.21979523E+01   2.19851868E+02  -3.08067250E+00   2.18103027E+02   1.57149720E+00   1.27163343E+01
             2231                4   2.20000000E+02   2.18853424E+02   2.18853424E+02  -2.69853401E+00   4.38951343E-01   2.18853424E+02   2.18853424E+02   4.38951343E-01  -2.69853401E+00   2.21551956E+02  -7.21979446E+01   2.19949646E+02  -2.02124095E+00   2.18176132E+02   4.38951343E-01   1.22309875E+01
             2232                1   2.20000000E+02   2.06400894E+02   2.06400894E+02  -1.42704029E+01  -1.29216213E+01   2.06400894E+02   2.06400894E+02  -1.29216213E+01  -1.42704029E+01   2.20671295E+02  -5.97362938E+01   2.19990707E+02  -1.39061375E+01   2.06036636E+02  -1.29216213E+01   8.95818138E+00
             2232                2   2.20000000E+02   2.06374146E+02   2.06374146E+02  -1.61004868E+01  -1.10647821E+01   2.06374146E+02   2.06374146E+02  -1.10647821E+01  -1.61004868E+01   2.22474625E+02  -5.97362862E+01   2.19870285E+02  -1.58216829E+01   2.06095337E+02  -1.10647821E+01   7.87074280E+00
             2232                3   2.20000000E+02   2.06395630E+02   2.06395630E+02  -1.48620806E+01  -1.23246908E+01   2.06395630E+02   2.06395630E+02  -1.23246908E+01  -1.48620806E+01   2.21257721E+02  -5.97362862E+01   2.19967072E+02  -1.41468945E+01   2.05680450E+02  -1.23246908E+01   1.25590038E+01
             2232                4   2.20000000E+02   2.06360260E+02   2.06360260E+02  -1.66401424E+01  -1.05112438E+01   2.06360260E+02   2.06360260E+02  -1.05112438E+01  -1.66401424E+01   2.23000412E+02  -5.97362938E+01   2.19807785E+02  -1.60561295E+01   2.05776245E+02  -1.05112438E+01   1.13971786E+01
             2233                1   2.20000000E+02   2.03396957E+02   2.03396957E+02  -3.43069153E+01   6.93929768E+00   2.03396957E+02   2.03396957E+02   6.93929768E+00  -3.43069153E+01   2.37703873E+02  -5.86764488E+01   2.11036316E+02  -3.41103058E+01   2.03200348E+02   6.93929768E+00   6.83347178E+00
             2233                2   2.20000000E+02   2.03697205E+02   2.03697205E+02  -3.28093834E+01   5.14151621E+00   2.03697205E+02   2.03697205E+02   5.14151621E+00  -3.28093834E+01   2.36506592E+02  -5.86764412E+01   2.12447525E+02  -3.22295647E+01   2.03117386E+02   5.14151621E+00   1.16959076E+01
             2233                3   2.20000000E+02   2.03740631E+02   2.03740631E+02  -3.25804367E+01   4.86913538E+00   2.03740631E+02   2.03740631E+02   4.86913538E+00  -3.25804367E+01   2.36321075E+02  -5.86764488E+01   2.12650772E+02  -3.25394287E+01   2.03699631E+02   4.86913538E+00   3.11274934E+00
             2233                4   2.20000000E+02   2.04040359E+02   2.04040359E+02  -3.08972855E+01   2.88626456E+00   2.04040359E+02   2.04040359E+02   2.88626456E+00  -3.08972855E+01   2.34937653E+02  -5.86764488E+01   2.14047241E+02  -3.06214619E+01   2.03764542E+02   2.88626456E+00   8.04521847E+00
             2234                1   2.20000000E+02   2.21436264E+02   2.21436264E+02   1.13826966E+00   1.73547947E+00   2.21436264E+02   2.21436264E+02   1.73547947E+00   1.13826966E+00   2.20298004E+02  -7.47700043E+01   2.19998184E+02   1.96922326E+00   2.20605316E+02   1.73547947E+00   1.35043278E+01
             2234                2   2.20000000E+02   2.21436432E+02   2.21436432E+02   1.21219862E+00   1.66137981E+00   2.21436432E+02   2.21436432E+02   1.66137981E+00   1.21219862E+00   2.20224243E+02  -7.47700043E+01   2.19998962E+02   1.79821265E+00   2.20850418E+02   1.66137981E+00   1.13451405E+01
             2234                3   2.20000000E+02   2.21427338E+02   2.21427338E+02   8.96649342E-03   2.87370563E+00   2.21427338E+02   2.21427338E+02   2.87370563E+00   8.96649342E-03   2.21418381E+02  -7.47700043E+01   2.19958023E+02   8.47501814E-01   2.20588806E+02   2.87370563E+00   1.36001616E+01
             2234                4   2.20000000E+02   2.21428345E+02   2.21428345E+02   8.65208209E-02   2.79516149E+00   2.21428345E+02   2.21428345E+02   2.79516149E+00   8.65208209E-02   2.21341827E+02  -7.47700119E+01   2.19962479E+02   6.82692587E-01   2.20832169E+02   2.79516149E+00   1.14718142E+01
             2235                1   2.20000000E+02   2.11410217E+02   2.11410217E+02  -2.54421234E+01   1.34495974E+01   2.11410217E+02   2.11410217E+02   1.34495974E+01  -2.54421234E+01   2.36852341E+02  -6.64725647E+01   2.12057983E+02  -2.50446606E+01   2.11012756E+02   1.34495974E+01   9.69441032E+00
             2235                2   2.20000000E+02   2.11560547E+02   2.11560547E+02  -2.46574020E+01   1.25145388E+01   2.11560547E+02   2.11560547E+02   1.25145388E+01  -2.46574020E+01   2.36217957E+02  -6.64725647E+01   2.12762039E+02  -2.43626461E+01   2.11265793E+02   1.25145388E+01   8.33912945E+00
             2235                3   2.20000000E+02   2.11275146E+02   2.11275146E+02  -2.61151180E+01   1.42576408E+01   2.11275146E+02   2.11275146E+02   1.42576408E+01  -2.61151180E+01   2.37390274E+02  -6.64725571E+01   2.11423203E+02  -2.58230820E+01   2.10983124E+02   1.42576408E+01   8.32101631E+00
             2235                4   2.20000000E+02   2.11421921E+02   2.11421921E+02  -2.53824139E+01   1.33781815E+01   2.11421921E+02   2.11421921E+02   1.33781815E+01  -2.53824139E+01   2.36804337E+02  -6.64725647E+01   2.12112900E+02  -2.51797180E+01   2.11219223E+02   1.33781815E+01   6.92517090E+00
             2236                1   2.20000000E+02   2.09428894E+02   2.09428894E+02  -1.30361528E+01  -8.02025890E+00   2.09428894E+02   2.09428894E+02  -8.02025890E+00  -1.30361528E+01   2.22465057E+02  -6.27908287E+01   2.19871292E+02  -1.23898754E+01   2.08782623E+02  -8.02025890E+00   1.19731379E+01
             2236                2   2.20000000E+02   2.09381973E+02   2.09381973E+02  -1.45801764E+01  -6.42930412E+00   2.09381973E+02   2.09381973E+02  -6.42930412E+00  -1.45801764E+01   2.23962158E+02  -6.27908325E+01   2.19659882E+02  -1.40691595E+01   2.08870956E+02  -6.42930412E+00   1.06859150E+01
             2236                3   2.20000000E+02   2.09410629E+02   2.09410629E+02  -1.37300682E+01  -7.30805683E+00   2.09410629E+02   2.09410629E+02  -7.30805683E+00  -1.37300682E+01   2.23140701E+02  -6.27908325E+01   2.19788956E+02  -1.27063789E+01   2.08386932E+02  -7.30805683E+00   1.50791130E+01
             2236                4   2.20000000E+02   2.09355499E+02   2.09355499E+02  -1.52277536E+01  -5.75525475E+00   2.09355499E+02   2.09355499E+02  -5.75525475E+00  -1.52277536E+01   2.24583252E+02  -6.27908325E+01   2.19540466E+02  -1.43843031E+01   2.08512054E+02  -5.75525475E+00   1.37372599E+01
             2237                1   2.19662354E+02   2.14825500E+02   2.14825500E+02  -2.24072437E+01   1.84787331E+01   2.14825500E+02   2.14825500E+02   1.84787331E+01  -2.24072437E+01   2.37232742E+02  -7.02989960E+01   2.10845001E+02  -2.16597595E+01   2.14078018E+02   1.84787331E+01   1.32954569E+01
             2237                2   2.19101624E+02   2.15095032E+02   2.15095032E+02  -1.87550049E+01   1.45569687E+01   2.15095032E+02   2.15095032E+02   1.45569687E+01  -1.87550049E+01   2.33850037E+02  -7.02990036E+01   2.13292480E+02  -1.87081909E+01   2.15048218E+02   1.45569687E+01   3.30832958E+00
             2237                3   2.19668640E+02   2.14371567E+02   2.14371567E+02  -2.44769554E+01   2.10024014E+01   2.14371567E+02   2.14371567E+02   2.10024014E+01  -2.44769554E+01   2.38848526E+02  -7.02990036E+01   2.08678040E+02  -2.44508572E+01   2.14345459E+02   2.10024014E+01   2.49688148E+00
             2237                4   2.19445602E+02   2.14815903E+02   2.14815903E+02  -2.16641178E+01   1.77452278E+01   2.14815903E+02   2.14815903E+02   1.77452278E+01  -2.16641178E+01   2.36480011E+02  -7.02990036E+01   2.11262955E+02  -2.14475727E+01   2.14599350E+02   1.77452278E+01  -7.15278578E+00
             2238                1   2.20000000E+02   2.20911713E+02   2.20911713E+02  -2.84374428E+00   4.87005091E+00   2.20911713E+02   2.20911713E+02   4.87005091E+00  -2.84374428E+00   2.23755447E+02  -7.43126755E+01   2.19695419E+02  -2.21077633E+00   2.20278732E+02   4.87005091E+00   1.18840590E+01
             2238                2   2.20000000E+02   2.20880661E+02   2.20880661E+02  -3.62983775E+00   5.68718481E+00   2.20880661E+02   2.20880661E+02   5.68718481E+00  -3.62983775E+00   2.24510498E+02  -7.43126678E+01   2.19555466E+02  -3.06479073E+00   2.20315613E+02   5.68718481E+00   1.12490072E+01
             2238                3   2.20000000E+02   2.20898804E+02   2.20898804E+02  -3.18893862E+00   5.22812891E+00   2.20898804E+02   2.20898804E+02   5.22812891E+00  -3.18893862E+00   2.24087753E+02  -7.43126678E+01   2.19637283E+02  -2.38381243E+00   2.20093689E+02   5.22812891E+00   1.34077988E+01
             2238                4   2.20000000E+02   2.20864365E+02   2.20864365E+02  -3.99137712E+00   6.06501055E+00   2.20864365E+02   2.20864365E+02   6.06501055E+00  -3.99137712E+00   2.24855743E+02  -7.43126678E+01   2.19481964E+02  -3.26777554E+00   2.20140762E+02   6.06501055E+00   1.27350760E+01
             2239                1   2.20000000E+02   1.64374100E+02   1.64374100E+02  -5.82660332E+01  -5.28871117E+01   1.64374100E+02   1.64374100E+02  -5.28871117E+01  -5.82660332E+01   2.22640137E+02  -1.77403164E+01   2.19851959E+02  -5.81616859E+01   1.64269745E+02  -5.28871117E+01   4.81891441E+00
             2239                2   2.20000000E+02   1.64405884E+02   1.64405884E+02  -5.50996246E+01  -5.60853043E+01   1.64405884E+02   1.64405884E+02  -5.50996246E+01  -5.60853043E+01   2.20491180E+02  -1.77403164E+01   2.19995026E+02  -5.49050217E+01   1.64211273E+02  -5.60853043E+01   6.53284645E+00
             2239                3   2.20000000E+02   1.64390030E+02   1.64390030E+02  -5.75160637E+01  -5.36530075E+01   1.64390030E+02   1.64390030E+02  -5.36530075E+01  -5.75160637E+01   2.21906082E+02  -1.77403183E+01   2.19923660E+02  -5.75059547E+01   1.64379913E+02  -5.36530075E+01  -1.49795830E+00
             2239                4   2.20000000E+02   1.64398636E+02   1.64398636E+02  -5.42332458E+01  -5.69444389E+01   1.64398636E+02   1.64398636E+02  -5.42332458E+01  -5.69444389E+01   2.21343079E+02  -1.77403164E+01   2.19962418E+02  -5.42332420E+01   1.64398636E+02  -5.69444389E+01  -5.51581103E-03
             2240                1   2.20000000E+02   1.72946503E+02   1.72946503E+02  -4.93380470E+01  -4.46954536E+01   1.72946503E+02   1.72946503E+02  -4.46954536E+01  -4.93380470E+01   2.22284546E+02  -2.63043365E+01   2.19889740E+02  -4.92136993E+01   1.72822159E+02  -4.46954536E+01   5.25595379E+00
             2240                2   2.20000000E+02   1.72969528E+02   1.72969528E+02  -4.64590073E+01  -4.75975227E+01   1.72969528E+02   1.72969528E+02  -4.64590073E+01  -4.75975227E+01   2.20567062E+02  -2.63043365E+01   2.19993378E+02  -4.62596397E+01   1.72770172E+02  -4.75975227E+01   6.61106491E+00
             2240                3   2.20000000E+02   1.72957535E+02   1.72957535E+02  -4.87434998E+01  -4.53010254E+01   1.72957535E+02   1.72957535E+02  -4.53010254E+01  -4.87434998E+01   2.21701035E+02  -2.63043365E+01   2.19939377E+02  -4.87426643E+01   1.72956696E+02  -4.53010254E+01  -4.31218594E-01
             2240                4   2.20000015E+02   1.72963928E+02   1.72963928E+02  -4.57778816E+01  -4.82730408E+01   1.72963928E+02   1.72963928E+02  -4.57778816E+01  -4.82730408E+01   2.21236969E+02  -2.63043365E+01   2.19968170E+02  -4.57754517E+01   1.72961502E+02  -4.82730408E+01   7.29330897E-01
             2241                1   2.18621521E+02   2.07287659E+02   2.07287659E+02  -2.40671196E+01   4.13685465E+00   2.07287659E+02   2.07287659E+02   4.13685465E+00  -2.40671196E+01   2.31354782E+02  -6.24524651E+01   2.14471222E+02  -2.40094891E+01   2.07230026E+02   4.13685465E+00   3.65096569E+00
             2241                2   2.18824982E+02   2.06987320E+02   2.06987320E+02  -2.69530792E+01   7.32315826E+00   2.06987320E+02   2.06987320E+02   7.32315826E+00  -2.69530792E+01   2.33940399E+02  -6.24524651E+01   2.12659332E+02  -2.66321926E+01   2.06666428E+02   7.32315826E+00  -8.65833282E+00
             2241                3   2.19282852E+02   2.07103745E+02   2.07103745E+02  -2.81852036E+01   8.43886566E+00   2.07103745E+02   2.07103745E+02   8.43886566E+00  -2.81852036E+01   2.35288940E+02  -6.24524651E+01   2.12237747E+02  -2.73166256E+01   2.06235153E+02   8.43886566E+00   1.42693329E+01
             2241                4   2.19381714E+02   2.06752487E+02   2.06752487E+02  -3.03350525E+01   1.09399500E+01   2.06752487E+02   2.06752487E+02   1.09399500E+01  -3.03350525E+01   2.37087540E+02  -6.24524651E+01   2.10378235E+02  -3.03161621E+01   2.06733597E+02   1.09399500E+01   2.11622381E+00
             2242                1   2.06515411E+02   1.73510025E+02   1.73510025E+02  -3.73545990E+01  -2.83624210E+01   1.73510025E+02   1.73510025E+02  -2.83624210E+01  -3.73545990E+01   2.10864624E+02  -3.59310036E+01   2.06074249E+02  -3.72791595E+01   1.73434586E+02  -2.83624210E+01   3.98773718E+00
             2242                2   2.05964386E+02   1.73184860E+02   1.73184860E+02  -3.60836945E+01  -2.93081532E+01   1.73184860E+02   1.73184860E+02  -2.93081532E+01  -3.60836945E+01   2.09268555E+02  -3.59310036E+01   2.05713409E+02  -3.58187637E+01   1.72919922E+02  -2.93081532E+01   7.44133425E+00
             2242                3   2.05744888E+02   1.73057037E+02   1.73057037E+02  -3.53996696E+01  -2.98643475E+01   1.73057037E+02   1.73057037E+02  -2.98643475E+01  -3.53996696E+01   2.08456696E+02  -3.59310036E+01   2.05577255E+02  -3.53890419E+01   1.73046402E+02  -2.98643475E+01   1.48854005E+00
             2242                4   2.05162521E+02   1.72693634E+02   1.72693634E+02  -3.40446167E+01  -3.08559914E+01   1.72693634E+02   1.72693634E+02  -3.08559914E+01  -3.40446167E+01   2.06738251E+02  -3.59310112E+01   2.05106750E+02  -3.39252243E+01   1.72574234E+02  -3.08559914E+01   4.96689987E+00
             2243                1   2.20000000E+02   2.07848190E+02   2.07848190E+02  -2.18696156E+01  -9.37790751E-01   2.07848190E+02   2.07848190E+02  -9.37790751E-01  -2.18696156E+01   2.29717804E+02  -6.16802635E+01   2.17742767E+02  -2.12885532E+01   2.07267136E+02  -9.37790751E-01   1.15386877E+01
             2243                2   2.20000000E+02   2.07701523E+02   2.07701523E+02  -2.32331963E+01   5.72469413E-01   2.07701523E+02   2.07701523E+02   5.72469413E-01  -2.32331963E+01   2.30934708E+02  -6.16802635E+01   2.17073929E+02  -2.28649464E+01   2.07333267E+02   5.72469413E-01   9.21446228E+00
             2243                3   2.20000000E+02   2.07720581E+02   2.07720581E+02  -2.30660782E+01   3.86293977E-01   2.07720581E+02   2.07720581E+02   3.86293977E-01  -2.30660782E+01   2.30786652E+02  -6.16802635E+01   2.17160965E+02  -2.21614819E+01   2.06815979E+02   3.86293977E-01   1.44204769E+01
             2243                4   2.20000000E+02   2.07569565E+02   2.07569565E+02  -2.43245144E+01   1.79574513E+00   2.07569565E+02   2.07569565E+02   1.79574513E+00  -2.43245144E+01   2.31894089E+02  -6.16802673E+01   2.16470200E+02  -2.36894855E+01   2.06934540E+02   1.79574513E+00   1.21184464E+01
             2244                1   2.20000000E+02   2.41046005E+02   2.41046005E+02  -8.60012233E-01   5.29282265E+01   2.41046005E+02   2.41046005E+02   5.29282265E+01  -8.60012233E-01   2.41906021E+02  -9.77047424E+01   2.04405350E+02  -7.77149677E-01   2.40963135E+02   5.29282265E+01   4.47650814E+00
             2244                2   2.20000000E+02   2.40729279E+02   2.40729279E+02  -1.93793845E+00   5.43228798E+01   2.40729279E+02   2.40729279E+02   5.43228798E+01  -1.93793845E+00   2.42667206E+02  -9.77047424E+01   2.02845764E+02  -1.93701065E+00   2.40728348E+02   5.43228798E+01  -4.74224210E-01
             2244                3   2.20000000E+02   2.40661880E+02   2.40661880E+02  -2.15998936E+00   5.46123161E+01   2.40661880E+02   2.40661880E+02   5.46123161E+01  -2.15998936E+00   2.42821869E+02  -9.77047348E+01   2.02512070E+02  -1.87782109E+00   2.40379715E+02   5.46123161E+01   8.27264118E+00
             2244                4   2.20000000E+02   2.40363297E+02   2.40363297E+02  -3.11584163E+00   5.58667755E+01   2.40363297E+02   2.40363297E+02   5.58667755E+01  -3.11584163E+00   2.43479141E+02  -9.77047424E+01   2.01025177E+02  -3.06859279E+00   2.40316040E+02   5.58667755E+01   3.39160609E+00
             2245                1   2.20000000E+02   2.30971649E+02   2.30971649E+02  -1.01184645E+01   4.10964508E+01   2.30971649E+02   2.30971649E+02   4.10964508E+01  -1.01184645E+01   2.41090103E+02  -8.73165512E+01   2.05936584E+02  -9.97128773E+00   2.30824463E+02   4.10964508E+01   5.95502424E+00
             2245                2   2.20000000E+02   2.30604034E+02   2.30604034E+02  -1.14354019E+01   4.27809868E+01   2.30604034E+02   2.30604034E+02   4.27809868E+01  -1.14354019E+01   2.42039429E+02  -8.73165359E+01   2.04141586E+02  -1.14351921E+01   2.30603821E+02   4.27809868E+01   2.23345935E-01
             2245                3   2.20000000E+02   2.30518158E+02   2.30518158E+02  -1.17307081E+01   4.31621895E+01   2.30518158E+02   2.30518158E+02   4.31621895E+01  -1.17307081E+01   2.42248856E+02  -8.73165512E+01   2.03719452E+02  -1.12899389E+01   2.30077377E+02   4.31621895E+01   1.03239107E+01
             2245                4   2.20000000E+02   2.30172897E+02   2.30172897E+02  -1.28758507E+01   4.46525879E+01   2.30172897E+02   2.30172897E+02   4.46525879E+01  -1.28758507E+01   2.43048737E+02  -8.73165512E+01   2.02011612E+02  -1.27853003E+01   2.30082336E+02   4.46525879E+01   4.69057846E+00
             2246                1   2.20000000E+02   1.91479919E+02   1.91479919E+02  -3.21839256E+01  -2.46633930E+01   1.91479919E+02   1.91479919E+02  -2.46633930E+01  -3.21839256E+01   2.23663834E+02  -4.48775330E+01   2.19710495E+02  -3.17613735E+01   1.91057358E+02  -2.46633930E+01   9.71246529E+00
             2246                2   2.20000000E+02   1.91533981E+02   1.91533981E+02  -2.99500675E+01  -2.69513187E+01   1.91533981E+02   1.91533981E+02  -2.69513187E+01  -2.99500675E+01   2.21484039E+02  -4.48775291E+01   2.19954010E+02  -2.93502827E+01   1.90934189E+02  -2.69513187E+01   1.15101395E+01
             2246                3   2.20000000E+02   1.91505020E+02   1.91505020E+02  -3.13716145E+01  -2.55008259E+01   1.91505020E+02   1.91505020E+02  -2.55008259E+01  -3.13716145E+01   2.22876633E+02  -4.48775291E+01   2.19823654E+02  -3.12520256E+01   1.91385437E+02  -2.55008259E+01   5.16124725E+00
             2246                4   2.20000000E+02   1.91542648E+02   1.91542648E+02  -2.90398388E+01  -2.78702164E+01   1.91542648E+02   1.91542648E+02  -2.78702164E+01  -2.90398388E+01   2.20582489E+02  -4.48775330E+01   2.19993011E+02  -2.88273735E+01   1.91330185E+02  -2.78702164E+01   6.84253693E+00
             2247                1   2.20000000E+02   1.62659760E+02   1.62659760E+02  -5.90147400E+01  -5.56266212E+01   1.62659760E+02   1.62659760E+02  -5.56266212E+01  -5.90147400E+01   2.21674500E+02  -1.60061359E+01   2.19941299E+02  -5.89893570E+01   1.62634384E+02  -5.56266212E+01   2.37168503E+00
             2247                2   2.20000000E+02   1.62661194E+02   1.62661194E+02  -5.57237473E+01  -5.89190521E+01   1.62661194E+02   1.62661194E+02  -5.57237473E+01  -5.89190521E+01   2.21580246E+02  -1.60061340E+01   2.19947784E+02  -5.56797333E+01   1.62617188E+02  -5.89190521E+01   3.09995055E+00
             2247                3   2.20000000E+02   1.62663651E+02   1.62663651E+02  -5.87420921E+01  -5.59031525E+01   1.62663651E+02   1.62663651E+02  -5.59031525E+01  -5.87420921E+01   2.21405746E+02  -1.60061340E+01   2.19958786E+02  -5.86688499E+01   1.62590408E+02  -5.59031525E+01  -4.02618027E+00
             2247                4   2.20000000E+02   1.62656189E+02   1.62656189E+02  -5.54081192E+01  -5.92296867E+01   1.62656189E+02   1.62656189E+02  -5.54081192E+01  -5.92296867E+01   2.21885880E+02  -1.60061302E+01   2.19925293E+02  -5.53507233E+01   1.62598801E+02  -5.92296867E+01  -3.53732634E+00
             2248                1   2.20000000E+02   2.23849655E+02   2.23849655E+02   4.36772156E+00   3.33523488E+00   2.23849655E+02   2.23849655E+02   4.36772156E+00   3.33523488E+00   2.20514420E+02  -7.71842041E+01   2.19994537E+02   5.09339428E+00   2.23123978E+02   3.33523488E+00   1.25994644E+01
             2248                2   2.20000000E+02   2.23849838E+02   2.23849838E+02   4.32690716E+00   3.37586761E+00   2.23849838E+02   2.23849838E+02   4.32690716E+00   3.37586761E+00   2.20473969E+02  -7.71842041E+01   2.19995361E+02   4.84429264E+00   2.23332443E+02   3.37586761E+00   1.06447983E+01
             2248                3   2.20000000E+02   2.23849503E+02   2.23849503E+02   3.30424619E+00   4.39884853E+00   2.23849503E+02   2.23849503E+02   4.39884853E+00   3.30424619E+00   2.20545258E+02  -7.71841965E+01   2.19993866E+02   4.06391048E+00   2.23089844E+02   4.39884853E+00   1.29213696E+01
             2248                4   2.20000000E+02   2.23849228E+02   2.23849228E+02   3.25278544E+00   4.45058203E+00   2.23849228E+02   2.23849228E+02   4.45058203E+00   3.25278544E+00   2.20596451E+02  -7.71841965E+01   2.19992661E+02   3.80243206E+00   2.23299591E+02   4.45058203E+00   1.09976072E+01
             2249                1   2.20000000E+02   1.54394547E+02   1.54394547E+02  -6.87029037E+01  -6.23713150E+01   1.54394547E+02   1.54394547E+02  -6.23713150E+01  -6.87029037E+01   2.23097443E+02  -7.77343988E+00   2.19794861E+02  -6.86375885E+01   1.54329224E+02  -6.23713150E+01   3.81673527E+00
             2249                2   2.20000000E+02   1.54439697E+02   1.54439697E+02  -6.52608032E+01  -6.58585739E+01   1.54439697E+02   1.54439697E+02  -6.52608032E+01  -6.58585739E+01   2.20298279E+02  -7.77343988E+00   2.19998169E+02  -6.50897675E+01   1.54268661E+02  -6.58585739E+01   6.12765408E+00
             2249                3   2.20000000E+02   1.54419312E+02   1.54419312E+02  -6.76884537E+01  -6.34105339E+01   1.54419312E+02   1.54419312E+02  -6.34105339E+01  -6.76884537E+01   2.22107758E+02  -7.77343893E+00   2.19906387E+02  -6.76441803E+01   1.54375031E+02  -6.34105339E+01  -3.13561130E+00
             2249                4   2.20000000E+02   1.54430298E+02   1.54430298E+02  -6.40864258E+01  -6.70235519E+01   1.54430298E+02   1.54430298E+02  -6.40864258E+01  -6.70235519E+01   2.21453857E+02  -7.77343988E+00   2.19955872E+02  -6.40813599E+01   1.54425232E+02  -6.70235519E+01  -1.05246186E+00
             2250                1   2.20000000E+02   1.75012222E+02   1.75012222E+02  -4.93336029E+01  -4.03678246E+01   1.75012222E+02   1.75012222E+02  -4.03678246E+01  -4.93336029E+01   2.24345825E+02  -2.84369297E+01   2.19588379E+02  -4.91918488E+01   1.74870468E+02  -4.03678246E+01   5.63752174E+00
             2250                2   2.20000000E+02   1.74849869E+02   1.74849869E+02  -5.22376289E+01  -3.73014374E+01   1.74849869E+02   1.74849869E+02  -3.73014374E+01  -5.22376289E+01   2.27087494E+02  -2.84369335E+01   2.18854889E+02  -5.22324142E+01   1.74844650E+02  -3.73014374E+01   1.08878851E+00
             2250                3   2.20000000E+02   1.74895569E+02   1.74895569E+02  -5.15549393E+01  -3.80298424E+01   1.74895569E+02   1.74895569E+02  -3.80298424E+01  -5.15549393E+01   2.26450516E+02  -2.84369297E+01   2.19061676E+02  -5.09389954E+01   1.74279633E+02  -3.80298424E+01   1.17941113E+01
             2250                4   2.20000000E+02   1.74694595E+02   1.74694595E+02  -5.41711311E+01  -3.52126617E+01   1.74694595E+02   1.74694595E+02  -3.52126617E+01  -5.41711311E+01   2.28865738E+02  -2.84369354E+01   2.18150818E+02  -5.39473267E+01   1.74470795E+02  -3.52126617E+01   7.15340376E+00
             2251                1   2.20000000E+02   1.78710144E+02   1.78710144E+02  -4.91090012E+01  -3.25329971E+01   1.78710144E+02   1.78710144E+02  -3.25329971E+01  -4.91090012E+01   2.27819153E+02  -3.23560524E+01   2.18588409E+02  -4.90044136E+01   1.78605560E+02  -3.25329971E+01   4.88022423E+00
             2251                2   2.20000000E+02   1.78441040E+02   1.78441040E+02  -5.19875641E+01  -2.93853207E+01   1.78441040E+02   1.78441040E+02  -2.93853207E+01  -5.19875641E+01   2.30428604E+02  -3.23560524E+01   2.17364838E+02  -5.19829445E+01   1.78436417E+02  -2.93853207E+01  -1.03203034E+00
             2251                3   2.20000000E+02   1.78462326E+02   1.78462326E+02  -5.17899437E+01  -2.96042309E+01   1.78462326E+02   1.78462326E+02  -2.96042309E+01  -5.17899437E+01   2.30252274E+02  -3.23560486E+01   2.17461884E+02  -5.12386589E+01   1.77911041E+02  -2.96042309E+01   1.12530012E+01
             2251                4   2.20000000E+02   1.78157623E+02   1.78157623E+02  -5.43200951E+01  -2.67693672E+01   1.78157623E+02   1.78157623E+02  -2.67693672E+01  -5.43200951E+01   2.32477707E+02  -3.23560524E+01   2.16067734E+02  -5.41992226E+01   1.78036743E+02  -2.67693672E+01   5.29963446E+00
             2252                1   2.14327820E+02   1.84010727E+02   1.84010727E+02  -3.96903458E+01  -1.95174484E+01   1.84010727E+02   1.84010727E+02  -1.95174484E+01  -3.96903458E+01   2.23701065E+02  -4.16009750E+01   2.12176163E+02  -3.96214828E+01   1.83941849E+02  -1.95174484E+01   3.92454910E+00
             2252                2   2.13934921E+02   1.83908508E+02   1.83908508E+02  -3.77671013E+01  -2.13384781E+01   1.83908508E+02   1.83908508E+02  -2.13384781E+01  -3.77671013E+01   2.21675613E+02  -4.16009750E+01   2.12508759E+02  -3.74284706E+01   1.83569870E+02  -2.13384781E+01   8.65751171E+00
             2252                3   2.13723801E+02   1.83793427E+02   1.83793427E+02  -3.73649788E+01  -2.16255264E+01   1.83793427E+02   1.83793427E+02  -2.16255264E+01  -3.73649788E+01   2.21158417E+02  -4.16009750E+01   2.12413986E+02  -3.73635712E+01   1.83792023E+02  -2.16255264E+01  -5.58279514E-01
             2252                4   2.13287964E+02   1.83634262E+02   1.83634262E+02  -3.52317810E+01  -2.35995598E+01   1.83634262E+02   1.83634262E+02  -2.35995598E+01  -3.52317810E+01   2.18866043E+02  -4.16009712E+01   2.12572540E+02  -3.51525230E+01   1.83555008E+02  -2.35995598E+01   4.16412306E+00
             2253                1   2.20000000E+02   2.22553131E+02   2.22553131E+02  -1.29700890E+01   2.23499508E+01   2.22553131E+02   2.22553131E+02   2.23499508E+01  -1.29700890E+01   2.35523209E+02  -7.73109970E+01   2.13481079E+02  -1.26031647E+01   2.22186203E+02   2.23499508E+01   9.28894424E+00
             2253                2   2.20000000E+02   2.22708542E+02   2.22708542E+02  -1.20610199E+01   2.12854595E+01   2.22708542E+02   2.22708542E+02   2.12854595E+01  -1.20610199E+01   2.34769562E+02  -7.73109970E+01   2.14203293E+02  -1.14176044E+01   2.22065125E+02   2.12854595E+01   1.22735844E+01
             2253                3   2.20000000E+02   2.22747147E+02   2.22747147E+02  -1.18259840E+01   2.10118294E+01   2.22747147E+02   2.22747147E+02   2.10118294E+01  -1.18259840E+01   2.34573120E+02  -7.73109970E+01   2.14382187E+02  -1.16189051E+01   2.22540070E+02   2.10118294E+01   6.96639442E+00
             2253                4   2.20000000E+02   2.22900513E+02   2.22900513E+02  -1.08494253E+01   1.98818989E+01   2.22900513E+02   2.22900513E+02   1.98818989E+01  -1.08494253E+01   2.33749939E+02  -7.73109970E+01   2.15091461E+02  -1.04236116E+01   2.22474701E+02   1.98818989E+01   9.96754074E+00
             2254                1   2.12091476E+02   1.92194885E+02   1.92194885E+02  -2.74000759E+01  -1.14979105E+01   1.92194885E+02   1.92194885E+02  -1.14979105E+01  -2.74000759E+01   2.19594971E+02  -5.10989685E+01   2.10743942E+02  -2.73835144E+01   1.92178329E+02  -1.14979105E+01  -1.90702569E+00
             2254                2   2.11507172E+02   1.91923523E+02   1.91923523E+02  -2.54853363E+01  -1.31412783E+01   1.91923523E+02   1.91923523E+02  -1.31412783E+01  -2.54853363E+01   2.17408859E+02  -5.10989685E+01   2.10694427E+02  -2.53521481E+01   1.91790329E+02  -1.31412783E+01  -5.37957764E+00
             2254                3   2.12550827E+02   1.92351242E+02   1.92351242E+02  -2.92806110E+01  -9.77372646E+00   1.92351242E+02   1.92351242E+02  -9.77372646E+00  -2.92806110E+01   2.21631851E+02  -5.10989685E+01   2.10522812E+02  -2.91472816E+01   1.92217911E+02  -9.77372646E+00  -5.43442822E+00
             2254                4   2.11982544E+02   1.92115402E+02   1.92115402E+02  -2.74491577E+01  -1.13693419E+01   1.92115402E+02   1.92115402E+02  -1.13693419E+01  -2.74491577E+01   2.19564560E+02  -5.10989685E+01   2.10603867E+02  -2.70932655E+01   1.91759506E+02  -1.13693419E+01  -8.83262825E+00
             2255                1   2.20000000E+02   2.38988739E+02   2.38988739E+02  -6.29967308E+00   5.91152382E+01   2.38988739E+02   2.38988739E+02   5.91152382E+01  -6.29967308E+00   2.45288422E+02  -9.72681046E+01   1.96263504E+02  -6.27915907E+00   2.38968231E+02   5.91152382E+01   2.24305415E+00
             2255                2   2.20000000E+02   2.38361923E+02   2.38361923E+02  -7.95927429E+00   6.14016647E+01   2.38361923E+02   2.38361923E+02   6.14016647E+01  -7.95927429E+00   2.46321198E+02  -9.72681046E+01   1.92998047E+02  -7.82973862E+00   2.38232391E+02   6.14016647E+01  -5.64708900E+00
             2255                3   2.20000000E+02   2.38257812E+02   2.38257812E+02  -8.22335148E+00   6.17698631E+01   2.38257812E+02   2.38257812E+02   6.17698631E+01  -8.22335148E+00   2.46481155E+02  -9.72681046E+01   1.92448746E+02  -7.91421366E+00   2.37948669E+02   6.17698631E+01   8.72357750E+00
             2255                4   2.20000000E+02   2.37693909E+02   2.37693909E+02  -9.60237885E+00   6.37127724E+01   2.37693909E+02   2.37693909E+02   6.37127724E+01  -9.60237885E+00   2.47296295E+02  -9.72681046E+01   1.89437805E+02  -9.59862709E+00   2.37690170E+02   6.37127724E+01   9.62425351E-01
             2256                1   2.20000000E+02   2.39769028E+02   2.39769028E+02  -1.83322251E+00   5.09880257E+01   2.39769028E+02   2.39769028E+02   5.09880257E+01  -1.83322251E+00   2.41602249E+02  -9.63079453E+01   2.04991592E+02  -1.83310664E+00   2.39768906E+02   5.09880257E+01   1.72460556E-01
             2256                2   2.20000000E+02   2.39432266E+02   2.39432266E+02  -3.00137329E+00   5.24929276E+01   2.39432266E+02   2.39432266E+02   5.24929276E+01  -3.00137329E+00   2.42433640E+02  -9.63079453E+01   2.03338699E+02  -2.94411898E+00   2.39375015E+02   5.24929276E+01   3.72509170E+00
             2256                3   2.20000000E+02   2.40052277E+02   2.40052277E+02  -7.93358743E-01   4.96649055E+01   2.40052277E+02   2.40052277E+02   4.96649055E+01  -7.93358743E-01   2.40845627E+02  -9.63079453E+01   2.06369461E+02  -6.96162581E-01   2.39955078E+02   4.96649055E+01   4.83722639E+00
             2256                4   2.20000000E+02   2.39701630E+02   2.39701630E+02  -2.07260203E+00   5.12947960E+01   2.39701630E+02   2.39701630E+02   5.12947960E+01  -2.07260203E+00   2.41774231E+02  -9.63079453E+01   2.04662109E+02  -1.78572726E+00   2.39414749E+02   5.12947960E+01   8.32335281E+00
             2257                1   2.20000000E+02   1.94400497E+02   1.94400497E+02  -2.79090347E+01  -2.32148209E+01   1.94400497E+02   1.94400497E+02  -2.32148209E+01  -2.79090347E+01   2.22309540E+02  -4.77588806E+01   2.19887283E+02  -2.76303520E+01   1.94121826E+02  -2.32148209E+01   7.86607409E+00
             2257                2   2.20000000E+02   1.94425507E+02   1.94425507E+02  -2.56695747E+01  -2.54792805E+01   1.94425507E+02   1.94425507E+02  -2.54792805E+01  -2.56695747E+01   2.20095093E+02  -4.77588844E+01   2.19999817E+02  -2.53011456E+01   1.94057083E+02  -2.54792805E+01   8.99740601E+00
             2257                3   2.20000000E+02   1.94410370E+02   1.94410370E+02  -2.73944740E+01  -2.37392292E+01   1.94410370E+02   1.94410370E+02  -2.37392292E+01  -2.73944740E+01   2.21804840E+02  -4.77588921E+01   2.19931656E+02  -2.73401394E+01   1.94356033E+02  -2.37392292E+01   3.47130561E+00
             2257                4   2.20000000E+02   1.94424515E+02   1.94424515E+02  -2.50946045E+01  -2.60532398E+01   1.94424515E+02   1.94424515E+02  -2.50946045E+01  -2.60532398E+01   2.20477753E+02  -4.77588921E+01   2.19995300E+02  -2.50031166E+01   1.94333023E+02  -2.60532398E+01   4.48061323E+00
             2258                1   2.20000000E+02   1.66957520E+02   1.66957520E+02  -5.15068779E+01  -5.45465736E+01   1.66957520E+02   1.66957520E+02  -5.15068779E+01  -5.45465736E+01   2.21504089E+02  -2.03013554E+01   2.19952728E+02  -5.14623909E+01   1.66913025E+02  -5.45465736E+01   3.11733747E+00
             2258                2   2.20000000E+02   1.66953003E+02   1.66953003E+02  -5.12061386E+01  -5.48427887E+01   1.66953003E+02   1.66953003E+02  -5.12061386E+01  -5.48427887E+01   2.21795792E+02  -2.03013554E+01   2.19932358E+02  -5.11598053E+01   1.66906662E+02  -5.48427887E+01  -3.17899561E+00
             2258                3   2.20000000E+02   1.66956207E+02   1.66956207E+02  -5.46380005E+01  -5.14141426E+01   1.66956207E+02   1.66956207E+02  -5.14141426E+01  -5.46380005E+01   2.21594208E+02  -2.03013515E+01   2.19946838E+02  -5.46113968E+01   1.66929596E+02  -5.14141426E+01   2.42804384E+00
             2258                4   2.20000000E+02   1.66959747E+02   1.66959747E+02  -5.43771706E+01  -5.16785088E+01   1.66959747E+02   1.66959747E+02  -5.16785088E+01  -5.43771706E+01   2.21336914E+02  -2.03013573E+01   2.19962753E+02  -5.43171539E+01   1.66899734E+02  -5.16785088E+01  -3.64416575E+00
             2259                1   2.08391174E+02   1.72056320E+02   1.72056320E+02  -4.12095909E+01  -3.10914993E+01   1.72056320E+02   1.72056320E+02  -3.10914993E+01  -4.12095909E+01   2.13265915E+02  -3.32517433E+01   2.07837433E+02  -4.11449318E+01   1.71991653E+02  -3.10914993E+01   3.71299410E+00
             2259                2   2.07892609E+02   1.71777573E+02   1.71777573E+02  -3.98048477E+01  -3.22174835E+01   1.71777573E+02   1.71777573E+02  -3.22174835E+01  -3.98048477E+01   2.11582413E+02  -3.32517433E+01   2.07580734E+02  -3.95346451E+01   1.71507355E+02  -3.22174835E+01   7.55639505E+00
             2259                3   2.07754608E+02   1.71707062E+02   1.71707062E+02  -3.91252480E+01  -3.28265991E+01   1.71707062E+02   1.71707062E+02  -3.28265991E+01  -3.91252480E+01   2.10832321E+02  -3.32517395E+01   2.07539627E+02  -3.91218185E+01   1.71703644E+02  -3.28265991E+01   8.49390447E-01
             2259                4   2.07223938E+02   1.71385422E+02   1.71385422E+02  -3.76139526E+01  -3.40162392E+01   1.71385422E+02   1.71385422E+02  -3.40162392E+01  -3.76139526E+01   2.08999374E+02  -3.32517433E+01   2.07153656E+02  -3.75071068E+01   1.71278580E+02  -3.40162392E+01   4.72422647E+00
             2260                1   2.20000000E+02   2.26485596E+02   2.26485596E+02   7.67474651E+00   5.31540537E+00   2.26485596E+02   2.26485596E+02   7.67474651E+00   5.31540537E+00   2.21170181E+02  -7.98252487E+01   2.19971542E+02   8.30630302E+00   2.25854034E+02   5.31540537E+00   1.17385263E+01
             2260                2   2.20000000E+02   2.26486954E+02   2.26486954E+02   7.53934431E+00   5.44944191E+00   2.26486954E+02   2.26486954E+02   7.53934431E+00   5.44944191E+00   2.21037506E+02  -7.98252487E+01   2.19977661E+02   7.98443747E+00   2.26041855E+02   5.44944191E+00   9.86172676E+00
             2260                3   2.20000000E+02   2.26491760E+02   2.26491760E+02   6.67466259E+00   6.30931616E+00   2.26491760E+02   2.26491760E+02   6.67466259E+00   6.30931616E+00   2.20182449E+02  -7.98252487E+01   2.19999329E+02   7.35390949E+00   2.25812515E+02   6.30931616E+00   1.22003832E+01
             2260                4   2.20000000E+02   2.26491898E+02   2.26491898E+02   6.56018114E+00   6.42365885E+00   2.26491898E+02   2.26491898E+02   6.56018114E+00   6.42365885E+00   2.20068237E+02  -7.98252487E+01   2.19999908E+02   7.04736900E+00   2.26004715E+02   6.42365885E+00   1.03397045E+01
             2261                1   2.20000000E+02   1.78852036E+02   1.78852036E+02  -4.61689186E+01  -3.57573013E+01   1.78852036E+02   1.78852036E+02  -3.57573013E+01  -4.61689186E+01   2.25020966E+02  -3.23086052E+01   2.19444672E+02  -4.58417053E+01   1.78524826E+02  -3.57573013E+01   8.57455921E+00
             2261                2   2.20000000E+02   1.78944504E+02   1.78944504E+02  -4.36112595E+01  -3.84074211E+01   1.78944504E+02   1.78944504E+02  -3.84074211E+01  -4.36112595E+01   2.22555756E+02  -3.23086052E+01   2.19861465E+02  -4.30332184E+01   1.78366455E+02  -3.84074211E+01   1.13275175E+01
             2261                3   2.20000000E+02   1.78903824E+02   1.78903824E+02  -4.49535141E+01  -3.70244904E+01   1.78903824E+02   1.78903824E+02  -3.70244904E+01  -4.49535141E+01   2.23857330E+02  -3.23086052E+01   2.19678177E+02  -4.49090233E+01   1.78859329E+02  -3.70244904E+01   3.15544271E+00
             2261                4   2.20000000E+02   1.78968674E+02   1.78968674E+02  -4.22272720E+01  -3.98155861E+01   1.78968674E+02   1.78968674E+02  -3.98155861E+01  -4.22272720E+01   2.21195938E+02  -3.23086052E+01   2.19970261E+02  -4.20766983E+01   1.78818100E+02  -3.98155861E+01   5.76907682E+00
             2262                1   2.20000000E+02   2.18103714E+02   2.18103714E+02  -1.56272135E+01   1.50559540E+01   2.18103714E+02   2.18103714E+02   1.50559540E+01  -1.56272135E+01   2.33730927E+02  -7.25108185E+01   2.15107071E+02  -1.51238327E+01   2.17600327E+02   1.50559540E+01   1.08353100E+01
             2262                2   2.20000000E+02   2.18216599E+02   2.18216599E+02  -1.48575783E+01   1.41734200E+01   2.18216599E+02   2.18216599E+02   1.41734200E+01  -1.48575783E+01   2.33074188E+02  -7.25108109E+01   2.15627426E+02  -1.41849699E+01   2.17543991E+02   1.41734200E+01   1.25026388E+01
             2262                3   2.20000000E+02   2.18223526E+02   2.18223526E+02  -1.48089533E+01   1.41178818E+01   2.18223526E+02   2.18223526E+02   1.41178818E+01  -1.48089533E+01   2.33032471E+02  -7.25108109E+01   2.15659225E+02  -1.44414177E+01   2.17855988E+02   1.41178818E+01   9.24726105E+00
             2262                4   2.20000000E+02   2.18332443E+02   2.18332443E+02  -1.40151215E+01   1.32151184E+01   2.18332443E+02   2.18332443E+02   1.32151184E+01  -1.40151215E+01   2.32347565E+02  -7.25108109E+01   2.16159866E+02  -1.35034790E+01   2.17820801E+02   1.32151184E+01   1.08911505E+01
             2263                1   2.20000000E+02   2.10738205E+02   2.10738205E+02  -9.59391975E+00  -8.92816257E+00   2.10738205E+02   2.10738205E+02  -8.92816257E+00  -9.59391975E+00   2.20332123E+02  -6.40720444E+01   2.19997742E+02  -9.24291992E+00   2.10387207E+02  -8.92816257E+00   8.78711510E+00
             2263                2   2.19999985E+02   2.10719330E+02   2.10719330E+02  -1.13155575E+01  -7.18766880E+00   2.10719330E+02   2.10719330E+02  -7.18766880E+00  -1.13155575E+01   2.22034897E+02  -6.40720367E+01   2.19912842E+02  -1.10355787E+01   2.10439362E+02  -7.18766880E+00   7.87943888E+00
             2263                3   2.20000000E+02   2.10735550E+02   2.10735550E+02  -1.00919561E+01  -8.42747974E+00   2.10735550E+02   2.10735550E+02  -8.42747974E+00  -1.00919561E+01   2.20827515E+02  -6.40720444E+01   2.19985825E+02  -9.42297554E+00   2.10066574E+02  -8.42747974E+00   1.21359921E+01
             2263                4   2.20000000E+02   2.10709702E+02   2.10709702E+02  -1.17730989E+01  -6.72046900E+00   2.10709702E+02   2.10709702E+02  -6.72046900E+00  -1.17730989E+01   2.22482803E+02  -6.40720444E+01   2.19869400E+02  -1.12117214E+01   2.10148315E+02  -6.72046900E+00   1.11616707E+01
             2264                1   4.69086456E+01   4.26770401E+01   4.26770401E+01  -2.73354816E+00  -5.59835196E+00   4.26770401E+01   4.26770401E+01  -2.73354816E+00  -5.59835196E+00   4.82753944E+01  -1.14483805E+01   4.67112160E+01  -4.54218835E-01   4.03977127E+01  -5.59835196E+00   9.91515541E+00
             2264                2   4.64376564E+01   4.23519897E+01   4.23519897E+01  -2.40849781E+00  -5.59835196E+00   4.23519897E+01   4.23519897E+01  -2.40849781E+00  -5.59835196E+00   4.79503441E+01  -1.14483805E+01   4.61901970E+01  -8.50937366E-02   4.00285873E+01  -5.59835196E+00   9.92967606E+00
             2264                3   4.66705093E+01   4.25128708E+01   4.25128708E+01  -2.56937265E+00  -5.59835196E+00   4.25128708E+01   4.25128708E+01  -2.56937265E+00  -5.59835196E+00   4.81112213E+01  -1.14483824E+01   4.64485855E+01  -4.51478422E-01   4.03949738E+01  -5.59835196E+00   9.53907776E+00
             2264                4   4.61985245E+01   4.21864090E+01   4.21864090E+01  -2.24291658E+00  -5.59835196E+00   4.21864090E+01   4.21864090E+01  -2.24291658E+00  -5.59835196E+00   4.77847595E+01  -1.14483805E+01   4.59231682E+01  -8.10653791E-02   4.00245590E+01  -5.59835196E+00   9.55907726E+00
             2265                1   2.20000000E+02   1.80178940E+02   1.80178940E+02  -4.73467178E+01  -3.14310131E+01   1.80178940E+02   1.80178940E+02  -3.14310131E+01  -4.73467178E+01   2.27525650E+02  -3.38003998E+01   2.18699112E+02  -4.71961899E+01   1.80028412E+02  -3.14310131E+01   5.85020256E+00
             2265                2   2.20000000E+02   1.79931549E+02   1.79931549E+02  -5.01094398E+01  -2.84209003E+01   1.79931549E+02   1.79931549E+02  -2.84209003E+01  -5.01094398E+01   2.30041000E+02  -3.38004036E+01   2.17575272E+02  -5.01091042E+01   1.79931213E+02  -2.84209003E+01   2.79947907E-01
             2265                3   2.20000000E+02   1.79954529E+02   1.79954529E+02  -4.98861427E+01  -2.86671772E+01   1.79954529E+02   1.79954529E+02  -2.86671772E+01  -4.98861427E+01   2.29840683E+02  -3.38004036E+01   2.17679932E+02  -4.92622986E+01   1.79330688E+02  -2.86671772E+01   1.19580908E+01
             2265                4   2.20000000E+02   1.79674438E+02   1.79674438E+02  -5.23240738E+01  -2.59491405E+01   1.79674438E+02   1.79674438E+02  -2.59491405E+01  -5.23240738E+01   2.31998505E+02  -3.38004036E+01   2.16400192E+02  -5.21501808E+01   1.79500534E+02  -2.59491405E+01   6.34932995E+00
             2266                1   2.20000000E+02   2.30509109E+02   2.30509109E+02  -9.56869507E+00   3.85536842E+01   2.30509109E+02   2.30509109E+02   3.85536842E+01  -9.56869507E+00   2.40077805E+02  -8.64980392E+01   2.07657043E+02  -9.39402485E+00   2.30334442E+02   3.85536842E+01   6.47327900E+00
             2266                2   2.20000000E+02   2.30175537E+02   2.30175537E+02  -1.08537722E+01   4.01723442E+01   2.30175537E+02   2.30175537E+02   4.01723442E+01  -1.08537722E+01   2.41029312E+02  -8.64980392E+01   2.06045349E+02  -1.08482361E+01   2.30169998E+02   4.01723442E+01   1.15515792E+00
             2266                3   2.20000000E+02   2.30106003E+02   2.30106003E+02  -1.11109295E+01   4.04990311E+01   2.30106003E+02   2.30106003E+02   4.04990311E+01  -1.11109295E+01   2.41216934E+02  -8.64980392E+01   2.05707504E+02  -1.06496601E+01   2.29644730E+02   4.04990311E+01   1.05382032E+01
             2266                4   2.20000000E+02   2.29786758E+02   2.29786758E+02  -1.22496538E+01   4.19569931E+01   2.29786758E+02   2.29786758E+02   4.19569931E+01  -1.22496538E+01   2.42036423E+02  -8.64980392E+01   2.04147644E+02  -1.21351852E+01   2.29672302E+02   4.19569931E+01   5.26219606E+00
             2267                1   2.19454102E+02   2.34065674E+02   2.34065674E+02  -3.75354409E+00   3.93826180E+01   2.34065674E+02   2.34065674E+02   3.93826180E+01  -3.75354409E+00   2.37819229E+02  -8.98982544E+01   2.09595001E+02  -3.75096416E+00   2.34063095E+02   3.93826180E+01  -7.83712327E-01
             2267                2   2.19511246E+02   2.33660324E+02   2.33660324E+02  -5.66990089E+00   4.17043304E+01   2.33660324E+02   2.33660324E+02   4.17043304E+01  -5.66990089E+00   2.39330215E+02  -8.98982544E+01   2.07536499E+02  -5.43543625E+00   2.33425858E+02   4.17043304E+01  -7.48722601E+00
             2267                3   2.19542236E+02   2.33576691E+02   2.33576691E+02  -6.09966278E+00   4.22177200E+01   2.33576691E+02   2.33576691E+02   4.22177200E+01  -6.09966278E+00   2.39676361E+02  -8.98982544E+01   2.07066284E+02  -6.01826811E+00   2.33495300E+02   4.22177200E+01   4.41616821E+00
             2267                4   2.19593201E+02   2.33173965E+02   2.33173965E+02  -7.77373457E+00   4.42945137E+01   2.33173965E+02   2.33173965E+02   4.42945137E+01  -7.77373457E+00   2.40947708E+02  -8.98982544E+01   2.05002380E+02  -7.75338888E+00   2.33153625E+02   4.42945137E+01  -2.21408701E+00
             2268                1   2.20000000E+02   1.71574463E+02   1.71574463E+02  -4.69568825E+01  -4.98653564E+01   1.71574463E+02   1.71574463E+02  -4.69568825E+01  -4.98653564E+01   2.21439819E+02  -2.49174099E+01   2.19956741E+02  -4.69126549E+01   1.71530243E+02  -4.98653564E+01   3.10841298E+00
             2268                2   2.20000000E+02   1.71571045E+02   1.71571045E+02  -4.67164421E+01  -5.01023750E+01   1.71571045E+02   1.71571045E+02  -4.67164421E+01  -5.01023750E+01   2.21673416E+02  -2.49174099E+01   2.19941345E+02  -4.66790657E+01   1.71533661E+02  -5.01023750E+01  -2.85630941E+00
             2268                3   2.20000000E+02   1.71573502E+02   1.71573502E+02  -4.99355774E+01  -4.68857002E+01   1.71573502E+02   1.71573502E+02  -4.68857002E+01  -4.99355774E+01   2.21509079E+02  -2.49174099E+01   2.19952423E+02  -4.99063568E+01   1.71544281E+02  -4.68857002E+01   2.54396033E+00
             2268                4   2.20000000E+02   1.71576233E+02   1.71576233E+02  -4.97260857E+01  -4.70979118E+01   1.71576233E+02   1.71576233E+02  -4.70979118E+01  -4.97260857E+01   2.21302307E+02  -2.49174099E+01   2.19964676E+02  -4.96794472E+01   1.71529587E+02  -4.70979118E+01  -3.21245480E+00
             2269                1   2.20000000E+02   1.82799973E+02   1.82799973E+02  -4.17670708E+01  -3.23292389E+01   1.82799973E+02   1.82799973E+02  -3.23292389E+01  -4.17670708E+01   2.24567032E+02  -3.62345543E+01   2.19543839E+02  -4.13957672E+01   1.82428665E+02  -3.23292389E+01   9.12383556E+00
             2269                2   2.20000000E+02   1.82878937E+02   1.82878937E+02  -3.93014984E+01  -3.48737907E+01   1.82878937E+02   1.82878937E+02  -3.48737907E+01  -3.93014984E+01   2.22180435E+02  -3.62345467E+01   2.19899719E+02  -3.87018394E+01   1.82279282E+02  -3.48737907E+01   1.15270090E+01
             2269                3   2.20000000E+02   1.82841324E+02   1.82841324E+02  -4.06984749E+01  -3.34391937E+01   1.82841324E+02   1.82841324E+02  -3.34391937E+01  -4.06984749E+01   2.23539795E+02  -3.62345543E+01   2.19730286E+02  -4.06280823E+01   1.82770935E+02  -3.34391937E+01   3.96615267E+00
             2269                4   2.20000000E+02   1.82896729E+02   1.82896729E+02  -3.80898209E+01  -3.61032600E+01   1.82896729E+02   1.82896729E+02  -3.61032600E+01  -3.80898209E+01   2.20986557E+02  -3.62345543E+01   2.19979813E+02  -3.79138184E+01   1.82720734E+02  -3.61032600E+01   6.23401213E+00
             2270                1   2.19999985E+02   2.38739685E+02   2.38739685E+02  -1.69193101E+00   4.74994316E+01   2.38739685E+02   2.38739685E+02   4.74994316E+01  -1.69193101E+00   2.40431625E+02  -9.48490601E+01   2.07076859E+02  -1.68841791E+00   2.38736176E+02   4.74994316E+01   9.19354260E-01
             2270                2   2.20000000E+02   2.38443039E+02   2.38443039E+02  -2.81122231E+00   4.89153748E+01   2.38443039E+02   2.38443039E+02   4.89153748E+01  -2.81122231E+00   2.41254272E+02  -9.48490601E+01   2.05639465E+02  -2.74052596E+00   2.38372345E+02   4.89153748E+01   4.12931061E+00
             2270                3   2.20000000E+02   2.38987076E+02   2.38987076E+02  -7.04145432E-01   4.62642632E+01   2.38987076E+02   2.38987076E+02   4.62642632E+01  -7.04145432E-01   2.39691223E+02  -9.48490601E+01   2.08266464E+02  -5.93323648E-01   2.38876251E+02   4.62642632E+01   5.15276098E+00
             2270                4   2.20000000E+02   2.38680786E+02   2.38680786E+02  -1.91955459E+00   4.77859612E+01   2.38680786E+02   2.38680786E+02   4.77859612E+01  -1.91955459E+00   2.40600342E+02  -9.48490601E+01   2.06792389E+02  -1.63238585E+00   2.38393616E+02   4.77859612E+01   8.30726051E+00
             2271                1   2.20000000E+02   1.79842773E+02   1.79842773E+02  -4.33259506E+01  -3.68453102E+01   1.79842773E+02   1.79842773E+02  -3.68453102E+01  -4.33259506E+01   2.23168716E+02  -3.32238350E+01   2.19785080E+02  -4.30780563E+01   1.79594879E+02  -3.68453102E+01   7.43366098E+00
             2271                2   2.20000000E+02   1.79888840E+02   1.79888840E+02  -4.07150917E+01  -3.95022202E+01   1.79888840E+02   1.79888840E+02  -3.95022202E+01  -4.07150917E+01   2.20603928E+02  -3.32238426E+01   2.19992477E+02  -4.03244209E+01   1.79498169E+02  -3.95022202E+01   9.27531338E+00
             2271                3   2.20000000E+02   1.79864243E+02   1.79864243E+02  -4.24997177E+01  -3.76930161E+01   1.79864243E+02   1.79864243E+02  -3.76930161E+01  -4.24997177E+01   2.22363968E+02  -3.32238388E+01   2.19881805E+02  -4.24787254E+01   1.79843262E+02  -3.76930161E+01   2.16019702E+00
             2271                4   2.20000000E+02   1.79890015E+02   1.79890015E+02  -3.97757492E+01  -4.04427338E+01   1.79890015E+02   1.79890015E+02  -3.97757492E+01  -4.04427338E+01   2.20332748E+02  -3.32238426E+01   2.19997742E+02  -3.97085075E+01   1.79822769E+02  -4.04427338E+01   3.84260011E+00
             2272                1   2.20000000E+02   2.13067963E+02   2.13067963E+02  -1.96615410E+01   8.51173687E+00   2.13067963E+02   2.13067963E+02   8.51173687E+00  -1.96615410E+01   2.32729507E+02  -6.73060532E+01   2.15885529E+02  -1.90254192E+01   2.12431839E+02   8.51173687E+00   1.21506910E+01
             2272                2   2.20000000E+02   2.13144775E+02   2.13144775E+02  -1.90903683E+01   7.86374283E+00   2.13144775E+02   2.13144775E+02   7.86374283E+00  -1.90903683E+01   2.32235153E+02  -6.73060532E+01   2.16238327E+02  -1.85950832E+01   2.12649490E+02   7.86374283E+00   1.07134743E+01
             2272                3   2.20000000E+02   2.12971771E+02   2.12971771E+02  -2.03408260E+01   9.28719997E+00   2.12971771E+02   2.12971771E+02   9.28719997E+00  -2.03408260E+01   2.33312607E+02  -6.73060532E+01   2.15442917E+02  -1.97827148E+01   2.12413666E+02   9.28719997E+00   1.13974924E+01
             2272                4   2.20000000E+02   2.13046249E+02   2.13046249E+02  -1.98181648E+01   8.69007587E+00   2.13046249E+02   2.13046249E+02   8.69007587E+00  -1.98181648E+01   2.32864426E+02  -6.73060532E+01   2.15785706E+02  -1.93929615E+01   2.12621048E+02   8.69007587E+00   9.94155693E+00
             2273                1   2.15482071E+02   2.06474380E+02   2.06474380E+02  -2.02917156E+01   4.40436029E+00   2.06474380E+02   2.06474380E+02   4.40436029E+00  -2.02917156E+01   2.26766098E+02  -6.35290070E+01   2.12263153E+02  -2.01329288E+01   2.06315598E+02   4.40436029E+00  -5.99841928E+00
             2273                2   2.15898041E+02   2.06629807E+02   2.06629807E+02  -2.13983059E+01   5.35551739E+00   2.06629807E+02   2.06629807E+02   5.35551739E+00  -2.13983059E+01   2.28028122E+02  -6.35290070E+01   2.12120575E+02  -2.12885227E+01   2.06520035E+02   5.35551739E+00  -5.00202751E+00
             2273                3   2.15440155E+02   2.06538101E+02   2.06538101E+02  -1.94987545E+01   3.54767108E+00   2.06538101E+02   2.06538101E+02   3.54767108E+00  -1.94987545E+01   2.26036865E+02  -6.35290070E+01   2.12640335E+02  -1.94089394E+01   2.06448288E+02   3.54767108E+00  -4.50493383E+00
             2273                4   2.15884018E+02   2.06718216E+02   2.06718216E+02  -2.06330299E+01   4.50184202E+00   2.06718216E+02   2.06718216E+02   4.50184202E+00  -2.06330299E+01   2.27351257E+02  -6.35290108E+01   2.12554718E+02  -2.05794048E+01   2.06664597E+02   4.50184202E+00  -3.49121308E+00
             2274                1   2.20000000E+02   2.28660217E+02   2.28660217E+02   1.03780565E+01   6.98169661E+00   2.28660217E+02   2.28660217E+02   1.03780565E+01   6.98169661E+00   2.21678513E+02  -8.20066528E+01   2.19941010E+02   1.08944588E+01   2.28143814E+02   6.98169661E+00   1.06044235E+01
             2274                2   2.20000000E+02   2.28663467E+02   2.28663467E+02   1.01502533E+01   7.20623875E+00   2.28663467E+02   2.28663467E+02   1.01502533E+01   7.20623875E+00   2.21457230E+02  -8.20066528E+01   2.19955673E+02   1.05134649E+01   2.28300262E+02   7.20623875E+00   8.90130234E+00
             2274                3   2.20000000E+02   2.28670624E+02   2.28670624E+02   9.44489956E+00   7.90443945E+00   2.28670624E+02   2.28670624E+02   9.44489956E+00   7.90443945E+00   2.20766190E+02  -8.20066528E+01   2.19987869E+02   1.00269690E+01   2.28088562E+02   7.90443945E+00   1.12811499E+01
             2274                4   2.20000000E+02   2.28671951E+02   2.28671951E+02   9.22453785E+00   8.12348270E+00   2.28671951E+02   2.28671951E+02   9.22453785E+00   8.12348270E+00   2.20548462E+02  -8.20066605E+01   2.19993805E+02   9.64519310E+00   2.28251297E+02   8.12348270E+00   9.59861946E+00
             2275                1   2.20000000E+02   1.77682114E+02   1.77682114E+02  -4.44285736E+01  -4.01446228E+01   1.77682114E+02   1.77682114E+02  -4.01446228E+01  -4.44285736E+01   2.22110687E+02  -3.10363064E+01   2.19906128E+02  -4.42948570E+01   1.77548401E+02  -4.01446228E+01   5.44802856E+00
             2275                2   2.20000000E+02   1.77701279E+02   1.77701279E+02  -4.16845741E+01  -4.29077721E+01   1.77701279E+02   1.77701279E+02  -4.16845741E+01  -4.29077721E+01   2.20609055E+02  -3.10363102E+01   2.19992355E+02  -4.14857826E+01   1.77502487E+02  -4.29077721E+01   6.60098839E+00
             2275                3   2.20000000E+02   1.77690872E+02   1.77690872E+02  -4.39225922E+01  -4.06593552E+01   1.77690872E+02   1.77690872E+02  -4.06593552E+01  -4.39225922E+01   2.21613464E+02  -3.10363083E+01   2.19945541E+02  -4.39225731E+01   1.77690857E+02  -4.06593552E+01   6.04377165E-02
             2275                4   2.20000000E+02   1.77696579E+02   1.77696579E+02  -4.11077499E+01  -4.34798965E+01   1.77696579E+02   1.77696579E+02  -4.11077499E+01  -4.34798965E+01   2.21176483E+02  -3.10363140E+01   2.19971222E+02  -4.11028786E+01   1.77691711E+02  -4.34798965E+01   1.03279984E+00
             2276                1   2.20000000E+02   2.30540878E+02   2.30540878E+02   1.19358082E+01   9.17199898E+00   2.30540878E+02   2.30540878E+02   1.19358082E+01   9.17199898E+00   2.21368881E+02  -8.38828964E+01   2.19960922E+02   1.23785944E+01   2.30098083E+02   9.17199898E+00   9.82856464E+00
             2276                2   2.20000000E+02   2.30542496E+02   2.30542496E+02   1.17999563E+01   9.30623341E+00   2.30542496E+02   2.30542496E+02   1.17999563E+01   9.30623341E+00   2.21236267E+02  -8.38828964E+01   2.19968201E+02   1.21014681E+01   2.30240982E+02   9.30623341E+00   8.11561298E+00
             2276                3   2.20000000E+02   2.30548706E+02   2.30548706E+02   1.09817514E+01   1.01182175E+01   2.30548706E+02   2.30548706E+02   1.09817514E+01   1.01182175E+01   2.20430481E+02  -8.38828964E+01   2.19996170E+02   1.14561749E+01   2.30074280E+02   1.01182175E+01   1.01952467E+01
             2276                4   2.20000000E+02   2.30549133E+02   2.30549133E+02   1.08538914E+01   1.02456427E+01   2.30549133E+02   2.30549133E+02   1.08538914E+01   1.02456427E+01   2.20303497E+02  -8.38828888E+01   2.19998123E+02   1.11833410E+01   2.30219696E+02   1.02456427E+01   8.50108433E+00
             2277                1   5.62366028E+01   5.43394661E+01   5.43394661E+01  -1.72293568E+00  -2.06973124E+00   5.43394661E+01   5.43394661E+01  -1.72293568E+00  -2.06973124E+00   5.64091988E+01  -1.68489323E+01   5.62341995E+01  -9.07214403E-01   5.35237465E+01  -2.06973124E+00   6.71311045E+00
             2277                2   5.65599861E+01   5.45555153E+01   5.45555153E+01  -1.93897986E+00  -2.06973124E+00   5.45555153E+01   5.45555153E+01  -1.93897986E+00  -2.06973124E+00   5.66252480E+01  -1.68489342E+01   5.65596428E+01  -1.08136916E+00   5.36979027E+01  -2.06973124E+00   6.90759563E+00
             2277                3   5.60180130E+01   5.41931915E+01   5.41931915E+01  -1.57665503E+00  -2.06973124E+00   5.41931915E+01   5.41931915E+01  -1.57665503E+00  -2.06973124E+00   5.62629204E+01  -1.68489342E+01   5.60131302E+01  -7.12715864E-01   5.33292503E+01  -2.06973124E+00   6.88733625E+00
             2277                4   5.63427658E+01   5.44104385E+01   5.44104385E+01  -1.79390490E+00  -2.06973124E+00   5.44104385E+01   5.44104385E+01  -1.79390490E+00  -2.06973124E+00   5.64801712E+01  -1.68489342E+01   5.63412476E+01  -8.86964440E-01   5.35034981E+01  -2.06973124E+00   7.08177519E+00
             2278                1   2.20000000E+02   2.37764481E+02   2.37764481E+02  -6.31086230E-01   4.25689201E+01   2.37764481E+02   2.37764481E+02   4.25689201E+01  -6.31086230E-01   2.38395569E+02  -9.32341003E+01   2.10136932E+02  -5.03469944E-01   2.37636856E+02   4.25689201E+01   5.51437664E+00
             2278                2   2.20000000E+02   2.37551697E+02   2.37551697E+02  -1.56666088E+00   4.37172890E+01   2.37551697E+02   2.37551697E+02   4.37172890E+01  -1.56666088E+00   2.39118347E+02  -9.32341080E+01   2.09124939E+02  -1.55603695E+00   2.37541061E+02   4.37172890E+01   1.59431958E+00
             2278                3   2.20000000E+02   2.37494217E+02   2.37494217E+02  -1.81096029E+00   4.40190468E+01   2.37494217E+02   2.37494217E+02   4.40190468E+01  -1.81096029E+00   2.39305176E+02  -9.32341003E+01   2.08850677E+02  -1.51932919E+00   2.37202591E+02   4.40190468E+01   8.34882641E+00
             2278                4   2.20000000E+02   2.37287720E+02   2.37287720E+02  -2.66214371E+00   4.50767365E+01   2.37287720E+02   2.37287720E+02   4.50767365E+01  -2.66214371E+00   2.39949860E+02  -9.32341080E+01   2.07861511E+02  -2.57847548E+00   2.37204056E+02   4.50767365E+01   4.47984982E+00
             2279                1   2.12033279E+02   1.76975845E+02   1.76975845E+02  -4.08256836E+01  -2.87752151E+01   1.76975845E+02   1.76975845E+02  -2.87752151E+01  -4.08256836E+01   2.17801529E+02  -3.57916489E+01   2.11260773E+02  -4.05200996E+01   1.76670258E+02  -2.87752151E+01   8.15257359E+00
             2279                2   2.11168808E+02   1.76503998E+02   1.76503998E+02  -3.83213234E+01  -3.08077507E+01   1.76503998E+02   1.76503998E+02  -3.08077507E+01  -3.83213234E+01   2.14825317E+02  -3.57916412E+01   2.10867752E+02  -3.82314682E+01   1.76414154E+02  -3.08077507E+01   4.39241362E+00
             2279                3   2.12507004E+02   1.77186310E+02   1.77186310E+02  -4.25697784E+01  -2.72415943E+01   1.77186310E+02   1.77186310E+02  -2.72415943E+01  -4.25697784E+01   2.19756088E+02  -3.57916451E+01   2.11257874E+02  -4.25059509E+01   1.77122482E+02  -2.72415943E+01   3.74462676E+00
             2279                4   2.11913467E+02   1.76922867E+02   1.76922867E+02  -4.03049698E+01  -2.92429447E+01   1.76922867E+02   1.76922867E+02  -2.92429447E+01  -4.03049698E+01   2.17227829E+02  -3.57916489E+01   2.11262405E+02  -4.03049622E+01   1.76922852E+02  -2.92429447E+01  -4.33369800E-02
             2280                1   2.19950745E+02   2.15134811E+02   2.15134811E+02  -2.29036846E+01   1.94240627E+01   2.15134811E+02   2.15134811E+02   1.94240627E+01  -2.29036846E+01   2.38038498E+02  -7.05517273E+01   2.10492798E+02  -2.25016041E+01   2.14732727E+02   1.94240627E+01  -9.77493286E+00
             2280                2   2.20000000E+02   2.14460114E+02   2.14460114E+02  -2.59200935E+01   2.31151466E+01   2.14460114E+02   2.14460114E+02   2.31151466E+01  -2.59200935E+01   2.40380203E+02  -7.05517197E+01   2.07162552E+02  -2.59124737E+01   2.14452499E+02   2.31151466E+01   1.35311747E+00
             2280                3   2.19707794E+02   2.15525391E+02   2.15525391E+02  -2.00315876E+01   1.61613674E+01   2.15525391E+02   2.15525391E+02   1.61613674E+01  -2.00315876E+01   2.35556976E+02  -7.05517197E+01   2.12845444E+02  -2.00027313E+01   2.15496536E+02   1.61613674E+01   2.60702491E+00
             2280                4   2.20000000E+02   2.14958084E+02   2.14958084E+02  -2.38648529E+01   2.05619373E+01   2.14958084E+02   2.14958084E+02   2.05619373E+01  -2.38648529E+01   2.38822937E+02  -7.05517197E+01   2.09547852E+02  -2.30828514E+01   2.14176086E+02   2.05619373E+01   1.36435795E+01
             2281                1   2.20000000E+02   2.34262833E+02   2.34262833E+02  -4.52128267E+00   3.97934189E+01   2.34262833E+02   2.34262833E+02   3.97934189E+01  -4.52128267E+00   2.38784119E+02  -8.98449936E+01   2.09602448E+02  -4.34747076E+00   2.34089020E+02   3.97934189E+01   6.43993473E+00
             2281                2   2.20000000E+02   2.34008514E+02   2.34008514E+02  -5.60322618E+00   4.11296692E+01   2.34008514E+02   2.34008514E+02   4.11296692E+01  -5.60322618E+00   2.39611740E+02  -8.98449936E+01   2.08388687E+02  -5.58704472E+00   2.33992340E+02   4.11296692E+01   1.96859741E+00
             2281                3   2.20000000E+02   2.33945297E+02   2.33945297E+02  -5.86226511E+00   4.14519272E+01   2.33945297E+02   2.33945297E+02   4.14519272E+01  -5.86226511E+00   2.39807571E+02  -8.98449936E+01   2.08085693E+02  -5.46434975E+00   2.33547394E+02   4.14519272E+01   9.76029587E+00
             2281                4   2.20000000E+02   2.33700119E+02   2.33700119E+02  -6.83351517E+00   4.26683655E+01   2.33700119E+02   2.33700119E+02   4.26683655E+01  -6.83351517E+00   2.40533630E+02  -8.98449936E+01   2.06905472E+02  -6.71443415E+00   2.33581039E+02   4.26683655E+01   5.35063934E+00
             2282                1   2.20000000E+02   2.09528290E+02   2.09528290E+02  -1.19780931E+01  -8.93370724E+00   2.09528290E+02   2.09528290E+02  -8.93370724E+00  -1.19780931E+01   2.21506393E+02  -6.28721657E+01   2.19952576E+02  -1.17332964E+01   2.09283493E+02  -8.93370724E+00   7.35970497E+00
             2282                2   2.20000000E+02   2.09538345E+02   2.09538345E+02  -1.01324577E+01  -1.07893925E+01   2.09538345E+02   2.09538345E+02  -1.01324577E+01  -1.07893925E+01   2.20327728E+02  -6.28721619E+01   2.19997803E+02  -9.84274101E+00   2.09248627E+02  -1.07893925E+01   7.97232294E+00
             2282                3   2.20000000E+02   2.09531876E+02   2.09531876E+02  -1.16950264E+01  -9.22035980E+00   2.09531876E+02   2.09531876E+02  -9.22035980E+00  -1.16950264E+01   2.21226898E+02  -6.28721619E+01   2.19968704E+02  -1.16281977E+01   2.09465057E+02  -9.22035980E+00   3.84425664E+00
             2282                4   2.20000000E+02   2.09536987E+02   2.09536987E+02  -9.82244205E+00  -1.10980482E+01   2.09536987E+02   2.09536987E+02  -9.82244205E+00  -1.10980482E+01   2.20635025E+02  -6.28721619E+01   2.19991684E+02  -9.73516750E+00   2.09449707E+02  -1.10980482E+01   4.37453699E+00
             2283                1   2.20000000E+02   1.83353516E+02   1.83353516E+02  -3.96959801E+01  -3.34645805E+01   1.83353516E+02   1.83353516E+02  -3.34645805E+01  -3.96959801E+01   2.23049500E+02  -3.67309837E+01   2.19801300E+02  -3.94320412E+01   1.83089569E+02  -3.34645805E+01   7.66831112E+00
             2283                2   2.20000000E+02   1.83247742E+02   1.83247742E+02  -4.22685776E+01  -3.07862263E+01   1.83247742E+02   1.83247742E+02  -3.07862263E+01  -4.22685776E+01   2.25516327E+02  -3.67309837E+01   2.19324295E+02  -4.21804771E+01   1.83159653E+02  -3.07862263E+01   4.45638466E+00
             2283                3   2.20000000E+02   1.83294388E+02   1.83294388E+02  -4.13161545E+01  -3.17852955E+01   1.83294388E+02   1.83294388E+02  -3.17852955E+01  -4.13161545E+01   2.24610550E+02  -3.67309837E+01   2.19534790E+02  -4.05561142E+01   1.82534363E+02  -3.17852955E+01   1.30435247E+01
             2283                4   2.20000000E+02   1.83161194E+02   1.83161194E+02  -4.36936111E+01  -2.92746353E+01   1.83161194E+02   1.83161194E+02  -2.92746353E+01  -4.36936111E+01   2.26854813E+02  -3.67309837E+01   2.18933090E+02  -4.32757034E+01   1.82743286E+02  -2.92746353E+01   9.72786140E+00
             2284                1   2.20000000E+02   2.22424591E+02   2.22424591E+02  -1.86741030E+00   6.98374557E+00   2.22424591E+02   2.22424591E+02   6.98374557E+00  -1.86741030E+00   2.24291992E+02  -7.58469772E+01   2.19598846E+02  -1.36759210E+00   2.21924774E+02   6.98374557E+00   1.05760937E+01
             2284                2   2.20000000E+02   2.22392441E+02   2.22392441E+02  -2.58863139E+00   7.73712492E+00   2.22392441E+02   2.22392441E+02   7.73712492E+00  -2.58863139E+00   2.24981064E+02  -7.58469772E+01   2.19453812E+02  -2.18096280E+00   2.21984772E+02   7.73712492E+00   9.56817913E+00
             2284                3   2.20000000E+02   2.22404587E+02   2.22404587E+02  -2.32924914E+00   7.46560049E+00   2.22404587E+02   2.22404587E+02   7.46560049E+00  -2.32924914E+00   2.24733826E+02  -7.58469772E+01   2.19508606E+02  -1.68089235E+00   2.21756226E+02   7.46560049E+00   1.20535145E+01
             2284                4   2.20000000E+02   2.22369858E+02   2.22369858E+02  -3.03751755E+00   8.20860291E+00   2.22369858E+02   2.22369858E+02   8.20860291E+00  -3.03751755E+00   2.25407379E+02  -7.58469772E+01   2.19351868E+02  -2.49628019E+00   2.21828613E+02   8.20860291E+00   1.10320768E+01
             2285                1   2.20000000E+02   1.76558533E+02   1.76558533E+02  -4.48741035E+01  -4.19802856E+01   1.76558533E+02   1.76558533E+02  -4.19802856E+01  -4.48741035E+01   2.21432648E+02  -2.99013824E+01   2.19957184E+02  -4.48447380E+01   1.76529175E+02  -4.19802856E+01   2.54970932E+00
             2285                2   2.20000000E+02   1.76559464E+02   1.76559464E+02  -4.20532379E+01  -4.48020859E+01   1.76559464E+02   1.76559464E+02  -4.20532379E+01  -4.48020859E+01   2.21361542E+02  -2.99013805E+01   2.19961365E+02  -4.20092125E+01   1.76515442E+02  -4.48020859E+01   3.10188770E+00
             2285                3   2.20000000E+02   1.76561096E+02   1.76561096E+02  -4.46647720E+01  -4.21921883E+01   1.76561096E+02   1.76561096E+02  -4.21921883E+01  -4.46647720E+01   2.21225876E+02  -2.99013824E+01   2.19968735E+02  -4.46270905E+01   1.76523422E+02  -4.21921883E+01  -2.88692617E+00
             2285                4   2.20000000E+02   1.76556244E+02   1.76556244E+02  -4.18142357E+01  -4.50378532E+01   1.76556244E+02   1.76556244E+02  -4.18142357E+01  -4.50378532E+01   2.21594086E+02  -2.99013824E+01   2.19946854E+02  -4.17850418E+01   1.76527039E+02  -4.50378532E+01  -2.52504277E+00
             2286                1   2.20000000E+02   2.07963821E+02   2.07963821E+02  -1.35075102E+01  -1.05346975E+01   2.07963821E+02   2.07963821E+02  -1.05346975E+01  -1.35075102E+01   2.21471329E+02  -6.13072052E+01   2.19954788E+02  -1.29860287E+01   2.07442337E+02  -1.05346975E+01   1.07341728E+01
             2286                2   2.20000000E+02   2.07926544E+02   2.07926544E+02  -1.52290792E+01  -8.77584743E+00   2.07926544E+02   2.07926544E+02  -8.77584743E+00  -1.52290792E+01   2.23155624E+02  -6.13072052E+01   2.19786896E+02  -1.48341980E+01   2.07531662E+02  -8.77584743E+00   9.37891293E+00
             2286                3   2.20000000E+02   2.07951797E+02   2.07951797E+02  -1.42186527E+01  -9.81153297E+00   2.07951797E+02   2.07951797E+02  -9.81153297E+00  -1.42186527E+01   2.22170441E+02  -6.13072014E+01   2.19900650E+02  -1.33131237E+01   2.07046265E+02  -9.81153297E+00   1.41549053E+01
             2286                4   2.20000000E+02   2.07905121E+02   2.07905121E+02  -1.58801737E+01  -8.10333538E+00   2.07905121E+02   2.07905121E+02  -8.10333538E+00  -1.58801737E+01   2.23785294E+02  -6.13072052E+01   2.19690399E+02  -1.51526690E+01   2.07177612E+02  -8.10333538E+00   1.27387877E+01
             2287                1   2.20000000E+02   2.18437317E+02   2.18437317E+02  -9.41100979E+00   7.23079205E+00   2.18437317E+02   2.18437317E+02   7.23079205E+00  -9.41100979E+00   2.27848328E+02  -7.20857010E+01   2.18577148E+02  -8.76513004E+00   2.17791443E+02   7.23079205E+00   1.21137915E+01
             2287                2   2.20000000E+02   2.18378571E+02   2.18378571E+02  -1.01232615E+01   8.00178146E+00   2.18378571E+02   2.18378571E+02   8.00178146E+00  -1.01232615E+01   2.28501831E+02  -7.20857010E+01   2.18310715E+02  -9.52211857E+00   2.17777435E+02   8.00178146E+00   1.17046757E+01
             2287                3   2.20000000E+02   2.18406204E+02   2.18406204E+02  -9.79619884E+00   7.64709806E+00   2.18406204E+02   2.18406204E+02   7.64709806E+00  -9.79619884E+00   2.28202393E+02  -7.20857010E+01   2.18436050E+02  -8.98527145E+00   2.17595276E+02   7.64709806E+00   1.35792894E+01
             2287                4   2.20000000E+02   2.18345703E+02   2.18345703E+02  -1.04965029E+01   8.40790844E+00   2.18345703E+02   2.18345703E+02   8.40790844E+00  -1.04965029E+01   2.28842209E+02  -7.20857010E+01   2.18161407E+02  -9.73765182E+00   2.17586853E+02   8.40790844E+00   1.31560030E+01
             2288                1   2.20000000E+02   2.25018982E+02   2.25018982E+02  -1.50030565E+01   3.29519844E+01   2.25018982E+02   2.25018982E+02   3.29519844E+01  -1.50030565E+01   2.40022049E+02  -8.09893036E+01   2.07746506E+02  -1.48182907E+01   2.24834213E+02   3.29519844E+01   6.65699482E+00
             2288                2   2.20000000E+02   2.24677597E+02   2.24677597E+02  -1.63222771E+01   3.46125832E+01   2.24677597E+02   2.24677597E+02   3.46125832E+01  -1.63222771E+01   2.40999878E+02  -8.09892960E+01   2.06097748E+02  -1.63147984E+01   2.24670120E+02   3.46125832E+01   1.34206271E+00
             2288                3   2.20000000E+02   2.24584183E+02   2.24584183E+02  -1.66677055E+01   3.50514412E+01   2.24584183E+02   2.24584183E+02   3.50514412E+01  -1.66677055E+01   2.41251877E+02  -8.09893036E+01   2.05643799E+02  -1.62051163E+01   2.24121582E+02   3.50514412E+01   1.05540619E+01
             2288                4   2.20000000E+02   2.24265839E+02   2.24265839E+02  -1.78005219E+01   3.65025826E+01   2.24265839E+02   2.24265839E+02   3.65025826E+01  -1.78005219E+01   2.42066360E+02  -8.09892960E+01   2.04087845E+02  -1.76781807E+01   2.24143494E+02   3.65025826E+01   5.44066286E+00
             2289                1   2.20000000E+02   2.22707489E+02   2.22707489E+02   3.12704158E+00   2.29032326E+00   2.22707489E+02   2.22707489E+02   3.12704158E+00   2.29032326E+00   2.20417175E+02  -7.60416183E+01   2.19996414E+02   3.38825917E+00   2.22446274E+02   2.29032326E+00   7.56902933E+00
             2289                2   2.20000000E+02   2.22704208E+02   2.22704208E+02   1.76212156E+00   3.65853453E+00   2.22704208E+02   2.22704208E+02   3.65853453E+00   1.76212156E+00   2.20942078E+02  -7.60416183E+01   2.19981613E+02   2.00855970E+00   2.22457764E+02   3.65853453E+00   7.37481785E+00
             2289                3   2.20000000E+02   2.22707916E+02   2.22707916E+02   2.99261832E+00   2.42431068E+00   2.22707916E+02   2.22707916E+02   2.99261832E+00   2.42431068E+00   2.20283600E+02  -7.60416183E+01   2.19998352E+02   3.46102047E+00   2.22239517E+02   2.42431068E+00   1.01338186E+01
             2289                4   2.20000000E+02   2.22703033E+02   2.22703033E+02   1.63673258E+00   3.78508782E+00   2.22703033E+02   2.22703033E+02   3.78508782E+00   1.63673258E+00   2.21066299E+02  -7.60416183E+01   2.19976379E+02   2.08063579E+00   2.22259125E+02   3.78508782E+00   9.89628792E+00
             2290                1   2.20000000E+02   2.26700851E+02   2.26700851E+02   7.84300423E+00   5.57621431E+00   2.26700851E+02   2.26700851E+02   7.84300423E+00   5.57621431E+00   2.21124634E+02  -8.00400238E+01   2.19973709E+02   8.54282665E+00   2.26001022E+02   5.57621431E+00   1.23560877E+01
             2290                2   2.20000000E+02   2.26686874E+02   2.26686874E+02   8.80456734E+00   4.62862873E+00   2.26686874E+02   2.26686874E+02   8.80456734E+00   4.62862873E+00   2.22058243E+02  -8.00400238E+01   2.19910797E+02   9.37605000E+00   2.26115387E+02   4.62862873E+00   1.11440563E+01
             2290                3   2.20000000E+02   2.26703949E+02   2.26703949E+02   7.48605967E+00   5.93006802E+00   2.26703949E+02   2.26703949E+02   7.48605967E+00   5.93006802E+00   2.20773880E+02  -8.00400238E+01   2.19987625E+02   7.99072123E+00   2.26199280E+02   5.93006802E+00   1.05060186E+01
             2290                4   2.20000000E+02   2.26693008E+02   2.26693008E+02   8.44844818E+00   4.97861385E+00   2.26693008E+02   2.26693008E+02   8.44844818E+00   4.97861385E+00   2.21714386E+02  -8.00400162E+01   2.19938416E+02   8.84110546E+00   2.26300339E+02   4.97861385E+00   9.24890232E+00
             2291                1   2.20000000E+02   1.93347275E+02   1.93347275E+02  -2.82971592E+01  -2.49705963E+01   1.93347275E+02   1.93347275E+02  -2.49705963E+01  -2.82971592E+01   2.21644424E+02  -4.66931725E+01   2.19943420E+02  -2.81590958E+01   1.93209213E+02  -2.49705963E+01   5.52994633E+00
             2291                2   2.20000000E+02   1.93357819E+02   1.93357819E+02  -2.59731903E+01  -2.73051205E+01   1.93357819E+02   1.93357819E+02  -2.59731903E+01  -2.73051205E+01   2.20662933E+02  -4.66931725E+01   2.19990921E+02  -2.57913017E+01   1.93175934E+02  -2.73051205E+01   6.31346607E+00
             2291                3   2.20000000E+02   1.93351974E+02   1.93351974E+02  -2.79510860E+01  -2.53213768E+01   1.93351974E+02   1.93351974E+02  -2.53213768E+01  -2.79510860E+01   2.21303070E+02  -4.66931725E+01   2.19964630E+02  -2.79461365E+01   1.93347031E+02  -2.53213768E+01   1.04665136E+00
             2291                4   2.20000000E+02   1.93354813E+02   1.93354813E+02  -2.55856018E+01  -2.76896935E+01   1.93354813E+02   1.93354813E+02  -2.55856018E+01  -2.76896935E+01   2.21044510E+02  -4.66931725E+01   2.19977371E+02  -2.55724316E+01   1.93341644E+02  -2.76896935E+01   1.69791734E+00
             2292                1   2.20000000E+02   1.84503677E+02   1.84503677E+02  -3.83789291E+01  -3.24956779E+01   1.84503677E+02   1.84503677E+02  -3.24956779E+01  -3.83789291E+01   2.22882614E+02  -3.78763580E+01   2.19822906E+02  -3.81119232E+01   1.84236679E+02  -3.24956779E+01   7.70971012E+00
             2292                2   2.20000000E+02   1.84542206E+02   1.84542206E+02  -3.58834381E+01  -3.50296783E+01   1.84542206E+02   1.84542206E+02  -3.50296783E+01  -3.58834381E+01   2.20425644E+02  -3.78763618E+01   2.19996277E+02  -3.54914398E+01   1.84150208E+02  -3.50296783E+01   9.28723907E+00
             2292                3   2.20000000E+02   1.84520569E+02   1.84520569E+02  -3.76682281E+01  -3.32232628E+01   1.84520569E+02   1.84520569E+02  -3.32232628E+01  -3.76682281E+01   2.22188797E+02  -3.78763580E+01   2.19898926E+02  -3.76350136E+01   1.84487350E+02  -3.32232628E+01   2.71648574E+00
             2292                4   2.20000000E+02   1.84542389E+02   1.84542389E+02  -3.50794907E+01  -3.58338051E+01   1.84542389E+02   1.84542389E+02  -3.50794907E+01  -3.58338051E+01   2.20376190E+02  -3.78763618E+01   2.19997086E+02  -3.50012245E+01   1.84464111E+02  -3.58338051E+01   4.14535284E+00
             2293                1   5.23421249E+01   4.71278076E+01   4.71278076E+01  -3.88753557E+00  -6.44717503E+00   4.71278076E+01   4.71278076E+01  -3.88753557E+00  -6.44717503E+00   5.35749817E+01  -1.22643661E+01   5.22010307E+01  -1.19696760E+00   4.44372406E+01  -6.44717503E+00   1.14026785E+01
             2293                2   5.18128891E+01   4.67650604E+01   4.67650604E+01  -3.52479076E+00  -6.44717503E+00   4.67650604E+01   4.67650604E+01  -3.52479076E+00  -6.44717503E+00   5.32122345E+01  -1.22643652E+01   5.16269760E+01  -7.70640314E-01   4.40109100E+01  -6.44717503E+00   1.14420462E+01
             2293                3   5.20435371E+01   4.69233360E+01   4.69233360E+01  -3.68306398E+00  -6.44717503E+00   4.69233360E+01   4.69233360E+01  -3.68306398E+00  -6.44717503E+00   5.33705101E+01  -1.22643661E+01   5.18779984E+01  -1.17801833E+00   4.44182892E+01  -6.44717503E+00   1.09770746E+01
             2293                4   5.15095634E+01   4.65564613E+01   4.65564613E+01  -3.31619048E+00  -6.44717503E+00   4.65564613E+01   4.65564613E+01  -3.31619048E+00  -6.44717503E+00   5.30036392E+01  -1.22643661E+01   5.12948112E+01  -7.51812696E-01   4.39920845E+01  -6.44717503E+00   1.10143690E+01
             2294                1   2.20000000E+02   2.30924408E+02   2.30924408E+02   1.31109333E+01   8.80121136E+00   2.30924408E+02   2.30924408E+02   1.31109333E+01   8.80121136E+00   2.22123199E+02  -8.42788467E+01   2.19904984E+02   1.35111094E+01   2.30524231E+02   8.80121136E+00   9.32755947E+00
             2294                2   2.20000000E+02   2.30929886E+02   2.30929886E+02   1.28077974E+01   9.09886932E+00   2.30929886E+02   2.30929886E+02   1.28077974E+01   9.09886932E+00   2.21831024E+02  -8.42788467E+01   2.19929657E+02   1.30887337E+01   2.30648956E+02   9.09886932E+00   7.82295418E+00
             2294                3   2.20000000E+02   2.30937347E+02   2.30937347E+02   1.22902784E+01   9.60892868E+00   2.30937347E+02   2.30937347E+02   1.22902784E+01   9.60892868E+00   2.21328430E+02  -8.42788544E+01   2.19963226E+02   1.27588968E+01   2.30468735E+02   9.60892868E+00   1.01114874E+01
             2294                4   2.20000000E+02   2.30940521E+02   2.30940521E+02   1.19973345E+01   9.89871311E+00   2.30940521E+02   2.30940521E+02   1.19973345E+01   9.89871311E+00   2.21041809E+02  -8.42788544E+01   2.19977478E+02   1.23373356E+01   2.30600510E+02   9.89871311E+00   8.62128830E+00
             2295                1   2.20000000E+02   2.20808029E+02   2.20808029E+02   3.20405388E+00  -1.51216292E+00   2.20808029E+02   2.20808029E+02   3.20405388E+00  -1.51216292E+00   2.22320190E+02  -7.41666412E+01   2.19886215E+02   3.68171763E+00   2.20330368E+02  -1.51216292E+00   1.01839685E+01
             2295                2   2.20000000E+02   2.20820251E+02   2.20820251E+02   2.53470373E+00  -8.55027437E-01   2.20820251E+02   2.20820251E+02   2.53470373E+00  -8.55027437E-01   2.21675278E+02  -7.41666412E+01   2.19941223E+02   3.08578014E+00   2.20269165E+02  -8.55027437E-01   1.09539661E+01
             2295                3   2.20000000E+02   2.20801071E+02   2.20801071E+02   3.51251459E+00  -1.81366289E+00   2.20801071E+02   2.20801071E+02   3.51251459E+00  -1.81366289E+00   2.22614731E+02  -7.41666412E+01   2.19854874E+02   4.11017036E+00   2.20203415E+02  -1.81366289E+00   1.13800764E+01
             2295                4   2.20000000E+02   2.20815765E+02   2.20815765E+02   2.80653596E+00  -1.12238646E+00   2.20815765E+02   2.20815765E+02   2.80653596E+00  -1.12238646E+00   2.21938156E+02  -7.41666336E+01   2.19921051E+02   3.48833370E+00   2.20133972E+02  -1.12238646E+00   1.21725874E+01
             2296                1   2.20000000E+02   2.21858932E+02   2.21858932E+02   1.89478767E+00   1.82309568E+00   2.21858932E+02   2.21858932E+02   1.89478767E+00   1.82309568E+00   2.20035843E+02  -7.51922684E+01   2.19999985E+02   2.39473534E+00   2.21358994E+02   1.82309568E+00   1.04747009E+01
             2296                2   2.20000000E+02   2.21852707E+02   2.21852707E+02   6.91048205E-01   3.03307533E+00   2.21852707E+02   2.21852707E+02   3.03307533E+00   6.91048205E-01   2.21161667E+02  -7.51922836E+01   2.19971939E+02   1.17371416E+00   2.21370041E+02   3.03307533E+00   1.03206501E+01
             2296                3   2.20000000E+02   2.21858887E+02   2.21858887E+02   1.75222623E+00   1.96570373E+00   2.21858887E+02   2.21858887E+02   1.96570373E+00   1.75222623E+00   2.20106659E+02  -7.51922684E+01   2.19999771E+02   2.49301648E+00   2.21118103E+02   1.96570373E+00   1.27476664E+01
             2296                4   2.20000000E+02   2.21851135E+02   2.21851135E+02   5.51547885E-01   3.17415881E+00   2.21851135E+02   2.21851135E+02   3.17415881E+00   5.51547885E-01   2.21299591E+02  -7.51922836E+01   2.19964813E+02   1.26656377E+00   2.21136108E+02   3.17415881E+00   1.25587845E+01
             2297                1   2.20000000E+02   1.82768570E+02   1.82768570E+02  -3.91835670E+01  -3.52258949E+01   1.82768570E+02   1.82768570E+02  -3.52258949E+01  -3.91835670E+01   2.21952133E+02  -3.61197052E+01   2.19919876E+02  -3.90460777E+01   1.82631088E+02  -3.52258949E+01   5.52230835E+00
             2297                2   2.20000000E+02   1.82784576E+02   1.82784576E+02  -3.65856056E+01  -3.78398705E+01   1.82784576E+02   1.82784576E+02  -3.65856056E+01  -3.78398705E+01   2.20624451E+02  -3.61197014E+01   2.19991959E+02  -3.63885269E+01   1.82587509E+02  -3.78398705E+01   6.57213259E+00
             2297                3   2.20000000E+02   1.82775970E+02   1.82775970E+02  -3.87211037E+01  -3.56957512E+01   1.82775970E+02   1.82775970E+02  -3.56957512E+01  -3.87211037E+01   2.21497086E+02  -3.61197052E+01   2.19953201E+02  -3.87201996E+01   1.82775070E+02  -3.56957512E+01   4.47582573E-01
             2297                4   2.20000000E+02   1.82780365E+02   1.82780365E+02  -3.60614281E+01  -3.83598328E+01   1.82780365E+02   1.82780365E+02  -3.60614281E+01  -3.83598328E+01   2.21140198E+02  -3.61197014E+01   2.19972992E+02  -3.60532913E+01   1.82772232E+02  -3.83598328E+01   1.33385909E+00
             2298                1   4.41313171E+01   4.85905342E+01   4.85905342E+01   4.50737286E+00   4.41121721E+00   4.85905342E+01   4.85905342E+01   4.50737286E+00   4.41121721E+00   4.41793175E+01  -1.91697083E+01   4.41310844E+01   4.64059973E+00   4.84573097E+01   4.41121721E+00   2.41976166E+00
             2298                2   4.44948540E+01   4.88328247E+01   4.88328247E+01   4.26508236E+00   4.41121721E+00   4.88328247E+01   4.88328247E+01   4.41121721E+00   4.26508236E+00   4.45677414E+01  -1.91697083E+01   4.44943161E+01   4.40328026E+00   4.86946297E+01   4.41121721E+00   2.47789884E+00
             2298                3   4.40855484E+01   4.85599861E+01   4.85599861E+01   4.53792715E+00   4.41121721E+00   4.85599861E+01   4.85599861E+01   4.53792715E+00   4.41121721E+00   4.41487656E+01  -1.91697102E+01   4.40851402E+01   4.69829130E+00   4.83996201E+01   4.41121721E+00   2.65214300E+00
             2298                4   4.44478226E+01   4.88015175E+01   4.88015175E+01   4.29639101E+00   4.41121721E+00   4.88015175E+01   4.88015175E+01   4.41121721E+00   4.29639101E+00   4.45051270E+01  -1.91697083E+01   4.44474907E+01   4.46196175E+00   4.86359482E+01   4.41121721E+00   2.70947504E+00
             2299                1   2.20000000E+02   2.13260086E+02   2.13260086E+02  -1.15691795E+01  -1.56963265E+00   2.13260086E+02   2.13260086E+02  -1.56963265E+00  -1.15691795E+01   2.24829254E+02  -6.67070923E+01   2.19487808E+02  -1.08319855E+01   2.12522888E+02  -1.56963265E+00   1.28529873E+01
             2299                2   2.20000000E+02   2.13198669E+02   2.13198669E+02  -1.27433758E+01  -3.34016114E-01   2.13198669E+02   2.13198669E+02  -3.34016114E-01  -1.27433758E+01   2.25942047E+02  -6.67070923E+01   2.19210495E+02  -1.20756330E+01   2.12530930E+02  -3.34016114E-01   1.22647514E+01
             2299                3   2.20000000E+02   2.13235077E+02   2.13235077E+02  -1.20792770E+01  -1.03452015E+00   2.13235077E+02   2.13235077E+02  -1.03452015E+00  -1.20792770E+01   2.25314346E+02  -6.67070923E+01   2.19374924E+02  -1.10447674E+01   2.12200562E+02  -1.03452015E+00   1.52321777E+01
             2299                4   2.20000000E+02   2.13169861E+02   2.13169861E+02  -1.32194262E+01   1.70827806E-01   2.13169861E+02   2.13169861E+02   1.70827806E-01  -1.32194262E+01   2.26389297E+02  -6.67070847E+01   2.19080368E+02  -1.22722254E+01   2.12222672E+02   1.70827806E-01   1.46129198E+01
             2300                1   2.17872650E+02   1.99396637E+02   1.99396637E+02  -3.10892982E+01  -3.17137742E+00   1.99396637E+02   1.99396637E+02  -3.17137742E+00  -3.10892982E+01   2.30485931E+02  -5.50453224E+01   2.13792892E+02  -3.05968533E+01   1.98904190E+02  -3.17137742E+00   1.06423874E+01
             2300                2   2.17128860E+02   1.99256897E+02   1.99256897E+02  -2.78884506E+01  -6.23249388E+00   1.99256897E+02   1.99256897E+02  -6.23249388E+00  -2.78884506E+01   2.27145355E+02  -5.50453186E+01   2.14678986E+02  -2.78435688E+01   1.99212021E+02  -6.23249388E+00   3.19264174E+00
             2300                3   2.18167603E+02   1.99258835E+02   1.99258835E+02  -3.34183502E+01  -7.04525769E-01   1.99258835E+02   1.99258835E+02  -7.04525769E-01  -3.34183502E+01   2.32677185E+02  -5.50453186E+01   2.12544312E+02  -3.33637772E+01   1.99204269E+02  -7.04525769E-01   3.56278324E+00
             2300                4   2.17533615E+02   1.99213837E+02   1.99213837E+02  -3.06478882E+01  -3.42999744E+00   1.99213837E+02   1.99213837E+02  -3.42999744E+00  -3.06478882E+01   2.29861725E+02  -5.50453186E+01   2.13652374E+02  -3.05843601E+01   1.99150314E+02  -3.42999744E+00  -3.82066584E+00
             2301                1   2.20000000E+02   1.81740341E+02   1.81740341E+02  -3.69333572E+01  -3.95623779E+01   1.81740341E+02   1.81740341E+02  -3.69333572E+01  -3.95623779E+01   2.21302719E+02  -3.50815392E+01   2.19964645E+02  -3.68906708E+01   1.81697662E+02  -3.95623779E+01   3.05487156E+00
             2301                2   2.20000000E+02   1.81738190E+02   1.81738190E+02  -3.67627296E+01  -3.97308578E+01   1.81738190E+02   1.81738190E+02  -3.67627296E+01  -3.97308578E+01   2.21469055E+02  -3.50815353E+01   2.19954956E+02  -3.67394333E+01   1.81714905E+02  -3.97308578E+01  -2.25570989E+00
             2301                3   2.20000000E+02   1.81739761E+02   1.81739761E+02  -3.96102715E+01  -3.68848877E+01   1.81739761E+02   1.81739761E+02  -3.68848877E+01  -3.96102715E+01   2.21350037E+02  -3.50815315E+01   2.19962021E+02  -3.95787125E+01   1.81708206E+02  -3.68848877E+01   2.64251781E+00
             2301                4   2.20000000E+02   1.81741531E+02   1.81741531E+02  -3.94599724E+01  -3.70369492E+01   1.81741531E+02   1.81741531E+02  -3.70369492E+01  -3.94599724E+01   2.21201492E+02  -3.50815353E+01   2.19969971E+02  -3.94318352E+01   1.81713394E+02  -3.70369492E+01  -2.49441886E+00
             2302                1   2.20000000E+02   2.33375381E+02   2.33375381E+02  -4.10951853E+00   3.65260315E+01   2.33375381E+02   2.33375381E+02   3.65260315E+01  -4.10951853E+00   2.37484909E+02  -8.85972977E+01   2.11307785E+02  -3.91087246E+00   2.33176743E+02   3.65260315E+01   6.86555147E+00
             2302                2   2.20000000E+02   2.33157913E+02   2.33157913E+02  -5.13075352E+00   3.77647438E+01   2.33157913E+02   2.33157913E+02   3.77647438E+01  -5.13075352E+00   2.38288666E+02  -8.85972977E+01   2.10280228E+02  -5.09538126E+00   2.33122543E+02   3.77647438E+01   2.90296268E+00
             2302                3   2.20000000E+02   2.33108551E+02   2.33108551E+02  -5.35407066E+00   3.80374069E+01   2.33108551E+02   2.33108551E+02   3.80374069E+01  -5.35407066E+00   2.38462631E+02  -8.85972977E+01   2.10046234E+02  -4.94658899E+00   2.32701080E+02   3.80374069E+01   9.84895134E+00
             2302                4   2.20000000E+02   2.32895767E+02   2.32895767E+02  -6.28514957E+00   3.91812859E+01   2.32895767E+02   2.32895767E+02   3.91812859E+01  -6.28514957E+00   2.39180908E+02  -8.85972977E+01   2.09033722E+02  -6.13843870E+00   2.32749054E+02   3.91812859E+01   5.92181063E+00
             2303                1   2.20000000E+02   2.09921921E+02   2.09921921E+02  -1.20105228E+01  -8.09334087E+00   2.09921921E+02   2.09921921E+02  -8.09334087E+00  -1.20105228E+01   2.21932434E+02  -6.32726860E+01   2.19921509E+02  -1.16104107E+01   2.09521805E+02  -8.09334087E+00   9.41473675E+00
             2303                2   2.20000000E+02   2.09939209E+02   2.09939209E+02  -1.02434349E+01  -9.87771988E+00   2.09939209E+02   2.09939209E+02  -9.87771988E+00  -1.02434349E+01   2.20182632E+02  -6.32726860E+01   2.19999329E+02  -9.77359772E+00   2.09469376E+02  -9.87771988E+00   1.01600933E+01
             2303                3   2.20000000E+02   2.09927628E+02   2.09927628E+02  -1.16599770E+01  -8.44960976E+00   2.09927628E+02   2.09927628E+02  -8.44960976E+00  -1.16599770E+01   2.21587616E+02  -6.32726784E+01   2.19947281E+02  -1.14966278E+01   2.09764282E+02  -8.44960976E+00   6.01411295E+00
             2303                4   2.20000000E+02   2.09939178E+02   2.09939178E+02  -9.86071205E+00  -1.02604113E+01   2.09939178E+02   2.09939178E+02  -9.86071205E+00  -1.02604113E+01   2.20199585E+02  -6.32726860E+01   2.19999191E+02  -9.65725231E+00   2.09735718E+02  -1.02604113E+01   6.68415546E+00
             2304                1   2.20000000E+02   1.86855713E+02   1.86855713E+02  -3.57904282E+01  -3.03990612E+01   1.86855713E+02   1.86855713E+02  -3.03990612E+01  -3.57904282E+01   2.22646133E+02  -4.02220726E+01   2.19851288E+02  -3.54845810E+01   1.86549850E+02  -3.03990612E+01   8.24645138E+00
             2304                2   2.20000000E+02   1.86767181E+02   1.86767181E+02  -3.82205086E+01  -2.78804722E+01   1.86767181E+02   1.86767181E+02  -2.78804722E+01  -3.82205086E+01   2.24987701E+02  -4.02220688E+01   2.19452271E+02  -3.80919228E+01   1.86638596E+02  -2.78804722E+01   5.37724495E+00
             2304                3   2.20000000E+02   1.86809464E+02   1.86809464E+02  -3.72469711E+01  -2.88962879E+01   1.86809464E+02   1.86809464E+02  -2.88962879E+01  -3.72469711E+01   2.24056442E+02  -4.02220726E+01   2.19642975E+02  -3.64556808E+01   1.86018173E+02  -2.88962879E+01   1.32916956E+01
             2304                4   2.20000000E+02   1.86696808E+02   1.86696808E+02  -3.95111885E+01  -2.65194111E+01   1.86696808E+02   1.86696808E+02  -2.65194111E+01  -3.95111885E+01   2.26208008E+02  -4.02220726E+01   2.19134430E+02  -3.90391541E+01   1.86224777E+02  -2.65194111E+01   1.03225651E+01
             2305                1   4.95213470E+01   4.47847710E+01   4.47847710E+01  -3.31151414E+00  -6.04815245E+00   4.47847710E+01   4.47847710E+01  -3.31151414E+00  -6.04815245E+00   5.08329201E+01  -1.18083677E+01   4.93507881E+01  -8.14247012E-01   4.22875023E+01  -6.04815245E+00   1.06711254E+01
             2305                2   4.90141144E+01   4.44358444E+01   4.44358444E+01  -2.96259427E+00  -6.04815245E+00   4.44358444E+01   4.44358444E+01  -2.96259427E+00  -6.04815245E+00   5.04839973E+01  -1.18083658E+01   4.87948837E+01  -4.15777683E-01   4.18890305E+01  -6.04815245E+00   1.06877871E+01
             2305                3   4.92641068E+01   4.46080055E+01   4.46080055E+01  -3.13474965E+00  -6.04815245E+00   4.46080055E+01   4.46080055E+01  -3.13474965E+00  -6.04815245E+00   5.06561584E+01  -1.18083677E+01   4.90697250E+01  -8.07059824E-01   4.22803154E+01  -6.04815245E+00   1.02816420E+01
             2305                4   4.87546463E+01   4.42567673E+01   4.42567673E+01  -2.78351355E+00  -6.04815245E+00   4.42567673E+01   4.42567673E+01  -2.78351355E+00  -6.04815245E+00   5.03049202E+01  -1.18083677E+01   4.85078163E+01  -4.08583879E-01   4.18818398E+01  -6.04815245E+00   1.02993708E+01
             2306                1   2.20000000E+02   2.36267456E+02   2.36267456E+02  -1.40345013E+00   3.97505455E+01   2.36267456E+02   2.36267456E+02   3.97505455E+01  -1.40345013E+00   2.37670898E+02  -9.15381775E+01   2.11077621E+02  -1.38038194E+00   2.36244385E+02   3.97505455E+01   2.34116650E+00
             2306                2   2.20000000E+02   2.36046158E+02   2.36046158E+02  -2.42795610E+00   4.09963531E+01   2.36046158E+02   2.36046158E+02   4.09963531E+01  -2.42795610E+00   2.38474106E+02  -9.15381851E+01   2.10030609E+02  -2.32779288E+00   2.35945984E+02   4.09963531E+01   4.88642788E+00
             2306                3   2.20000000E+02   2.36444977E+02   2.36444977E+02  -5.32845855E-01   3.87024231E+01   2.36444977E+02   2.36444977E+02   3.87024231E+01  -5.32845855E-01   2.36977814E+02  -9.15381851E+01   2.11913086E+02  -3.90787423E-01   2.36302917E+02   3.87024231E+01   5.80027914E+00
             2306                4   2.20000000E+02   2.36220352E+02   2.36220352E+02  -1.62684214E+00   4.00210533E+01   2.36220352E+02   2.36220352E+02   4.00210533E+01  -1.62684214E+00   2.37847183E+02  -9.15381851E+01   2.10855255E+02  -1.33644783E+00   2.35929947E+02   4.00210533E+01   8.30582714E+00
             2307                1   2.20000000E+02   2.18358734E+02   2.18358734E+02  -2.19460735E+01   2.68606777E+01   2.18358734E+02   2.18358734E+02   2.68606777E+01  -2.19460735E+01   2.40304810E+02  -7.44244461E+01   2.07287369E+02  -2.17846794E+01   2.18197342E+02   2.68606777E+01   6.22548294E+00
             2307                2   2.20000000E+02   2.18097275E+02   2.18097275E+02  -2.29447212E+01   2.81207829E+01   2.18097275E+02   2.18097275E+02   2.81207829E+01  -2.29447212E+01   2.41041992E+02  -7.44244461E+01   2.06022690E+02  -2.29197083E+01   2.18072266E+02   2.81207829E+01   2.45527744E+00
             2307                3   2.20000000E+02   2.17983810E+02   2.17983810E+02  -2.33622303E+01   2.86517582E+01   2.17983810E+02   2.17983810E+02   2.86517582E+01  -2.33622303E+01   2.41346039E+02  -7.44244461E+01   2.05470963E+02  -2.30762501E+01   2.17697830E+02   2.86517582E+01   8.30295563E+00
             2307                4   2.20000000E+02   2.17732224E+02   2.17732224E+02  -2.42571220E+01   2.97982559E+01   2.17732224E+02   2.17732224E+02   2.97982559E+01  -2.42571220E+01   2.41989349E+02  -7.44244461E+01   2.04241104E+02  -2.41675491E+01   2.17642639E+02   2.97982559E+01   4.65505743E+00
             2308                1   2.20000000E+02   2.32796280E+02   2.32796280E+02   1.53655100E+01   1.03140507E+01   2.32796280E+02   2.32796280E+02   1.53655100E+01   1.03140507E+01   2.22482224E+02  -8.61586075E+01   2.19869461E+02   1.56605844E+01   2.32501205E+02   1.03140507E+01   8.00443459E+00
             2308                2   2.20000000E+02   2.32803925E+02   2.32803925E+02   1.50033302E+01   1.06685839E+01   2.32803925E+02   2.32803925E+02   1.50033302E+01   1.06685839E+01   2.22135330E+02  -8.61586075E+01   2.19903885E+02   1.52085428E+01   2.32598709E+02   1.06685839E+01   6.68230343E+00
             2308                3   2.20000000E+02   2.32810501E+02   2.32810501E+02   1.46358509E+01   1.10294895E+01   2.32810501E+02   2.32810501E+02   1.46358509E+01   1.10294895E+01   2.21781006E+02  -8.61586075E+01   2.19933487E+02   1.49986429E+01   2.32447708E+02   1.10294895E+01   8.88933372E+00
             2308                4   2.20000000E+02   2.32815598E+02   2.32815598E+02   1.42899656E+01   1.13702888E+01   2.32815598E+02   2.32815598E+02   1.42899656E+01   1.13702888E+01   2.21445312E+02  -8.61586227E+01   2.19956390E+02   1.45525608E+01   2.32552994E+02   1.13702888E+01   7.57073689E+00
             2309                1   2.20000000E+02   1.85938889E+02   1.85938889E+02  -3.98198586E+01  -2.78103848E+01   1.85938889E+02   1.85938889E+02  -2.78103848E+01  -3.98198586E+01   2.25758759E+02  -3.94362144E+01   2.19260681E+02  -3.95100403E+01   1.85629074E+02  -2.78103848E+01   8.35754490E+00
             2309                2   2.20000000E+02   1.85770523E+02   1.85770523E+02  -4.22769089E+01  -2.51849842E+01   1.85770523E+02   1.85770523E+02  -2.51849842E+01  -4.22769089E+01   2.28047440E+02  -3.94362144E+01   2.18498734E+02  -4.21979637E+01   1.85691589E+02  -2.51849842E+01   4.24216652E+00
             2309                3   2.19999985E+02   1.85809952E+02   1.85809952E+02  -4.17743645E+01  -2.57269478E+01   1.85809952E+02   1.85809952E+02  -2.57269478E+01  -4.17743645E+01   2.27584305E+02  -3.94362144E+01   2.18677399E+02  -4.09417801E+01   1.84977371E+02  -2.57269478E+01   1.37400208E+01
             2309                4   2.20000000E+02   1.85614853E+02   1.85614853E+02  -4.40062370E+01  -2.32999630E+01   1.85614853E+02   1.85614853E+02  -2.32999630E+01  -4.40062370E+01   2.29621078E+02  -3.94362144E+01   2.17791504E+02  -4.36085281E+01   1.85217133E+02  -2.32999630E+01   9.54808140E+00
             2310                1   2.14931641E+02   1.83209427E+02   1.83209427E+02  -3.79093552E+01  -2.49485111E+01   1.83209427E+02   1.83209427E+02  -2.49485111E+01  -3.79093552E+01   2.21118774E+02  -4.01171837E+01   2.14049759E+02  -3.78513184E+01   1.83151382E+02  -2.49485111E+01   3.58185577E+00
             2310                2   2.15592880E+02   1.83496292E+02   1.83496292E+02  -4.02472992E+01  -2.28974438E+01   1.83496292E+02   1.83496292E+02  -2.28974438E+01  -4.02472992E+01   2.23743591E+02  -4.01171837E+01   2.14013779E+02  -4.02377014E+01   1.83486694E+02  -2.28974438E+01  -1.46537745E+00
             2310                3   2.15717972E+02   1.83557632E+02   1.83557632E+02  -4.05497284E+01  -2.26563663E+01   1.83557632E+02   1.83557632E+02  -2.26563663E+01  -4.05497284E+01   2.24107361E+02  -4.01171799E+01   2.14038803E+02  -4.02429581E+01   1.83250870E+02  -2.26563663E+01   8.28574657E+00
             2310                4   2.16065948E+02   1.83603333E+02   1.83603333E+02  -4.25936317E+01  -2.06581554E+01   1.83603333E+02   1.83603333E+02  -2.06581554E+01  -4.25936317E+01   2.26196960E+02  -4.01171837E+01   2.13539291E+02  -4.25454483E+01   1.83555145E+02  -2.06581554E+01   3.30123687E+00
             2311                1   2.20000000E+02   2.28456512E+02   2.28456512E+02  -7.91220284E+00   2.96658974E+01   2.28456512E+02   2.28456512E+02   2.96658974E+01  -7.91220284E+00   2.36368713E+02  -8.34034042E+01   2.12598953E+02  -7.62590313E+00   2.28170212E+02   2.96658974E+01   8.22137451E+00
             2311                2   2.20000000E+02   2.28239960E+02   2.28239960E+02  -9.01763058E+00   3.09878674E+01   2.28239960E+02   2.28239960E+02   3.09878674E+01  -9.01763058E+00   2.37257599E+02  -8.34034042E+01   2.11583084E+02  -8.94608688E+00   2.28168427E+02   3.09878674E+01   4.11925077E+00
             2311                3   2.20000000E+02   2.28190079E+02   2.28190079E+02  -9.26183414E+00   3.12819843E+01   2.28190079E+02   2.28190079E+02   3.12819843E+01  -9.26183414E+00   2.37451904E+02  -8.34034042E+01   2.11348175E+02  -8.72842693E+00   2.27656662E+02   3.12819843E+01   1.12416553E+01
             2311                4   2.20000000E+02   2.27974197E+02   2.27974197E+02  -1.02781582E+01   3.25141678E+01   2.27974197E+02   2.27974197E+02   3.25141678E+01  -1.02781582E+01   2.38252365E+02  -8.34034042E+01   2.10328506E+02  -1.00642738E+01   2.27760315E+02   3.25141678E+01   7.13537073E+00
             2312                1   2.20000000E+02   1.87202881E+02   1.87202881E+02  -3.15511436E+01  -3.40222740E+01   1.87202881E+02   1.87202881E+02  -3.15511436E+01  -3.40222740E+01   2.21225143E+02  -4.05431519E+01   2.19968765E+02  -3.15092907E+01   1.87161026E+02  -3.40222740E+01   3.02544355E+00
             2312                2   2.20000000E+02   1.87200653E+02   1.87200653E+02  -3.13654499E+01  -3.42057381E+01   1.87200653E+02   1.87200653E+02  -3.13654499E+01  -3.42057381E+01   2.21406387E+02  -4.05431557E+01   2.19958740E+02  -3.13477783E+01   1.87182983E+02  -3.42057381E+01  -1.96517420E+00
             2312                3   2.20000000E+02   1.87202240E+02   1.87202240E+02  -3.40784264E+01  -3.14943371E+01   1.87202240E+02   1.87202240E+02  -3.14943371E+01  -3.40784264E+01   2.21280670E+02  -4.05431557E+01   2.19965851E+02  -3.40480690E+01   1.87171875E+02  -3.14943371E+01   2.59181714E+00
             2312                4   2.20000000E+02   1.87204041E+02   1.87204041E+02  -3.39139137E+01  -3.16606712E+01   1.87204041E+02   1.87204041E+02  -3.16606712E+01  -3.39139137E+01   2.21117966E+02  -4.05431519E+01   2.19974030E+02  -3.38911629E+01   1.87181290E+02  -3.16606712E+01  -2.24298835E+00
             2313                1   2.20000000E+02   2.09041336E+02   2.09041336E+02  -2.13155136E+01   1.11703956E+00   2.09041336E+02   2.09041336E+02   1.11703956E+00  -2.13155136E+01   2.30356842E+02  -6.29476166E+01   2.17404617E+02  -2.05837955E+01   2.08309616E+02   1.11703956E+00   1.29622355E+01
             2313                2   2.20000000E+02   2.09160629E+02   2.09160629E+02  -2.01414165E+01  -1.76343024E-01   2.09160629E+02   2.09160629E+02  -1.76343024E-01  -2.01414165E+01   2.29302048E+02  -6.29476204E+01   2.17947845E+02  -1.91946316E+01   2.08213837E+02  -1.76343024E-01   1.47039051E+01
             2313                3   2.20000000E+02   2.09136139E+02   2.09136139E+02  -2.03946190E+01   1.01342849E-01   2.09136139E+02   2.09136139E+02   1.01342849E-01  -2.03946190E+01   2.29530762E+02  -6.29476204E+01   2.17836456E+02  -1.99110737E+01   2.08652588E+02   1.01342849E-01   1.05240345E+01
             2313                4   2.20000000E+02   2.09244217E+02   2.09244217E+02  -1.92180595E+01  -1.18329477E+00   2.09244217E+02   2.09244217E+02  -1.18329477E+00  -1.92180595E+01   2.28462265E+02  -6.29476204E+01   2.18327576E+02  -1.85683002E+01   2.08594452E+02  -1.18329477E+00   1.21664991E+01
             2314                1   2.20000000E+02   2.21240997E+02   2.21240997E+02  -7.29473209E+00   1.09076939E+01   2.21240997E+02   2.21240997E+02   1.09076939E+01  -7.29473209E+00   2.28535721E+02  -7.49513168E+01   2.18296173E+02  -6.66933918E+00   2.20615601E+02   1.09076939E+01   1.19387102E+01
             2314                2   2.20000000E+02   2.21302963E+02   2.21302963E+02  -6.54504251E+00   1.00960464E+01   2.21302963E+02   2.21302963E+02   1.00960464E+01  -6.54504251E+00   2.27848007E+02  -7.49513245E+01   2.18577240E+02  -5.76595163E+00   2.20523865E+02   1.00960464E+01   1.33007030E+01
             2314                3   2.20000000E+02   2.21295807E+02   2.21295807E+02  -6.63520718E+00   1.01933441E+01   2.21295807E+02   2.21295807E+02   1.01933441E+01  -6.63520718E+00   2.27931015E+02  -7.49513168E+01   2.18544861E+02  -6.17533302E+00   2.20835938E+02   1.01933441E+01   1.02277489E+01
             2314                4   2.20000000E+02   2.21355957E+02   2.21355957E+02  -5.84018135E+00   9.33818913E+00   2.21355957E+02   2.21355957E+02   9.33818913E+00  -5.84018135E+00   2.27196136E+02  -7.49513245E+01   2.18817307E+02  -5.24475527E+00   2.20760529E+02   9.33818913E+00   1.16157179E+01
             2315                1   2.20000000E+02   2.14281815E+02   2.14281815E+02  -6.98364496E+00  -4.43050623E+00   2.14281815E+02   2.14281815E+02  -4.43050623E+00  -6.98364496E+00   2.21265457E+02  -6.76225510E+01   2.19966675E+02  -6.75519323E+00   2.14053360E+02  -4.43050623E+00   7.10615540E+00
             2315                2   2.20000000E+02   2.14288330E+02   2.14288330E+02  -5.26583338E+00  -6.15483046E+00   2.14288330E+02   2.14288330E+02  -5.26583338E+00  -6.15483046E+00   2.20443161E+02  -6.76225510E+01   2.19995956E+02  -5.00880671E+00   2.14031296E+02  -6.15483046E+00   7.50770998E+00
             2315                3   2.20000000E+02   2.14283844E+02   2.14283844E+02  -6.79584694E+00  -4.62033653E+00   2.14283844E+02   2.14283844E+02  -4.62033653E+00  -6.79584694E+00   2.21079681E+02  -6.76225510E+01   2.19975784E+02  -6.72812128E+00   2.14216110E+02  -4.62033653E+00   3.86893964E+00
             2315                4   2.20000000E+02   2.14287308E+02   2.14287308E+02  -5.06159544E+00  -6.35805845E+00   2.14287308E+02   2.14287308E+02  -5.06159544E+00  -6.35805845E+00   2.20645355E+02  -6.76225510E+01   2.19991409E+02  -4.98117113E+00   2.14206879E+02  -6.35805845E+00   4.19936275E+00
             2316                1   2.20000000E+02   2.34942810E+02   2.34942810E+02  -4.47357684E-01   3.45216789E+01   2.34942810E+02   2.34942810E+02   3.45216789E+01  -4.47357684E-01   2.35390167E+02  -8.96723709E+01   2.13612823E+02  -2.88153827E-01   2.34783600E+02   3.45216789E+01   6.11974573E+00
             2316                2   2.20000000E+02   2.34796570E+02   2.34796570E+02  -1.26253784E+00   3.54831009E+01   2.34796570E+02   2.34796570E+02   3.54831009E+01  -1.26253784E+00   2.36059097E+02  -8.96723709E+01   2.12931152E+02  -1.22572362E+00   2.34759750E+02   3.54831009E+01   2.94772148E+00
             2316                3   2.20000000E+02   2.34752014E+02   2.34752014E+02  -1.50226355E+00   3.57673645E+01   2.34752014E+02   2.34752014E+02   3.57673645E+01  -1.50226355E+00   2.36254288E+02  -8.96723709E+01   2.12723022E+02  -1.20749795E+00   2.34457260E+02   3.57673645E+01   8.33973885E+00
             2316                4   2.20000000E+02   2.34606979E+02   2.34606979E+02  -2.25778151E+00   3.66679306E+01   2.34606979E+02   2.34606979E+02   3.66679306E+01  -2.25778151E+00   2.36864761E+02  -8.96723709E+01   2.12043701E+02  -2.14342451E+00   2.34492615E+02   3.66679306E+01   5.20343971E+00
             2317                1   2.20000000E+02   2.26566193E+02   2.26566193E+02   7.16658020E+00   5.97066736E+00   2.26566193E+02   2.26566193E+02   7.16658020E+00   5.97066736E+00   2.20595520E+02  -7.99011459E+01   2.19992691E+02   7.39299488E+00   2.26339783E+02   5.97066736E+00   7.04436207E+00
             2317                2   2.20000000E+02   2.26565872E+02   2.26565872E+02   5.91573095E+00   7.22183704E+00   2.26565872E+02   2.26565872E+02   7.22183704E+00   5.91573095E+00   2.20650131E+02  -7.99011459E+01   2.19991272E+02   6.13535786E+00   2.26346237E+02   7.22183704E+00   6.95795441E+00
             2317                3   2.20000000E+02   2.26566574E+02   2.26566574E+02   7.09094191E+00   6.04592752E+00   2.26566574E+02   2.26566574E+02   7.09094191E+00   6.04592752E+00   2.20520645E+02  -7.99011459E+01   2.19994415E+02   7.49185038E+00   2.26165665E+02   6.04592752E+00   9.37172699E+00
             2317                4   2.20000000E+02   2.26565414E+02   2.26565414E+02   5.84429312E+00   7.29372168E+00   2.26565414E+02   2.26565414E+02   7.29372168E+00   5.84429312E+00   2.20721130E+02  -7.99011459E+01   2.19989258E+02   6.23255825E+00   2.26177155E+02   7.29372168E+00   9.24920368E+00
             2318                1   2.20000000E+02   1.96116241E+02   1.96116241E+02  -2.70843773E+01  -2.05369663E+01   1.96116241E+02   1.96116241E+02  -2.05369663E+01  -2.70843773E+01   2.23200623E+02  -4.94982948E+01   2.19780624E+02  -2.66566486E+01   1.95688507E+02  -2.05369663E+01   9.76150131E+00
             2318                2   2.20000000E+02   1.96158981E+02   1.96158981E+02  -2.49798374E+01  -2.26842442E+01   1.96158981E+02   1.96158981E+02  -2.26842442E+01  -2.49798374E+01   2.21138809E+02  -4.94982948E+01   2.19973053E+02  -2.43998985E+01   1.95579041E+02  -2.26842442E+01   1.13097248E+01
             2318                3   2.20000000E+02   1.96135208E+02   1.96135208E+02  -2.63787022E+01  -2.12616062E+01   1.96135208E+02   1.96135208E+02  -2.12616062E+01  -2.63787022E+01   2.22513901E+02  -4.94982948E+01   2.19866043E+02  -2.62411041E+01   1.95997604E+02  -2.12616062E+01   5.53159142E+00
             2318                4   2.20000000E+02   1.96164383E+02   1.96164383E+02  -2.41945629E+01  -2.34749069E+01   1.96164383E+02   1.96164383E+02  -2.34749069E+01  -2.41945629E+01   2.20358948E+02  -4.94983025E+01   2.19997360E+02  -2.39735184E+01   1.95943329E+02  -2.34749069E+01   6.97581577E+00
             2319                1   2.20000000E+02   2.08416351E+02   2.08416351E+02  -3.08588104E+01   1.48832626E+01   2.08416351E+02   2.08416351E+02   1.48832626E+01  -3.08588104E+01   2.39275162E+02  -6.41469345E+01   2.08895096E+02  -3.08401375E+01   2.08397675E+02   1.48832626E+01  -2.11392117E+00
             2319                2   2.20000000E+02   2.08070969E+02   2.08070969E+02  -3.22637482E+01   1.66335754E+01   2.08070969E+02   2.08070969E+02   1.66335754E+01  -3.22637482E+01   2.40334717E+02  -6.41469345E+01   2.07237976E+02  -3.22634239E+01   2.08070648E+02   1.66335754E+01  -2.77886242E-01
             2319                3   2.20000000E+02   2.08668564E+02   2.08668564E+02  -2.97577248E+01   1.35299578E+01   2.08668564E+02   2.08668564E+02   1.35299578E+01  -2.97577248E+01   2.38426300E+02  -6.41469345E+01   2.10095459E+02  -2.97542591E+01   2.08665100E+02   1.35299578E+01   9.09294486E-01
             2319                4   2.20000015E+02   2.08319122E+02   2.08319122E+02  -3.12655087E+01   1.53871927E+01   2.08319122E+02   2.08319122E+02   1.53871927E+01  -3.12655087E+01   2.39584641E+02  -6.41469345E+01   2.08430161E+02  -3.12363777E+01   2.08289993E+02   1.53871927E+01   2.64186382E+00
             2320                1   2.19999985E+02   2.18841675E+02   2.18841675E+02  -8.30400848E+00   6.76183939E+00   2.18841675E+02   2.18841675E+02   6.76183939E+00  -8.30400848E+00   2.27145676E+02  -7.24331665E+01   2.18834839E+02  -7.45573807E+00   2.17993393E+02   6.76183939E+00   1.38550463E+01
             2320                2   2.20000000E+02   2.18891418E+02   2.18891418E+02  -7.56492519E+00   5.97301006E+00   2.18891418E+02   2.18891418E+02   5.97301006E+00  -7.56492519E+00   2.26456345E+02  -7.24331665E+01   2.19059891E+02  -6.71508932E+00   2.18041580E+02   5.97301006E+00   1.38466187E+01
             2320                3   2.20000000E+02   2.18858932E+02   2.18858932E+02  -8.05663204E+00   6.49720049E+00   2.18858932E+02   2.18858932E+02   6.49720049E+00  -8.05663204E+00   2.26915573E+02  -7.24331741E+01   2.18912964E+02  -7.40024328E+00   2.18202545E+02   6.49720049E+00   1.21866808E+01
             2320                4   2.20000000E+02   2.18906342E+02   2.18906342E+02  -7.32570744E+00   5.71886110E+00   2.18906342E+02   2.18906342E+02   5.71886110E+00  -7.32570744E+00   2.26232040E+02  -7.24331589E+01   2.19127365E+02  -6.67025185E+00   2.18250885E+02   5.71886110E+00   1.21595306E+01
             2321                1   2.20000000E+02   2.34599289E+02   2.34599289E+02   1.74777279E+01   1.18296165E+01   2.34599289E+02   2.34599289E+02   1.74777279E+01   1.18296165E+01   2.22769669E+02  -8.79688721E+01   2.19836792E+02   1.76766758E+01   2.34400330E+02   1.18296165E+01   6.56945515E+00
             2321                2   2.20000000E+02   2.34608978E+02   2.34608978E+02   1.70656223E+01   1.22320166E+01   2.34608978E+02   2.34608978E+02   1.70656223E+01   1.22320166E+01   2.22376968E+02  -8.79688721E+01   2.19880478E+02   1.72010002E+01   2.34473602E+02   1.22320166E+01   5.42523432E+00
             2321                3   2.20000000E+02   2.34613403E+02   2.34613403E+02   1.68535118E+01   1.24397030E+01   2.34613403E+02   2.34613403E+02   1.68535118E+01   1.24397030E+01   2.22173706E+02  -8.79688721E+01   2.19900360E+02   1.71153793E+01   2.34351547E+02   1.24397030E+01   7.54680157E+00
             2321                4   2.20000000E+02   2.34620529E+02   2.34620529E+02   1.64603519E+01   1.28257389E+01   2.34620529E+02   2.34620529E+02   1.64603519E+01   1.28257389E+01   2.21794800E+02  -8.79688721E+01   2.19932449E+02   1.66480293E+01   2.34432861E+02   1.28257389E+01   6.39591932E+00
             2322                1   2.20000000E+02   2.27944275E+02   2.27944275E+02  -7.06021023E+00   2.68975925E+01   2.27944275E+02   2.27944275E+02   2.68975925E+01  -7.06021023E+00   2.35004486E+02  -8.25938873E+01   2.13984406E+02  -6.73922348E+00   2.27623291E+02   2.68975925E+01   8.67924976E+00
             2322                2   2.20000000E+02   2.27769028E+02   2.27769028E+02  -8.06209183E+00   2.80747204E+01   2.27769028E+02   2.27769028E+02   2.80747204E+01  -8.06209183E+00   2.35831131E+02  -8.25938873E+01   2.13168930E+02  -7.94544935E+00   2.27652390E+02   2.80747204E+01   5.24349499E+00
             2322                3   2.20000000E+02   2.27729248E+02   2.27729248E+02  -8.28031445E+00   2.83327312E+01   2.27729248E+02   2.27729248E+02   2.83327312E+01  -8.28031445E+00   2.36009552E+02  -8.25938873E+01   2.12983292E+02  -7.73644209E+00   2.27185364E+02   2.83327312E+01   1.13165836E+01
             2322                4   2.20000000E+02   2.27557602E+02   2.27557602E+02  -9.18756390E+00   2.94116211E+01   2.27557602E+02   2.27557602E+02   2.94116211E+01  -9.18756390E+00   2.36745163E+02  -8.25938873E+01   2.12180237E+02  -8.91913128E+00   2.27289169E+02   2.94116211E+01   7.96735716E+00
             2323                1   2.20000000E+02   2.23607574E+02   2.23607574E+02  -1.15436001E+01   2.27977238E+01   2.23607574E+02   2.23607574E+02   2.27977238E+01  -1.15436001E+01   2.35151184E+02  -7.82872391E+01   2.13844864E+02  -1.11630049E+01   2.23226990E+02   2.27977238E+01   9.45258999E+00
             2323                2   2.20000000E+02   2.23413330E+02   2.23413330E+02  -1.26373196E+01   2.40856972E+01   2.23413330E+02   2.23413330E+02   2.40856972E+01  -1.26373196E+01   2.36050659E+02  -7.82872391E+01   2.12940063E+02  -1.24922066E+01   2.23268219E+02   2.40856972E+01   5.85097837E+00
             2323                3   2.20000000E+02   2.23379486E+02   2.23379486E+02  -1.28199196E+01   2.43021297E+01   2.23379486E+02   2.23379486E+02   2.43021297E+01  -1.28199196E+01   2.36199417E+02  -7.82872314E+01   2.12781967E+02  -1.22030258E+01   2.22762604E+02   2.43021297E+01   1.20551939E+01
             2323                4   2.20000000E+02   2.23182312E+02   2.23182312E+02  -1.38427267E+01   2.55221291E+01   2.23182312E+02   2.23182312E+02   2.55221291E+01  -1.38427267E+01   2.37025040E+02  -7.82872391E+01   2.11858093E+02  -1.35426006E+01   2.22882187E+02   2.55221291E+01   8.42892456E+00
             2324                1   2.19999985E+02   1.68456726E+02   1.68456726E+02  -5.40032387E+01  -4.89978714E+01   1.68456726E+02   1.68456726E+02  -4.89978714E+01  -5.40032387E+01   2.22459961E+02  -2.18185368E+01   2.19871826E+02  -5.38868637E+01   1.68340347E+02  -4.89978714E+01   5.08684444E+00
             2324                2   2.20000000E+02   1.68483856E+02   1.68483856E+02  -5.09702187E+01  -5.20580292E+01   1.68483856E+02   1.68483856E+02  -5.09702187E+01  -5.20580292E+01   2.20541885E+02  -2.18185368E+01   2.19993958E+02  -5.07724571E+01   1.68286102E+02  -5.20580292E+01   6.58482552E+00
             2324                3   2.20000000E+02   1.68469803E+02   1.68469803E+02  -5.33479805E+01  -4.96661987E+01   1.68469803E+02   1.68469803E+02  -4.96661987E+01  -5.33479805E+01   2.21817780E+02  -2.18185406E+01   2.19930664E+02  -5.33440628E+01   1.68465881E+02  -4.96661987E+01  -9.32684779E-01
             2324                4   2.20000000E+02   1.68477585E+02   1.68477585E+02  -5.02158012E+01  -5.28061600E+01   1.68477585E+02   1.68477585E+02  -5.02158012E+01  -5.28061600E+01   2.21283737E+02  -2.18185406E+01   2.19965683E+02  -5.02152252E+01   1.68477005E+02  -5.28061600E+01   3.54616374E-01
             2325                1   2.20000000E+02   2.33239136E+02   2.33239136E+02  -1.10056567E+00   3.11358852E+01   2.33239136E+02   2.33239136E+02   3.11358852E+01  -1.10056567E+00   2.34339691E+02  -8.77581482E+01   2.14589813E+02  -1.04533029E+00   2.33183899E+02   3.11358852E+01   3.59721422E+00
             2325                2   2.20000000E+02   2.33089615E+02   2.33089615E+02  -2.00753140E+00   3.21923637E+01   2.33089615E+02   2.33089615E+02   3.21923637E+01  -2.00753140E+00   2.35097137E+02  -8.77581482E+01   2.13896515E+02  -1.87467360E+00   2.32956757E+02   3.21923637E+01   5.58707809E+00
             2325                3   2.20000000E+02   2.33356949E+02   2.33356949E+02  -3.40783536E-01   3.02582855E+01   2.33356949E+02   2.33356949E+02   3.02582855E+01  -3.40783536E-01   2.33697723E+02  -8.77581482E+01   2.15134308E+02  -1.69524401E-01   2.33185684E+02   3.02582855E+01   6.32403088E+00
             2325                4   2.20000000E+02   2.33207794E+02   2.33207794E+02  -1.29561901E+00   3.13622837E+01   2.33207794E+02   2.33207794E+02   3.13622837E+01  -1.29561901E+00   2.34503403E+02  -8.77581482E+01   2.14444717E+02  -1.00226319E+00   2.32914429E+02   3.13622837E+01   8.28903008E+00
             2326                1   2.20000000E+02   2.00627563E+02   2.00627563E+02  -2.21107445E+01  -1.65278530E+01   2.00627563E+02   2.00627563E+02  -1.65278530E+01  -2.21107445E+01   2.22738312E+02  -5.39963226E+01   2.19840515E+02  -2.16793728E+01   2.00196182E+02  -1.65278530E+01   9.79276848E+00
             2326                2   2.20000000E+02   2.00660263E+02   2.00660263E+02  -2.01092281E+01  -1.85620861E+01   2.00660263E+02   2.00660263E+02  -1.85620861E+01  -2.01092281E+01   2.20769501E+02  -5.39963188E+01   2.19987778E+02  -1.95596561E+01   2.00110703E+02  -1.85620861E+01   1.10011578E+01
             2326                3   2.20000000E+02   2.00640396E+02   2.00640396E+02  -2.15544014E+01  -1.70970497E+01   2.00640396E+02   2.00640396E+02  -1.70970497E+01  -2.15544014E+01   2.22194809E+02  -5.39963188E+01   2.19898361E+02  -2.14011364E+01   2.00487137E+02  -1.70970497E+01   5.83359337E+00
             2326                4   2.20000000E+02   2.00662872E+02   2.00662872E+02  -1.94938107E+01  -1.91801071E+01   2.00662872E+02   2.00662872E+02  -1.91801071E+01  -1.94938107E+01   2.20156693E+02  -5.39963188E+01   2.19999512E+02  -1.92744579E+01   2.00443527E+02  -1.91801071E+01   6.94573498E+00
             2327                1   2.20000000E+02   1.92678436E+02   1.92678436E+02  -2.85200539E+01  -2.61031322E+01   1.92678436E+02   1.92678436E+02  -2.61031322E+01  -2.85200539E+01   2.21198502E+02  -4.60184174E+01   2.19970123E+02  -2.84890175E+01   1.92647400E+02  -2.61031322E+01   2.62014675E+00
             2327                2   2.20000000E+02   1.92678787E+02   1.92678787E+02  -2.61343689E+01  -2.84891548E+01   1.92678787E+02   1.92678787E+02  -2.61343689E+01  -2.84891548E+01   2.21167938E+02  -4.60184212E+01   2.19971634E+02  -2.60956287E+01   1.92640045E+02  -2.84891548E+01   2.91130137E+00
             2327                3   2.20000000E+02   1.92679535E+02   1.92679535E+02  -2.84164925E+01  -2.62077847E+01   1.92679535E+02   1.92679535E+02  -2.62077847E+01  -2.84164925E+01   2.21096039E+02  -4.60184212E+01   2.19975037E+02  -2.83998165E+01   1.92662857E+02  -2.62077847E+01  -1.92044592E+00
             2327                4   2.20000000E+02   1.92677475E+02   1.92677475E+02  -2.60182095E+01  -2.86040154E+01   1.92677475E+02   1.92677475E+02  -2.60182095E+01  -2.86040154E+01   2.21281494E+02  -4.60184174E+01   2.19965805E+02  -2.60039101E+01   1.92663177E+02  -2.86040154E+01  -1.76861548E+00
             2328                1   2.18624756E+02   1.99236923E+02   1.99236923E+02  -3.29371529E+01  -2.68823886E+00   1.99236923E+02   1.99236923E+02  -2.68823886E+00  -3.29371529E+01   2.32174072E+02  -5.45371819E+01   2.13840698E+02  -3.25042877E+01   1.98804062E+02  -2.68823886E+00   1.00156202E+01
             2328                2   2.18322540E+02   1.99406952E+02   1.99406952E+02  -3.00552044E+01  -5.74022007E+00   1.99406952E+02   1.99406952E+02  -5.74022007E+00  -3.00552044E+01   2.29462158E+02  -5.45371742E+01   2.15244675E+02  -3.00184898E+01   1.99370239E+02  -5.74022007E+00   2.90213895E+00
             2328                3   2.18712250E+02   1.98911407E+02   1.98911407E+02  -3.53156357E+01   1.57423392E-02   1.98911407E+02   1.98911407E+02   1.57423392E-02  -3.53156357E+01   2.34227051E+02  -5.45371742E+01   2.12148911E+02  -3.52923546E+01   1.98888138E+02   1.57423392E-02   2.33481050E+00
             2328                4   2.18436172E+02   1.99120911E+02   1.99120911E+02  -3.28028183E+01  -2.70654678E+00   1.99120911E+02   1.99120911E+02  -2.70654678E+00  -3.28028183E+01   2.31923721E+02  -5.45371819E+01   2.13696823E+02  -3.27012634E+01   1.99019348E+02  -2.70654678E+00  -4.85209942E+00
             2329                1   2.20000000E+02   1.88577545E+02   1.88577545E+02  -3.65787544E+01  -2.58754253E+01   1.88577545E+02   1.88577545E+02  -2.58754253E+01  -3.65787544E+01   2.25156296E+02  -4.20411224E+01   2.19413040E+02  -3.62070427E+01   1.88205841E+02  -2.58754253E+01   9.14078712E+00
             2329                2   2.20000000E+02   1.88432632E+02   1.88432632E+02  -3.89313202E+01  -2.33779469E+01   1.88432632E+02   1.88432632E+02  -2.33779469E+01  -3.89313202E+01   2.27363953E+02  -4.20411224E+01   2.18757904E+02  -3.88027611E+01   1.88304077E+02  -2.33779469E+01   5.40486288E+00
             2329                3   2.20000000E+02   1.88472824E+02   1.88472824E+02  -3.83615875E+01  -2.39878654E+01   1.88472824E+02   1.88472824E+02  -2.39878654E+01  -3.83615875E+01   2.26834412E+02  -4.20411224E+01   2.18939819E+02  -3.74713860E+01   1.87582626E+02  -2.39878654E+01   1.41822081E+01
             2329                4   2.20000000E+02   1.88304260E+02   1.88304260E+02  -4.05059738E+01  -2.16749306E+01   1.88304260E+02   1.88304260E+02  -2.16749306E+01  -4.05059738E+01   2.28810242E+02  -4.20411224E+01   2.18175735E+02  -4.00331383E+01   1.87831436E+02  -2.16749306E+01   1.03906116E+01
             2330                1   2.20000000E+02   1.98639999E+02   1.98639999E+02  -2.28366947E+01  -1.98529606E+01   1.98639999E+02   1.98639999E+02  -1.98529606E+01  -2.28366947E+01   2.21476685E+02  -5.19834442E+01   2.19954468E+02  -2.27018757E+01   1.98505173E+02  -1.98529606E+01   5.46274757E+00
             2330                2   2.20000000E+02   1.98647873E+02   1.98647873E+02  -2.06485939E+01  -2.20489483E+01   1.98647873E+02   1.98647873E+02  -2.06485939E+01  -2.20489483E+01   2.20696823E+02  -5.19834442E+01   2.19989960E+02  -2.04813290E+01   1.98480606E+02  -2.20489483E+01   6.05424500E+00
             2330                3   2.20000000E+02   1.98643234E+02   1.98643234E+02  -2.25761280E+01  -2.01167660E+01   1.98643234E+02   1.98643234E+02  -2.01167660E+01  -2.25761280E+01   2.21219360E+02  -5.19834480E+01   2.19969055E+02  -2.25687943E+01   1.98635895E+02  -2.01167660E+01   1.27428091E+00
             2330                4   2.20000000E+02   1.98645676E+02   1.98645676E+02  -2.03586826E+01  -2.23366508E+01   1.98645676E+02   1.98645676E+02  -2.03586826E+01  -2.23366508E+01   2.20982315E+02  -5.19834442E+01   2.19980011E+02  -2.03447208E+01   1.98631714E+02  -2.23366508E+01   1.74825323E+00
             2331                1   2.20000000E+02   1.99532288E+02   1.99532288E+02  -2.25007076E+01  -1.83767166E+01   1.99532288E+02   1.99532288E+02  -1.83767166E+01  -2.25007076E+01   2.22033005E+02  -5.28849602E+01   2.19912994E+02  -2.22305374E+01   1.99262115E+02  -1.83767166E+01   7.74049807E+00
             2331                2   2.20000000E+02   1.99551620E+02   1.99551620E+02  -2.03996067E+01  -2.04971352E+01   1.99551620E+02   1.99551620E+02  -2.03996067E+01  -2.04971352E+01   2.20048752E+02  -5.28849602E+01   2.19999954E+02  -2.00535030E+01   1.99205505E+02  -2.04971352E+01   8.71822643E+00
             2331                3   2.20000000E+02   1.99539810E+02   1.99539810E+02  -2.20539112E+01  -1.88310413E+01   1.99539810E+02   1.99539810E+02  -1.88310413E+01  -2.20539112E+01   2.21593719E+02  -5.28849525E+01   2.19946869E+02  -2.19935951E+01   1.99479492E+02  -1.88310413E+01   3.65551615E+00
             2331                4   2.20000000E+02   1.99550278E+02   1.99550278E+02  -1.99037666E+01  -2.09916420E+01   1.99550278E+02   1.99550278E+02  -1.99037666E+01  -2.09916420E+01   2.20541931E+02  -5.28849602E+01   2.19993942E+02  -1.98103848E+01   1.99456894E+02  -2.09916420E+01   4.52611303E+00
             2332                1   2.20000000E+02   2.35850922E+02   2.35850922E+02   1.90217953E+01   1.28115253E+01   2.35850922E+02   2.35850922E+02   1.90217953E+01   1.28115253E+01   2.23039398E+02  -8.92280807E+01   2.19802658E+02   1.91388588E+01   2.35733856E+02   1.28115253E+01   5.03670645E+00
             2332                2   2.20000000E+02   2.35862503E+02   2.35862503E+02   1.85743294E+01   1.32474070E+01   2.35862503E+02   2.35862503E+02   1.85743294E+01   1.32474070E+01   2.22615097E+02  -8.92280807E+01   2.19854828E+02   1.86512032E+01   2.35785629E+02   1.32474070E+01   4.08620691E+00
             2332                3   2.20000000E+02   2.35864700E+02   2.35864700E+02   1.84810562E+01   1.33384838E+01   2.35864700E+02   2.35864700E+02   1.84810562E+01   1.33384838E+01   2.22526215E+02  -8.92280807E+01   2.19864716E+02   1.86538143E+01   2.35691940E+02   1.33384838E+01   6.12565899E+00
             2332                4   2.20000000E+02   2.35874176E+02   2.35874176E+02   1.80327663E+01   1.37773066E+01   2.35874176E+02   2.35874176E+02   1.80327663E+01   1.37773066E+01   2.22096863E+02  -8.92280807E+01   2.19907379E+02   1.81570091E+01   2.35749924E+02   1.37773066E+01   5.20101118E+00
             2333                1   2.20000000E+02   2.15909409E+02   2.15909409E+02  -1.07377090E+01   3.22128654E+00   2.15909409E+02   2.15909409E+02   3.22128654E+00  -1.07377090E+01   2.26647110E+02  -6.94643250E+01   2.19000305E+02  -9.80361938E+00   2.14975311E+02   3.22128654E+00   1.45201998E+01
             2333                2   2.20000000E+02   2.15929993E+02   2.15929993E+02  -1.04162531E+01   2.87925959E+00   2.15929993E+02   2.15929993E+02   2.87925959E+00  -1.04162531E+01   2.26346237E+02  -6.94643326E+01   2.19093369E+02  -9.71424103E+00   2.15227966E+02   2.87925959E+00   1.25859718E+01
             2333                3   2.20000000E+02   2.15846954E+02   2.15846954E+02  -1.16281729E+01   4.17420244E+00   2.15846954E+02   2.15846954E+02   4.17420244E+00  -1.16281729E+01   2.27475128E+02  -6.94643326E+01   2.18717636E+02  -1.07065296E+01   2.14925308E+02   4.17420244E+00   1.44499807E+01
             2333                4   2.20000000E+02   2.15869263E+02   2.15869263E+02  -1.13231010E+01   3.84682131E+00   2.15869263E+02   2.15869263E+02   3.84682131E+00  -1.13231010E+01   2.27192368E+02  -6.94643250E+01   2.18818649E+02  -1.06286097E+01   2.15174774E+02   3.84682131E+00   1.25419064E+01
             2334                1   2.20000000E+02   2.38624634E+02   2.38624634E+02   2.10114498E+01   1.63130665E+01   2.38624634E+02   2.38624634E+02   2.10114498E+01   1.63130665E+01   2.22311554E+02  -9.19830551E+01   2.19887054E+02   2.11070671E+01   2.38529007E+02   1.63130665E+01   4.56061983E+00
             2334                2   2.20000000E+02   2.38631592E+02   2.38631592E+02   2.06559200E+01   1.66616402E+01   2.38631592E+02   2.38631592E+02   2.06559200E+01   1.66616402E+01   2.21969940E+02  -9.19830551E+01   2.19918365E+02   2.07199287E+01   2.38567566E+02   1.66616402E+01   3.73486686E+00
             2334                3   2.20000000E+02   2.38633682E+02   2.38633682E+02   2.05357571E+01   1.67796936E+01   2.38633682E+02   2.38633682E+02   2.05357571E+01   1.67796936E+01   2.21853989E+02  -9.19830399E+01   2.19927841E+02   2.06677170E+01   2.38501724E+02   1.67796936E+01   5.36293077E+00
             2334                4   2.20000000E+02   2.38639160E+02   2.38639160E+02   2.01786537E+01   1.71313171E+01   2.38639160E+02   2.38639160E+02   2.01786537E+01   1.71313171E+01   2.21507843E+02  -9.19830399E+01   2.19952515E+02   2.02736588E+01   2.38544159E+02   1.71313171E+01   4.55458403E+00
             2335                1   2.20000000E+02   2.35939575E+02   2.35939575E+02  -5.14407158E+00   4.60507431E+01   2.35939575E+02   2.35939575E+02   4.60507431E+01  -5.14407158E+00   2.41083649E+02  -9.22820816E+01   2.05948196E+02  -5.01696682E+00   2.35812469E+02   4.60507431E+01   5.53412437E+00
             2335                2   2.20000000E+02   2.35611679E+02   2.35611679E+02  -6.32346106E+00   4.75580330E+01   2.35611679E+02   2.35611679E+02   4.75580330E+01  -6.32346106E+00   2.41935150E+02  -9.22820816E+01   2.04348160E+02  -6.32302952E+00   2.35611252E+02   4.75580330E+01   3.23448271E-01
             2335                3   2.20000000E+02   2.35538345E+02   2.35538345E+02  -6.57774448E+00   4.78856392E+01   2.35538345E+02   2.35538345E+02   4.78856392E+01  -6.57774448E+00   2.42116089E+02  -9.22820816E+01   2.03988235E+02  -6.20432615E+00   2.35164932E+02   4.78856392E+01   9.50106049E+00
             2335                4   2.20000000E+02   2.35227905E+02   2.35227905E+02  -7.61968184E+00   4.92380142E+01   2.35227905E+02   2.35227905E+02   4.92380142E+01  -7.61968184E+00   2.42847595E+02  -9.22820816E+01   2.02455948E+02  -7.54149055E+00   2.35149719E+02   4.92380142E+01   4.35693455E+00
             2336                1   2.20000000E+02   2.29784012E+02   2.29784012E+02  -2.93834448E+00   2.52172318E+01   2.29784012E+02   2.29784012E+02   2.52172318E+01  -2.93834448E+00   2.32722366E+02  -8.40209656E+01   2.15890778E+02  -2.65307927E+00   2.29498749E+02   2.52172318E+01   8.14290810E+00
             2336                2   2.20000000E+02   2.29665298E+02   2.29665298E+02  -3.77211285E+00   2.61697063E+01   2.29665298E+02   2.29665298E+02   2.61697063E+01  -3.77211285E+00   2.33437408E+02  -8.40209656E+01   2.15344345E+02  -3.65168953E+00   2.29544876E+02   2.61697063E+01   5.30068445E+00
             2336                3   2.20000000E+02   2.29636078E+02   2.29636078E+02  -3.96932364E+00   2.63961525E+01   2.29636078E+02   2.29636078E+02   2.63961525E+01  -3.96932364E+00   2.33605392E+02  -8.40209656E+01   2.15209534E+02  -3.51942229E+00   2.29186172E+02   2.63961525E+01   1.02418985E+01
             2336                4   2.20000000E+02   2.29516113E+02   2.29516113E+02  -4.74854183E+00   2.72953205E+01   2.29516113E+02   2.29516113E+02   2.72953205E+01  -4.74854183E+00   2.34264664E+02  -8.40209656E+01   2.14655411E+02  -4.51299191E+00   2.29280563E+02   2.72953205E+01   7.42476225E+00
             2337                1   2.20000000E+02   1.98166489E+02   1.98166489E+02  -2.32733574E+01  -2.03648205E+01   1.98166489E+02   1.98166489E+02  -2.03648205E+01  -2.32733574E+01   2.21439850E+02  -5.15094337E+01   2.19956726E+02  -2.29049435E+01   1.97798065E+02  -2.03648205E+01   9.02481174E+00
             2337                2   2.20000000E+02   1.98119400E+02   1.98119400E+02  -2.53266983E+01  -1.82644157E+01   1.98119400E+02   1.98119400E+02  -1.82644157E+01  -2.53266983E+01   2.23446106E+02  -5.15094299E+01   2.19744736E+02  -2.50864697E+01   1.97879181E+02  -1.82644157E+01   7.32256794E+00
             2337                3   2.20000000E+02   1.98150818E+02   1.98150818E+02  -2.41701012E+01  -1.94523964E+01   1.98150818E+02   1.98150818E+02  -1.94523964E+01  -2.41701012E+01   2.22320908E+02  -5.15094414E+01   2.19886139E+02  -2.33873978E+01   1.97368103E+02  -1.94523964E+01   1.31681566E+01
             2337                4   2.20000000E+02   1.98089798E+02   1.98089798E+02  -2.61374512E+01  -1.74240456E+01   1.98089798E+02   1.98089798E+02  -1.74240456E+01  -2.61374512E+01   2.24227249E+02  -5.15094337E+01   2.19611252E+02  -2.55587158E+01   1.97511063E+02  -1.74240456E+01   1.13768768E+01
             2338                1   2.20000000E+02   2.19296188E+02   2.19296188E+02   2.21915317E+00  -3.51467729E+00   2.19296188E+02   2.19296188E+02   2.21915317E+00  -3.51467729E+00   2.22810852E+02  -7.26668854E+01   2.19831772E+02   2.61874080E+00   2.18896591E+02  -3.51467729E+00   9.30496216E+00
             2338                2   2.20000000E+02   2.19308411E+02   2.19308411E+02   1.69799840E+00  -3.00574493E+00   2.19308411E+02   2.19308411E+02   1.69799840E+00  -3.00574493E+00   2.22314148E+02  -7.26668930E+01   2.19886810E+02   2.14864993E+00   2.18857758E+02  -3.00574493E+00   9.89260483E+00
             2338                3   2.20000000E+02   2.19288834E+02   2.19288834E+02   2.49257159E+00  -3.78073072E+00   2.19288834E+02   2.19288834E+02   2.49257159E+00  -3.78073072E+00   2.23069565E+02  -7.26668930E+01   2.19798630E+02   2.97506166E+00   2.18806335E+02  -3.78073072E+00   1.02161846E+01
             2338                4   2.20000000E+02   2.19302536E+02   2.19302536E+02   1.96127439E+00  -3.26314855E+00   2.19302536E+02   2.19302536E+02   1.96127439E+00  -3.26314855E+00   2.22565689E+02  -7.26668854E+01   2.19860367E+02   2.49966645E+00   2.18764145E+02  -3.26314855E+00   1.08039103E+01
             2339                1   2.20000000E+02   1.98246902E+02   1.98246902E+02  -2.28823357E+01  -2.06062164E+01   1.98246902E+02   1.98246902E+02  -2.06062164E+01  -2.28823357E+01   2.21129242E+02  -5.15861168E+01   2.19973511E+02  -2.28540573E+01   1.98218628E+02  -2.06062164E+01   2.50017452E+00
             2339                2   2.20000000E+02   1.98247314E+02   1.98247314E+02  -2.06471882E+01  -2.28417778E+01   1.98247314E+02   1.98247314E+02  -2.06471882E+01  -2.28417778E+01   2.21089096E+02  -5.15861168E+01   2.19975388E+02  -2.06107426E+01   1.98210876E+02  -2.28417778E+01   2.82403207E+00
             2339                3   2.20000000E+02   1.98248108E+02   1.98248108E+02  -2.27601280E+01  -2.07296181E+01   1.98248108E+02   1.98248108E+02  -2.07296181E+01  -2.27601280E+01   2.21008240E+02  -5.15861206E+01   2.19978912E+02  -2.27464619E+01   1.98234436E+02  -2.07296181E+01  -1.73799253E+00
             2339                4   2.20000000E+02   1.98245880E+02   1.98245880E+02  -2.05109882E+01  -2.29765377E+01   1.98245880E+02   1.98245880E+02  -2.05109882E+01  -2.29765377E+01   2.21222412E+02  -5.15861206E+01   2.19968918E+02  -2.05001984E+01   1.98235092E+02  -2.29765377E+01  -1.53627670E+00
             2340                1   2.20000000E+02   2.27677750E+02   2.27677750E+02   6.97237730E+00   8.38997555E+00   2.27677750E+02   2.27677750E+02   8.38997555E+00   6.97237730E+00   2.20705383E+02  -8.10133667E+01   2.19989731E+02   7.12782526E+00   2.27522308E+02   8.38997555E+00   5.85521412E+00
             2340                2   2.20000000E+02   2.27678360E+02   2.27678360E+02   8.28940487E+00   7.07235336E+00   2.27678360E+02   2.27678360E+02   8.28940487E+00   7.07235336E+00   2.20606003E+02  -8.10133743E+01   2.19992416E+02   8.45127583E+00   2.27516479E+02   7.07235336E+00   5.95710230E+00
             2340                3   2.20000000E+02   2.27678070E+02   2.27678070E+02   7.02378321E+00   8.33825397E+00   2.27678070E+02   2.27678070E+02   8.33825397E+00   7.02378321E+00   2.20654297E+02  -8.10133743E+01   2.19991165E+02   7.07731438E+00   2.27624542E+02   8.33825397E+00   3.43648100E+00
             2340                4   2.20000000E+02   2.27678040E+02   2.27678040E+02   8.34407043E+00   7.01800585E+00   2.27678040E+02   2.27678040E+02   8.34407043E+00   7.01800585E+00   2.20660034E+02  -8.10133743E+01   2.19990997E+02   8.39986515E+00   2.27622238E+02   7.01800585E+00   3.49799204E+00
             2341                1   2.20000000E+02   2.22427460E+02   2.22427460E+02   2.70405507E+00   2.15191913E+00   2.22427460E+02   2.22427460E+02   2.70405507E+00   2.15191913E+00   2.20275543E+02  -7.57611465E+01   2.19998444E+02   3.08994961E+00   2.22041565E+02   2.15191913E+00   9.20007229E+00
             2341                2   2.20000000E+02   2.22422943E+02   2.22422943E+02   1.39538765E+00   3.46510959E+00   2.22422943E+02   2.22422943E+02   3.46510959E+00   1.39538765E+00   2.21027557E+02  -7.57611465E+01   2.19978088E+02   1.75608599E+00   2.22062241E+02   3.46510959E+00   8.92158413E+00
             2341                3   2.20000000E+02   2.22427765E+02   2.22427765E+02   2.52538800E+00   2.33027887E+00   2.22427765E+02   2.22427765E+02   2.52538800E+00   2.33027887E+00   2.20097488E+02  -7.57611465E+01   2.19999802E+02   3.14519072E+00   2.21807968E+02   2.33027887E+00   1.16580963E+01
             2341                4   2.20000000E+02   2.22421234E+02   2.22421234E+02   1.22845626E+00   3.63374400E+00   2.22421234E+02   2.22421234E+02   3.63374400E+00   1.22845626E+00   2.21192780E+02  -7.57611465E+01   2.19970413E+02   1.81140268E+00   2.21838287E+02   3.63374400E+00   1.13403454E+01
             2342                1   2.20000000E+02   2.31590149E+02   2.31590149E+02  -2.59839505E-01   2.57530422E+01   2.31590149E+02   2.31590149E+02   2.57530422E+01  -2.59839505E-01   2.31849991E+02  -8.56944504E+01   2.16499512E+02  -7.32594952E-02   2.31403564E+02   2.57530422E+01   6.57451391E+00
             2342                2   2.20000000E+02   2.31502304E+02   2.31502304E+02  -9.34900761E-01   2.65159531E+01   2.31502304E+02   2.31502304E+02   2.65159531E+01  -9.34900761E-01   2.32437195E+02  -8.56944504E+01   2.16096588E+02  -8.58414352E-01   2.31425812E+02   2.65159531E+01   4.21575546E+00
             2342                3   2.20000000E+02   2.31476181E+02   2.31476181E+02  -1.12839758E+00   2.67355690E+01   2.31476181E+02   2.31476181E+02   2.67355690E+01  -1.12839758E+00   2.32604568E+02  -8.56944504E+01   2.15976608E+02  -8.36865246E-01   2.31184647E+02   2.67355690E+01   8.22958374E+00
             2342                4   2.20000000E+02   2.31387009E+02   2.31387009E+02  -1.76667535E+00   2.74630184E+01   2.31387009E+02   2.31387009E+02   2.74630184E+01  -1.76667535E+00   2.33153687E+02  -8.56944504E+01   2.15566483E+02  -1.61776388E+00   2.31238098E+02   2.74630184E+01   5.89035463E+00
             2343                1   2.20000000E+02   2.20269196E+02   2.20269196E+02  -1.39772475E+00   1.97490454E+00   2.20269196E+02   2.20269196E+02   1.97490454E+00  -1.39772475E+00   2.21666931E+02  -7.36154556E+01   2.19941833E+02  -7.64445424E-01   2.19635925E+02   1.97490454E+00   1.18311033E+01
             2343                2   2.20000000E+02   2.20253662E+02   2.20253662E+02  -2.20615911E+00   2.79888153E+00   2.20253662E+02   2.20253662E+02   2.79888153E+00  -2.20615911E+00   2.22459824E+02  -7.36154556E+01   2.19871857E+02  -1.48054028E+00   2.19528046E+02   2.79888153E+00   1.26843786E+01
             2343                3   2.20000000E+02   2.20271118E+02   2.20271118E+02  -1.26854098E+00   1.84379971E+00   2.20271118E+02   2.20271118E+02   1.84379971E+00  -1.26854098E+00   2.21539658E+02  -7.36154556E+01   2.19950470E+02  -4.30931330E-01   2.19433517E+02   1.84379971E+00   1.35963430E+01
             2343                4   2.20000000E+02   2.20256393E+02   2.20256393E+02  -2.08485079E+00   2.67485976E+00   2.20256393E+02   2.20256393E+02   2.67485976E+00  -2.08485079E+00   2.22341248E+02  -7.36154709E+01   2.19884109E+02  -1.14444387E+00   2.19315979E+02   2.67485976E+00   1.44294081E+01
             2344                1   2.20000000E+02   2.36122345E+02   2.36122345E+02   1.70453472E+01   1.52108259E+01   2.36122345E+02   2.36122345E+02   1.70453472E+01   1.52108259E+01   2.20911514E+02  -8.94595032E+01   2.19982803E+02   1.71593609E+01   2.36008331E+02   1.52108259E+01   4.99653053E+00
             2344                2   2.20000000E+02   2.36126160E+02   2.36126160E+02   1.61793728E+01   1.60729847E+01   2.36126160E+02   2.36126160E+02   1.61793728E+01   1.60729847E+01   2.20053162E+02  -8.94595032E+01   2.19999939E+02   1.63082123E+01   2.35997314E+02   1.60729847E+01   5.32176685E+00
             2344                3   2.20000000E+02   2.36121140E+02   2.36121140E+02   1.71806755E+01   1.50767050E+01   2.36121140E+02   2.36121140E+02   1.71806755E+01   1.50767050E+01   2.21044434E+02  -8.94595032E+01   2.19977371E+02   1.73775902E+01   2.35924225E+02   1.50767050E+01   6.56312132E+00
             2344                4   2.20000000E+02   2.36126022E+02   2.36126022E+02   1.63092518E+01   1.59432459E+01   2.36126022E+02   2.36126022E+02   1.63092518E+01   1.59432459E+01   2.20182770E+02  -8.94595032E+01   2.19999329E+02   1.65243073E+01   2.35910965E+02   1.59432459E+01   6.87215900E+00
             2345                1   2.20000000E+02   2.04481781E+02   2.04481781E+02  -1.72653923E+01  -1.37284107E+01   2.04481781E+02   2.04481781E+02  -1.37284107E+01  -1.72653923E+01   2.21747177E+02  -5.78293266E+01   2.19936020E+02  -1.70036602E+01   2.04220047E+02  -1.37284107E+01   7.61377239E+00
             2345                2   2.20000000E+02   2.04495789E+02   2.04495789E+02  -1.52895899E+01  -1.57182274E+01   2.04495789E+02   2.04495789E+02  -1.52895899E+01  -1.57182274E+01   2.20214005E+02  -5.78293190E+01   2.19999069E+02  -1.49725275E+01   2.04178726E+02  -1.57182274E+01   8.34168339E+00
             2345                3   2.20000000E+02   2.04486679E+02   2.04486679E+02  -1.69306278E+01  -1.40680828E+01   2.04486679E+02   2.04486679E+02  -1.40680828E+01  -1.69306278E+01   2.21417297E+02  -5.78293190E+01   2.19958099E+02  -1.68648491E+01   2.04420898E+02  -1.40680828E+01   3.81567264E+00
             2345                4   2.20000000E+02   2.04494446E+02   2.04494446E+02  -1.49205313E+01  -1.60859509E+01   2.04494446E+02   2.04494446E+02  -1.49205313E+01  -1.60859509E+01   2.20580399E+02  -5.78293190E+01   2.19993057E+02  -1.48302994E+01   2.04404221E+02  -1.60859509E+01   4.44841480E+00
             2346                1   2.20000000E+02   2.32872787E+02   2.32872787E+02   1.62975616E+01   9.60092545E+00   2.32872787E+02   2.32872787E+02   1.62975616E+01   9.60092545E+00   2.23271866E+02  -8.62570877E+01   2.19770508E+02   1.65230503E+01   2.32647293E+02   9.60092545E+00   6.98467255E+00
             2346                2   2.20000000E+02   2.32851364E+02   2.32851364E+02   1.69502068E+01   8.96970081E+00   2.32851364E+02   2.32851364E+02   1.69502068E+01   8.96970081E+00   2.23881668E+02  -8.62570877E+01   2.19673981E+02   1.70909691E+01   2.32710602E+02   8.96970081E+00   5.51106787E+00
             2346                3   2.20000000E+02   2.32887680E+02   2.32887680E+02   1.57587757E+01   1.01248188E+01   2.32887680E+02   2.32887680E+02   1.57587757E+01   1.01248188E+01   2.22762863E+02  -8.62570877E+01   2.19837585E+02   1.59140244E+01   2.32732422E+02   1.01248188E+01   5.80400753E+00
             2346                4   2.20000000E+02   2.32869263E+02   2.32869263E+02   1.64127121E+01   9.48927975E+00   2.32869263E+02   2.32869263E+02   1.64127121E+01   9.48927975E+00   2.23379990E+02  -8.62570877E+01   2.19754669E+02   1.64975758E+01   2.32784409E+02   9.48927975E+00   4.28503895E+00
             2347                1   2.20000000E+02   2.37082092E+02   2.37082092E+02   2.03679199E+01   1.39372654E+01   2.37082092E+02   2.37082092E+02   2.03679199E+01   1.39372654E+01   2.23144821E+02  -9.04624252E+01   2.19788376E+02   2.04205647E+01   2.37029434E+02   1.39372654E+01   3.37750316E+00
             2347                2   2.20000000E+02   2.37094650E+02   2.37094650E+02   1.98990707E+01   1.43935595E+01   2.37094650E+02   2.37094650E+02   1.98990707E+01   1.43935595E+01   2.22701080E+02  -9.04624252E+01   2.19844925E+02   1.99347038E+01   2.37059006E+02   1.43935595E+01   2.78192019E+00
             2347                3   2.20000000E+02   2.37091339E+02   2.37091339E+02   2.00295067E+01   1.42664194E+01   2.37091339E+02   2.37091339E+02   2.00295067E+01   1.42664194E+01   2.22824921E+02  -9.04624252E+01   2.19830063E+02   2.01189117E+01   2.37001938E+02   1.42664194E+01   4.40436792E+00
             2347                4   2.20000000E+02   2.37102539E+02   2.37102539E+02   1.95593586E+01   1.47253761E+01   2.37102539E+02   2.37102539E+02   1.95593586E+01   1.47253761E+01   2.22377167E+02  -9.04624252E+01   2.19880478E+02   1.96268787E+01   2.37035019E+02   1.47253761E+01   3.83193588E+00
             2348                1   2.20000000E+02   2.04000961E+02   2.04000961E+02  -1.73275833E+01  -1.46459675E+01   2.04000961E+02   2.04000961E+02  -1.46459675E+01  -1.73275833E+01   2.21328552E+02  -5.73424721E+01   2.19963226E+02  -1.72019444E+01   2.03875336E+02  -1.46459675E+01   5.27165174E+00
             2348                2   2.20000000E+02   2.04006882E+02   2.04006882E+02  -1.52855234E+01  -1.66939316E+01   2.04006882E+02   2.04006882E+02  -1.52855234E+01  -1.66939316E+01   2.20700821E+02  -5.73424797E+01   2.19989838E+02  -1.51323156E+01   2.03853668E+02  -1.66939316E+01   5.79442310E+00
             2348                3   2.20000000E+02   2.04003555E+02   2.04003555E+02  -1.70965862E+01  -1.48795462E+01   2.04003555E+02   2.04003555E+02  -1.48795462E+01  -1.70965862E+01   2.21100143E+02  -5.73424721E+01   2.19974869E+02  -1.70878754E+01   2.03994843E+02  -1.48795462E+01   1.38772738E+00
             2348                4   2.20000000E+02   2.04004959E+02   2.04004959E+02  -1.50302877E+01  -1.69472561E+01   2.04004959E+02   2.04004959E+02  -1.50302877E+01  -1.69472561E+01   2.20952209E+02  -5.73424721E+01   2.19981201E+02  -1.50153484E+01   2.03990021E+02  -1.69472561E+01   1.80875897E+00
             2349                1   2.20000000E+02   2.28481644E+02   2.28481644E+02  -2.43594646E+00   2.13287983E+01   2.28481644E+02   2.28481644E+02   2.13287983E+01  -2.43594646E+00   2.30917587E+02  -8.24581680E+01   2.17084091E+02  -2.13054872E+00   2.28176254E+02   2.13287983E+01   8.39209080E+00
             2349                2   2.20000000E+02   2.28387970E+02   2.28387970E+02  -3.22297859E+00   2.22095165E+01   2.28387970E+02   2.28387970E+02   2.22095165E+01  -3.22297859E+00   2.31610947E+02  -8.24581680E+01   2.16655701E+02  -3.06500340E+00   2.28229996E+02   2.22095165E+01   6.04682016E+00
             2349                3   2.20000000E+02   2.28374588E+02   2.28374588E+02  -3.33103251E+00   2.23309593E+01   2.28374588E+02   2.28374588E+02   2.23309593E+01  -3.33103251E+00   2.31705612E+02  -8.24581680E+01   2.16594391E+02  -2.87441778E+00   2.27917969E+02   2.23309593E+01   1.02757549E+01
             2349                4   2.20000000E+02   2.28278503E+02   2.28278503E+02  -4.07760477E+00   2.31736183E+01   2.28278503E+02   2.28278503E+02   2.31736183E+01  -4.07760477E+00   2.32356110E+02  -8.24581680E+01   2.16153885E+02  -3.80615520E+00   2.28007050E+02   2.31736183E+01   7.93725204E+00
             2350                1   2.20000000E+02   2.21596603E+02   2.21596603E+02   8.18392372E+00  -4.44652081E+00   2.21596603E+02   2.21596603E+02   8.18392372E+00  -4.44652081E+00   2.26043137E+02  -7.51113358E+01   2.19182037E+02   8.33886719E+00   2.21441666E+02  -4.44652081E+00   5.74829769E+00
             2350                2   2.20000000E+02   2.21621262E+02   2.21621262E+02   7.72704077E+00  -4.01429605E+00   2.21621262E+02   2.21621262E+02   7.72704077E+00  -4.01429605E+00   2.25635559E+02  -7.51113358E+01   2.19293396E+02   7.98164988E+00   2.21366653E+02  -4.01429605E+00   7.37518215E+00
             2350                3   2.20000000E+02   2.21549530E+02   2.21549530E+02   8.97909164E+00  -5.19461203E+00   2.21549530E+02   2.21549530E+02   8.97909164E+00  -5.19461203E+00   2.26744141E+02  -7.51113358E+01   2.18969208E+02   9.18101120E+00   2.21347610E+02  -5.19461203E+00   6.54845285E+00
             2350                4   2.20000000E+02   2.21578903E+02   2.21578903E+02   8.49368382E+00  -4.73856735E+00   2.21578903E+02   2.21578903E+02   8.49368382E+00  -4.73856735E+00   2.26317474E+02  -7.51113358E+01   2.19101990E+02   8.81171799E+00   2.21260864E+02  -4.73856735E+00   8.22605991E+00
             2351                1   2.20000000E+02   2.14241638E+02   2.14241638E+02  -6.80612659E+00  -4.69538403E+00   2.14241638E+02   2.14241638E+02  -4.69538403E+00  -6.80612659E+00   2.21047775E+02  -6.75800400E+01   2.19977203E+02  -6.69916487E+00   2.14134674E+02  -4.69538403E+00   4.86145782E+00
             2351                2   2.20000000E+02   2.14244415E+02   2.14244415E+02  -5.04237747E+00  -6.46191645E+00   2.14244415E+02   2.14244415E+02  -5.04237747E+00  -6.46191645E+00   2.20706329E+02  -6.75800400E+01   2.19989700E+02  -4.92033005E+00   2.14122375E+02  -6.46191645E+00   5.17181778E+00
             2351                3   2.20000000E+02   2.14242889E+02   2.14242889E+02  -6.66904593E+00  -4.83371305E+00   2.14242889E+02   2.14242889E+02  -4.83371305E+00  -6.66904593E+00   2.20911926E+02  -6.75800400E+01   2.19982773E+02  -6.65808964E+00   2.14231934E+02  -4.83371305E+00   1.55525315E+00
             2351                4   2.20000000E+02   2.14243362E+02   2.14243362E+02  -4.89297676E+00  -6.61025238E+00   2.14243362E+02   2.14243362E+02  -4.89297676E+00  -6.61025238E+00   2.20853622E+02  -6.75800476E+01   2.19984924E+02  -4.87834167E+00   2.14228729E+02  -6.61025238E+00   1.79077172E+00
             2352                1   2.20000015E+02   2.32925232E+02   2.32925232E+02   1.44037733E+01   1.14759121E+01   2.32925232E+02   2.32925232E+02   1.44037733E+01   1.14759121E+01   2.21449326E+02  -8.62683105E+01   2.19956146E+02   1.46336327E+01   2.32695374E+02   1.14759121E+01   7.08358049E+00
             2352                2   2.20000000E+02   2.32933044E+02   2.32933044E+02   1.35871153E+01   1.22847567E+01   2.32933044E+02   2.32933044E+02   1.35871153E+01   1.22847567E+01   2.20648285E+02  -8.62683029E+01   2.19991333E+02   1.38536339E+01   2.32666519E+02   1.22847567E+01   7.64130878E+00
             2352                3   2.20000000E+02   2.32922012E+02   2.32922012E+02   1.46291285E+01   1.12537603E+01   2.32922012E+02   2.32922012E+02   1.46291285E+01   1.12537603E+01   2.21668259E+02  -8.62683029E+01   2.19941727E+02   1.49661713E+01   2.32584976E+02   1.12537603E+01   8.57091236E+00
             2352                4   2.20000000E+02   2.32931610E+02   2.32931610E+02   1.37967691E+01   1.20765352E+01   2.32931610E+02   2.32931610E+02   1.37967691E+01   1.20765352E+01   2.20855072E+02  -8.62683029E+01   2.19984879E+02   1.41769562E+01   2.32551422E+02   1.20765352E+01   9.11963654E+00
             2353                1   2.20000000E+02   2.18079727E+02   2.18079727E+02  -1.83783703E+01   1.94412651E+01   2.18079727E+02   2.18079727E+02   1.94412651E+01  -1.83783703E+01   2.36458099E+02  -7.30475388E+01   2.12501022E+02  -1.80486736E+01   2.17750031E+02   1.94412651E+01   8.82329178E+00
             2353                2   2.20000000E+02   2.17871338E+02   2.17871338E+02  -1.94363823E+01   2.07076836E+01   2.17871338E+02   2.17871338E+02   2.07076836E+01  -1.94363823E+01   2.37307724E+02  -7.30475464E+01   2.11522949E+02  -1.93137970E+01   2.17748749E+02   2.07076836E+01   5.39218092E+00
             2353                3   2.20000000E+02   2.17796906E+02   2.17796906E+02  -1.97978249E+01   2.11435528E+01   2.17796906E+02   2.17796906E+02   2.11435528E+01  -1.97978249E+01   2.37594742E+02  -7.30475464E+01   2.11172394E+02  -1.92617702E+01   2.17260849E+02   2.11435528E+01   1.12728863E+01
             2353                4   2.20000000E+02   2.17591980E+02   2.17591980E+02  -2.07540131E+01   2.23046570E+01   2.17591980E+02   2.17591980E+02   2.23046570E+01  -2.07540131E+01   2.38345993E+02  -7.30475388E+01   2.10203583E+02  -2.04903374E+01   2.17328308E+02   2.23046570E+01   7.92309856E+00
             2354                1   6.73310165E+01   6.26485252E+01   6.26485252E+01  -4.42460871E+00  -4.93743801E+00   6.26485252E+01   6.26485252E+01  -4.42460871E+00  -4.93743801E+00   6.75859604E+01  -1.77621593E+01   6.73266144E+01  -3.67016745E+00   6.18940811E+01  -4.93743801E+00   7.07344770E+00
             2354                2   6.76072540E+01   6.28332596E+01   6.28332596E+01  -4.60934734E+00  -4.93743801E+00   6.28332596E+01   6.28332596E+01  -4.60934734E+00  -4.93743801E+00   6.77706985E+01  -1.77621574E+01   6.76054611E+01  -3.89351511E+00   6.21174278E+01  -4.93743801E+00   6.91123819E+00
             2354                3   6.76377945E+01   6.28536682E+01   6.28536682E+01  -4.62975788E+00  -4.93743801E+00   6.28536682E+01   6.28536682E+01  -4.62975788E+00  -4.93743801E+00   6.77911072E+01  -1.77621574E+01   6.76362228E+01  -3.83110714E+00   6.20550194E+01  -4.93743801E+00   7.29780149E+00
             2354                4   6.79126816E+01   6.30372238E+01   6.30372238E+01  -4.81330729E+00  -4.93743801E+00   6.30372238E+01   6.30372238E+01  -4.81330729E+00  -4.93743801E+00   6.79746628E+01  -1.77621593E+01   6.79124222E+01  -4.05440617E+00   6.22783203E+01  -4.93743801E+00   7.13554239E+00
             2355                1   2.20000000E+02   2.29626907E+02   2.29626907E+02  -7.59190321E-01   2.17425213E+01   2.29626907E+02   2.29626907E+02   2.17425213E+01  -7.59190321E-01   2.30386108E+02  -8.35367508E+01   2.17388428E+02  -6.60205543E-01   2.29527924E+02   2.17425213E+01   4.77448750E+00
             2355                2   2.20000000E+02   2.29546768E+02   2.29546768E+02  -1.47401178E+00   2.25374794E+01   2.29546768E+02   2.29546768E+02   2.25374794E+01  -1.47401178E+00   2.31020782E+02  -8.35367432E+01   2.17022614E+02  -1.30766547E+00   2.29380417E+02   2.25374794E+01   6.19696474E+00
             2355                3   2.20000000E+02   2.29690552E+02   2.29690552E+02  -1.53085947E-01   2.10727825E+01   2.29690552E+02   2.29690552E+02   2.10727825E+01  -1.53085947E-01   2.29843628E+02  -8.35367508E+01   2.17678421E+02   4.15469259E-02   2.29495911E+02   2.10727825E+01   6.68564701E+00
             2355                4   2.20000000E+02   2.29612152E+02   2.29612152E+02  -8.94678235E-01   2.18927727E+01   2.29612152E+02   2.29612152E+02   2.18927727E+01  -8.94678235E-01   2.30506821E+02  -8.35367508E+01   2.17321075E+02  -6.09926462E-01   2.29327393E+02   2.18927727E+01   8.09670544E+00
             2356                1   2.20000000E+02   2.20750031E+02   2.20750031E+02   1.82057098E-01   1.32242537E+00   2.20750031E+02   2.20750031E+02   1.32242537E+00   1.82057098E-01   2.20567963E+02  -7.40848312E+01   2.19993362E+02   8.14604580E-01   2.20117477E+02   1.32242537E+00   1.17949076E+01
             2356                2   2.20000000E+02   2.20739410E+02   2.20739410E+02  -8.73777151E-01   2.38887405E+00   2.20739410E+02   2.20739410E+02   2.38887405E+00  -8.73777151E-01   2.21613190E+02  -7.40848312E+01   2.19945572E+02  -1.83208764E-01   2.20048843E+02   2.38887405E+00   1.23515749E+01
             2356                3   2.20000000E+02   2.20750198E+02   2.20750198E+02   2.17770666E-01   1.28653252E+00   2.20750198E+02   2.20750198E+02   1.28653252E+00   2.17770666E-01   2.20532425E+02  -7.40848312E+01   2.19994156E+02   1.09680009E+00   2.19871170E+02   1.28653252E+00   1.38954010E+01
             2356                4   2.20000000E+02   2.20739960E+02   2.20739960E+02  -8.36633980E-01   2.35118508E+00   2.20739960E+02   2.20739960E+02   2.35118508E+00  -8.36633980E-01   2.21576584E+02  -7.40848312E+01   2.19948029E+02   1.05728932E-01   2.19797592E+02   2.35118508E+00   1.44193392E+01
             2357                1   2.20000000E+02   2.02386108E+02   2.02386108E+02  -1.86341820E+01  -1.65792160E+01   2.02386108E+02   2.02386108E+02  -1.65792160E+01  -1.86341820E+01   2.21020279E+02  -5.57242317E+01   2.19978409E+02  -1.82601776E+01   2.02012100E+02  -1.65792160E+01   9.08419037E+00
             2357                2   2.20000000E+02   2.02350311E+02   2.02350311E+02  -2.05769634E+01  -1.46006441E+01   2.02350311E+02   2.02350311E+02  -1.46006441E+01  -2.05769634E+01   2.22927277E+02  -5.57242317E+01   2.19817261E+02  -2.03152103E+01   2.02088562E+02  -1.46006441E+01   7.63427830E+00
             2357                3   2.20000000E+02   2.02376099E+02   2.02376099E+02  -1.94064617E+01  -1.57969246E+01   2.02376099E+02   2.02376099E+02  -1.57969246E+01  -1.94064617E+01   2.21782562E+02  -5.57242393E+01   2.19933350E+02  -1.86476765E+01   2.01617310E+02  -1.57969246E+01   1.29502945E+01
             2357                4   2.20000000E+02   2.02328674E+02   2.02328674E+02  -2.12778397E+01  -1.38781242E+01   2.02328674E+02   2.02328674E+02  -1.38781242E+01  -2.12778397E+01   2.23606506E+02  -5.57242317E+01   2.19719757E+02  -2.06930199E+01   2.01743851E+02  -1.38781242E+01   1.14204540E+01
             2358                1   2.20000000E+02   2.03640076E+02   2.03640076E+02  -1.53142662E+01  -1.73908768E+01   2.03640076E+02   2.03640076E+02  -1.53142662E+01  -1.73908768E+01   2.21030945E+02  -5.69783134E+01   2.19977936E+02  -1.52821846E+01   2.03607986E+02  -1.73908768E+01   2.65031171E+00
             2358                2   2.20000000E+02   2.03639481E+02   2.03639481E+02  -1.52523346E+01  -1.74522114E+01   2.03639481E+02   2.03639481E+02  -1.52523346E+01  -1.74522114E+01   2.21091690E+02  -5.69783134E+01   2.19975250E+02  -1.52434568E+01   2.03630600E+02  -1.74522114E+01  -1.39419258E+00
             2358                3   2.20000000E+02   2.03639969E+02   2.03639969E+02  -1.74036026E+01  -1.53014174E+01   2.03639969E+02   2.03639969E+02  -1.53014174E+01  -1.74036026E+01   2.21043564E+02  -5.69783134E+01   2.19977402E+02  -1.73757839E+01   2.03612137E+02  -1.53014174E+01   2.47986412E+00
             2358                4   2.20000000E+02   2.03640488E+02   2.03640488E+02  -1.73476353E+01  -1.53579178E+01   2.03640488E+02   2.03640488E+02  -1.53579178E+01  -1.73476353E+01   2.20988113E+02  -5.69783134E+01   2.19979752E+02  -1.73380070E+01   2.03630859E+02  -1.53579178E+01  -1.45826805E+00
             2359                1   2.09172607E+02   1.70285294E+02   1.70285294E+02  -4.22926941E+01  -3.53069267E+01   1.70285294E+02   1.70285294E+02  -3.53069267E+01  -4.22926941E+01   2.12577988E+02  -3.08952236E+01   2.08909912E+02  -4.22925529E+01   1.70285156E+02  -3.53069267E+01   1.70393139E-01
             2359                2   2.09997192E+02   1.70745239E+02   1.70745239E+02  -4.46054802E+01  -3.34540672E+01   1.70745239E+02   1.70745239E+02  -3.34540672E+01  -4.46054802E+01   2.15350723E+02  -3.08952274E+01   2.09329468E+02  -4.45579109E+01   1.70697662E+02  -3.34540672E+01   3.20042109E+00
             2359                3   2.08598068E+02   1.69940231E+02   1.69940231E+02  -4.06884232E+01  -3.65661430E+01   1.69940231E+02   1.69940231E+02  -3.65661430E+01  -4.06884232E+01   2.10628662E+02  -3.08952236E+01   2.08506409E+02  -4.05955162E+01   1.69847336E+02  -3.65661430E+01   4.42259359E+00
             2359                4   2.09461578E+02   1.70450333E+02   1.70450333E+02  -4.31246910E+01  -3.46399612E+01   1.70450333E+02   1.70450333E+02  -3.46399612E+01  -4.31246910E+01   2.13575027E+02  -3.08952255E+01   2.09074402E+02  -4.28669434E+01   1.70192581E+02  -3.46399612E+01   7.41498661E+00
             2360                1   2.13156021E+02   1.75954224E+02   1.75954224E+02  -4.30243492E+01  -3.08581295E+01   1.75954224E+02   1.75954224E+02  -3.08581295E+01  -4.30243492E+01   2.18978561E+02  -3.40239143E+01   2.12372742E+02  -4.30203552E+01   1.75950226E+02  -3.08581295E+01  -9.35002565E-01
             2360                2   2.13836182E+02   1.76253876E+02   1.76253876E+02  -4.54546852E+01  -2.87274418E+01   1.76253876E+02   1.76253876E+02  -2.87274418E+01  -4.54546852E+01   2.21708572E+02  -3.40239182E+01   2.12356750E+02  -4.54108734E+01   1.76210068E+02  -2.87274418E+01   3.11636305E+00
             2360                3   2.12647476E+02   1.75706512E+02   1.75706512E+02  -4.10024414E+01  -3.26323242E+01   1.75706512E+02   1.75706512E+02  -3.26323242E+01  -4.10024414E+01   2.16708954E+02  -3.40239143E+01   2.12276367E+02  -4.09335480E+01   1.75637619E+02  -3.26323242E+01   3.86327028E+00
             2360                4   2.13367004E+02   1.76063522E+02   1.76063522E+02  -4.36082115E+01  -3.03835678E+01   1.76063522E+02   1.76063522E+02  -3.03835678E+01  -4.36082115E+01   2.19671738E+02  -3.40239143E+01   2.12441986E+02  -4.33258209E+01   1.75781128E+02  -3.03835678E+01   7.87105799E+00
             2361                1   2.20000000E+02   2.38157394E+02   2.38157394E+02  -6.06615973E+00   5.54968987E+01   2.38157394E+02   2.38157394E+02   5.54968987E+01  -6.06615973E+00   2.44223557E+02  -9.58627090E+01   1.99194702E+02  -6.00811243E+00   2.38099350E+02   5.54968987E+01   3.76454902E+00
             2361                2   2.20000000E+02   2.37668976E+02   2.37668976E+02  -7.46835279E+00   5.73875122E+01   2.37668976E+02   2.37668976E+02   5.73875122E+01  -7.46835279E+00   2.45137329E+02  -9.58627090E+01   1.96704208E+02  -7.43167686E+00   2.37632294E+02   5.73875122E+01  -2.99844384E+00
             2361                3   2.20000000E+02   2.37577988E+02   2.37577988E+02  -7.71983004E+00   5.77299728E+01   2.37577988E+02   2.37577988E+02   5.77299728E+01  -7.71983004E+00   2.45297821E+02  -9.58627090E+01   1.96235825E+02  -7.37722492E+00   2.37235382E+02   5.77299728E+01   9.16090679E+00
             2361                4   2.20000000E+02   2.37133636E+02   2.37133636E+02  -8.90818882E+00   5.93626862E+01   2.37133636E+02   2.37133636E+02   5.93626862E+01  -8.90818882E+00   2.46041824E+02  -9.58627090E+01   1.93927826E+02  -8.88235664E+00   2.37107803E+02   5.93626862E+01   2.52101398E+00
             2362                1   2.20000000E+02   2.37719208E+02   2.37719208E+02   2.10088863E+01   1.45708599E+01   2.37719208E+02   2.37719208E+02   2.10088863E+01   1.45708599E+01   2.23148346E+02  -9.10996475E+01   2.19787903E+02   2.10233727E+01   2.37704727E+02   1.45708599E+01   1.77158093E+00
             2362                2   2.20000000E+02   2.37732224E+02   2.37732224E+02   2.05225964E+01   1.50441570E+01   2.37732224E+02   2.37732224E+02   2.05225964E+01   1.50441570E+01   2.22688065E+02  -9.10996628E+01   2.19846436E+02   2.05323982E+01   2.37722412E+02   1.50441570E+01   1.45932758E+00
             2362                3   2.20000000E+02   2.37724472E+02   2.37724472E+02   2.08210239E+01   1.47534666E+01   2.37724472E+02   2.37724472E+02   2.08210239E+01   1.47534666E+01   2.22971008E+02  -9.10996628E+01   2.19811600E+02   2.08570480E+01   2.37688446E+02   1.47534666E+01   2.79537630E+00
             2362                4   2.20000000E+02   2.37736572E+02   2.37736572E+02   2.03395710E+01   1.52228193E+01   2.37736572E+02   2.37736572E+02   2.03395710E+01   1.52228193E+01   2.22513748E+02  -9.10996475E+01   2.19866074E+02   2.03677254E+01   2.37708420E+02   1.52228193E+01   2.47365952E+00
             2363                1   2.20000000E+02   2.20609085E+02   2.20609085E+02  -5.67815244E-01   1.80520380E+00   2.20609085E+02   2.20609085E+02   1.80520380E+00  -5.67815244E-01   2.21176910E+02  -7.39488297E+01   2.19971191E+02   1.74005896E-01   2.19867264E+02   1.80520380E+00   1.27876730E+01
             2363                2   2.20000000E+02   2.20614319E+02   2.20614319E+02   1.07478112E-01   1.12467825E+00   2.20614319E+02   2.20614319E+02   1.12467825E+00   1.07478112E-01   2.20506851E+02  -7.39488297E+01   2.19994720E+02   8.39343667E-01   2.19882462E+02   1.12467825E+00   1.26824675E+01
             2363                3   2.20000000E+02   2.20609344E+02   2.20609344E+02  -5.44510424E-01   1.78163576E+00   2.20609344E+02   2.20609344E+02   1.78163576E+00  -5.44510424E-01   2.21153854E+02  -7.39488220E+01   2.19972336E+02   4.80422117E-02   2.20016800E+02   1.78163576E+00   1.14320831E+01
             2363                4   2.20000000E+02   2.20614487E+02   2.20614487E+02   1.45202652E-01   1.08678329E+00   2.20614487E+02   2.20614487E+02   1.08678329E+00   1.45202652E-01   2.20469284E+02  -7.39488220E+01   2.19995483E+02   7.27193534E-01   2.20032501E+02   1.08678329E+00   1.13124361E+01
             2364                1   2.20000000E+02   2.27099915E+02   2.27099915E+02   6.39229250E+00   7.81442833E+00   2.27099915E+02   2.27099915E+02   7.81442833E+00   6.39229250E+00   2.20707611E+02  -8.04355392E+01   2.19989655E+02   6.65728045E+00   2.26834915E+02   7.81442833E+00   7.64305115E+00
             2364                2   2.20000000E+02   2.27100708E+02   2.27100708E+02   7.67626619E+00   6.52964926E+00   2.27100708E+02   2.27100708E+02   7.67626619E+00   6.52964926E+00   2.20571060E+02  -8.04355392E+01   2.19993271E+02   7.94782400E+00   2.26829147E+02   6.52964926E+00   7.71453619E+00
             2364                3   2.20000000E+02   2.27100189E+02   2.27100189E+02   6.43576097E+00   7.77067375E+00   2.27100189E+02   2.27100189E+02   7.77067375E+00   6.43576097E+00   2.20664429E+02  -8.04355392E+01   2.19990891E+02   6.56244373E+00   2.26973511E+02   7.77067375E+00   5.28556919E+00
             2364                4   2.20000000E+02   2.27100464E+02   2.27100464E+02   7.72231054E+00   6.48384142E+00   2.27100464E+02   2.27100464E+02   7.72231054E+00   6.48384142E+00   2.20616623E+02  -8.04355392E+01   2.19992157E+02   7.85133982E+00   2.26971436E+02   6.48384142E+00   5.31866932E+00
             2365                1   2.20000000E+02   2.25102737E+02   2.25102737E+02  -4.78386211E+00   1.65425777E+01   2.25102737E+02   2.25102737E+02   1.65425777E+01  -4.78386211E+00   2.29886597E+02  -7.89538193E+01   2.17656204E+02  -4.33942795E+00   2.24658310E+02   1.65425777E+01   1.00980701E+01
             2365                2   2.20000000E+02   2.25011627E+02   2.25011627E+02  -5.63668394E+00   1.74865036E+01   2.25011627E+02   2.25011627E+02   1.74865036E+01  -5.63668394E+00   2.30648300E+02  -7.89538193E+01   2.17240829E+02  -5.37438440E+00   2.24749329E+02   1.74865036E+01   7.77360296E+00
             2365                3   2.20000000E+02   2.25003632E+02   2.25003632E+02  -5.70810223E+00   1.75659161E+01   2.25003632E+02   2.25003632E+02   1.75659161E+01  -5.70810223E+00   2.30711731E+02  -7.89538193E+01   2.17204361E+02  -5.07818937E+00   2.24373718E+02   1.75659161E+01   1.20387831E+01
             2365                4   2.20000000E+02   2.24908463E+02   2.24908463E+02  -6.52415133E+00   1.84771423E+01   2.24908463E+02   2.24908463E+02   1.84771423E+01  -6.52415133E+00   2.31432617E+02  -7.89538193E+01   2.16769379E+02  -6.11686182E+00   2.24501175E+02   1.84771423E+01   9.70015335E+00
             2366                1   2.17650803E+02   2.06260117E+02   2.06260117E+02  -2.62855778E+01   7.44181633E+00   2.06260117E+02   2.06260117E+02   7.44181633E+00  -2.62855778E+01   2.32545685E+02  -6.24721184E+01   2.11651535E+02  -2.62443485E+01   2.06218887E+02   7.44181633E+00   3.09593654E+00
             2366                2   2.17686523E+02   2.06585556E+02   2.06585556E+02  -2.43932247E+01   5.22401810E+00   2.06585556E+02   2.06585556E+02   5.22401810E+00  -2.43932247E+01   2.30978790E+02  -6.24721184E+01   2.13082916E+02  -2.36249485E+01   2.05817291E+02   5.22401810E+00   1.32990150E+01
             2366                3   2.17073441E+02   2.06279419E+02   2.06279419E+02  -2.34513283E+01   4.58826256E+00   2.06279419E+02   2.06279419E+02   4.58826256E+00  -2.34513283E+01   2.29730743E+02  -6.24721184E+01   2.12941986E+02  -2.33412571E+01   2.06169357E+02   4.58826256E+00  -5.02725124E+00
             2366                4   2.17018066E+02   2.06532379E+02   2.06532379E+02  -2.11307983E+01   2.01479053E+00   2.06532379E+02   2.06532379E+02   2.01479053E+00  -2.11307983E+01   2.27663177E+02  -6.24721222E+01   2.14214798E+02  -2.09997330E+01   2.06401306E+02   2.01479053E+00   5.46105385E+00
             2367                1   2.20000000E+02   2.37795578E+02   2.37795578E+02  -5.47153902E+00   5.27914391E+01   2.37795578E+02   2.37795578E+02   5.27914391E+01  -5.47153902E+00   2.43267120E+02  -9.50384903E+01   2.01517334E+02  -5.46997309E+00   2.37794006E+02   5.27914391E+01   6.17717266E-01
             2367                2   2.20000000E+02   2.37119003E+02   2.37119003E+02  -7.51648569E+00   5.55129585E+01   2.37119003E+02   2.37119003E+02   5.55129585E+01  -7.51648569E+00   2.44635498E+02  -9.50384903E+01   1.98107513E+02  -7.26726341E+00   2.36869781E+02   5.55129585E+01  -7.80435133E+00
             2367                3   2.20000000E+02   2.37005005E+02   2.37005005E+02  -7.84248686E+00   5.59529648E+01   2.37005005E+02   2.37005005E+02   5.59529648E+01  -7.84248686E+00   2.44847488E+02  -9.50384903E+01   1.97525696E+02  -7.60968590E+00   2.36772202E+02   5.59529648E+01   7.54638338E+00
             2367                4   2.20000000E+02   2.36379364E+02   2.36379364E+02  -9.54952621E+00   5.82856369E+01   2.36379364E+02   2.36379364E+02   5.82856369E+01  -9.54952621E+00   2.45928894E+02  -9.50384903E+01   1.94293457E+02  -9.54714584E+00   2.36376984E+02   5.82856369E+01  -7.64564157E-01
             2368                1   2.20000000E+02   2.27639877E+02   2.27639877E+02  -5.91024943E-02   1.62461300E+01   2.27639877E+02   2.27639877E+02   1.62461300E+01  -5.91024943E-02   2.27698990E+02  -8.12756348E+01   2.18634384E+02   1.41847566E-01   2.27438934E+02   1.62461300E+01   6.76131058E+00
             2368                2   2.20000000E+02   2.27597000E+02   2.27597000E+02  -5.95803022E-01   1.68257027E+01   2.27597000E+02   2.27597000E+02   1.68257027E+01  -5.95803022E-01   2.28192795E+02  -8.12756271E+01   2.18439987E+02  -4.76159602E-01   2.27477356E+02   1.68257027E+01   5.22360516E+00
             2368                3   2.20000000E+02   2.27589417E+02   2.27589417E+02  -6.87070131E-01   1.69245644E+01   2.27589417E+02   2.27589417E+02   1.69245644E+01  -6.87070131E-01   2.28276489E+02  -8.12756348E+01   2.18405563E+02  -4.10020709E-01   2.27312363E+02   1.69245644E+01   7.94779968E+00
             2368                4   2.20000000E+02   2.27544739E+02   2.27544739E+02  -1.20472872E+00   1.74868889E+01   2.27544739E+02   2.27544739E+02   1.74868889E+01  -1.20472872E+00   2.28749466E+02  -8.12756348E+01   2.18202805E+02  -1.02459729E+00   2.27364609E+02   1.74868889E+01   6.41658449E+00
             2369                1   2.20000000E+02   1.86869278E+02   1.86869278E+02  -4.39073105E+01  -2.04789257E+01   1.86869278E+02   1.86869278E+02  -2.04789257E+01  -4.39073105E+01   2.30776581E+02  -4.08276787E+01   2.17166824E+02  -4.37718925E+01   1.86733856E+02  -2.04789257E+01   5.58860302E+00
             2369                2   2.20000000E+02   1.86526917E+02   1.86526917E+02  -4.65867882E+01  -1.74570694E+01   1.86526917E+02   1.86526917E+02  -1.74570694E+01  -4.65867882E+01   2.33113708E+02  -4.08276863E+01   2.15597198E+02  -4.65842934E+01   1.86524414E+02  -1.74570694E+01  -7.63272226E-01
             2369                3   2.20000000E+02   1.86524170E+02   1.86524170E+02  -4.66059456E+01  -1.74351749E+01   1.86524170E+02   1.86524170E+02  -1.74351749E+01  -4.66059456E+01   2.33130112E+02  -4.08276863E+01   2.15584579E+02  -4.60312386E+01   1.85949463E+02  -1.74351749E+01   1.15607862E+01
             2369                4   2.20000000E+02   1.86165161E+02   1.86165161E+02  -4.89025345E+01  -1.47795868E+01   1.86165161E+02   1.86165161E+02  -1.47795868E+01  -4.89025345E+01   2.35067703E+02  -4.08276825E+01   2.13924515E+02  -4.87826118E+01   1.86045242E+02  -1.47795868E+01   5.30812883E+00
             2370                1   2.20000000E+02   2.09013458E+02   2.09013458E+02  -1.00235977E+01  -1.19370337E+01   2.09013458E+02   2.09013458E+02  -1.00235977E+01  -1.19370337E+01   2.20950485E+02  -6.23509407E+01   2.19981277E+02  -9.99410534E+00   2.08983963E+02  -1.19370337E+01   2.54127669E+00
             2370                2   2.20000000E+02   2.09012650E+02   2.09012650E+02  -9.93640614E+00  -1.20234365E+01   2.09012650E+02   2.09012650E+02  -9.93640614E+00  -1.20234365E+01   2.21036087E+02  -6.23509369E+01   2.19977722E+02  -9.92997360E+00   2.09006226E+02  -1.20234365E+01  -1.18636894E+00
             2370                3   2.20000000E+02   2.09013229E+02   2.09013229E+02  -1.19613991E+01  -9.99901009E+00   2.09013229E+02   2.09013229E+02  -9.99901009E+00  -1.19613991E+01   2.20974640E+02  -6.23509407E+01   2.19980301E+02  -1.19369078E+01   2.08988739E+02  -9.99901009E+00   2.32637835E+00
             2370                4   2.20000000E+02   2.09013901E+02   2.09013901E+02  -1.18820715E+01  -1.00790262E+01   2.09013901E+02   2.09013901E+02  -1.00790262E+01  -1.18820715E+01   2.20895981E+02  -6.23509369E+01   2.19983368E+02  -1.18742943E+01   2.09006134E+02  -1.00790262E+01  -1.31034064E+00
             2371                1   2.20000000E+02   2.31494034E+02   2.31494034E+02   1.09579277E+01   1.20341110E+01   2.31494034E+02   2.31494034E+02   1.20341110E+01   1.09579277E+01   2.20536118E+02  -8.48286972E+01   2.19994064E+02   1.10894556E+01   2.31362503E+02   1.20341110E+01   5.38432169E+00
             2371                2   2.20000000E+02   2.31493469E+02   2.31493469E+02   1.21404152E+01   1.08521900E+01   2.31493469E+02   2.31493469E+02   1.21404152E+01   1.08521900E+01   2.20641281E+02  -8.48286896E+01   2.19991501E+02   1.22710381E+01   2.31362839E+02   1.08521900E+01   5.35128546E+00
             2371                3   2.20000000E+02   2.31493988E+02   2.31493988E+02   1.09481783E+01   1.20438938E+01   2.31493988E+02   2.31493988E+02   1.20438938E+01   1.09481783E+01   2.20545807E+02  -8.48286896E+01   2.19993866E+02   1.09955368E+01   2.31446640E+02   1.20438938E+01   3.23122406E+00
             2371                4   2.20000000E+02   2.31493530E+02   2.31493530E+02   1.21299219E+01   1.08626213E+01   2.31493530E+02   2.31493530E+02   1.21299219E+01   1.08626213E+01   2.20630920E+02  -8.48286972E+01   2.19991791E+02   1.21756258E+01   2.31447830E+02   1.08626213E+01   3.16612029E+00
             2372                1   2.20017807E+02   2.36272614E+02   2.36272614E+02  -4.66538334E+00   4.60218163E+01   2.36272614E+02   2.36272614E+02   4.60218163E+01  -4.66538334E+00   2.40937988E+02  -9.25430069E+01   2.06258362E+02  -4.66527939E+00   2.36272507E+02   4.60218163E+01  -1.55265912E-01
             2372                2   2.20000000E+02   2.35677444E+02   2.35677444E+02  -6.73223400E+00   4.86838455E+01   2.35677444E+02   2.35677444E+02   4.86838455E+01  -6.73223400E+00   2.42409668E+02  -9.25430222E+01   2.03388504E+02  -6.46890736E+00   2.35414108E+02   4.86838455E+01  -7.98528290E+00
             2372                3   2.20000000E+02   2.35566422E+02   2.35566422E+02  -7.10338116E+00   4.91659889E+01   2.35566422E+02   2.35566422E+02   4.91659889E+01  -7.10338116E+00   2.42669800E+02  -9.25430069E+01   2.02840225E+02  -6.94753265E+00   2.35410583E+02   4.91659889E+01   6.14765263E+00
             2372                4   2.20000000E+02   2.35009964E+02   2.35009964E+02  -8.86840057E+00   5.14874763E+01   2.35009964E+02   2.35009964E+02   5.14874763E+01  -8.86840057E+00   2.43878372E+02  -9.25430222E+01   2.00063934E+02  -8.85806274E+00   2.34999634E+02   5.14874763E+01  -1.58777833E+00
             2373                1   2.20000000E+02   2.14565262E+02   2.14565262E+02  -7.02420616E+00  -3.81005120E+00   2.14565262E+02   2.14565262E+02  -3.81005120E+00  -7.02420616E+00   2.21589478E+02  -6.79103317E+01   2.19947174E+02  -6.65195513E+00   2.14193024E+02  -3.81005120E+00   9.07451248E+00
             2373                2   2.20000000E+02   2.14576996E+02   2.14576996E+02  -5.37120295E+00  -5.47478104E+00   2.14576996E+02   2.14576996E+02  -5.37120295E+00  -5.47478104E+00   2.20051773E+02  -6.79103394E+01   2.19999954E+02  -4.94504690E+00   2.14150848E+02  -5.47478104E+00   9.67208576E+00
             2373                3   2.20000000E+02   2.14569061E+02   2.14569061E+02  -6.74043751E+00  -4.09761572E+00   2.14569061E+02   2.14569061E+02  -4.09761572E+00  -6.74043751E+00   2.21309509E+02  -6.79103394E+01   2.19964279E+02  -6.58134413E+00   2.14409973E+02  -4.09761572E+00   5.93156338E+00
             2373                4   2.20000000E+02   2.14576416E+02   2.14576416E+02  -5.06328440E+00  -5.78211355E+00   2.14576416E+02   2.14576416E+02  -5.06328440E+00  -5.78211355E+00   2.20358536E+02  -6.79103394E+01   2.19997360E+02  -4.87289953E+00   2.14386032E+02  -5.78211355E+00   6.46382236E+00
             2374                1   2.18084656E+02   1.91460739E+02   1.91460739E+02  -3.60380020E+01  -1.57988577E+01   1.91460739E+02   1.91460739E+02  -1.57988577E+01  -3.60380020E+01   2.27498734E+02  -4.65412903E+01   2.15956604E+02  -3.60185471E+01   1.91441284E+02  -1.57988577E+01   2.10339761E+00
             2374                2   2.18240097E+02   1.91274231E+02   1.91274231E+02  -3.86910057E+01  -1.29593410E+01   1.91274231E+02   1.91274231E+02  -1.29593410E+01  -3.86910057E+01   2.29965225E+02  -4.65412941E+01   2.14787491E+02  -3.86227531E+01   1.91205978E+02  -1.29593410E+01  -3.96105742E+00
             2374                3   2.18410309E+02   1.91372284E+02   1.91372284E+02  -3.88745880E+01  -1.28738003E+01   1.91372284E+02   1.91372284E+02  -1.28738003E+01  -3.88745880E+01   2.30246872E+02  -4.65413017E+01   2.14887039E+02  -3.85598793E+01   1.91057571E+02  -1.28738003E+01   8.50662518E+00
             2374                4   2.18542770E+02   1.91139755E+02   1.91139755E+02  -4.12104187E+01  -1.03054495E+01   1.91139755E+02   1.91139755E+02  -1.03054495E+01  -4.12104187E+01   2.32350174E+02  -4.65412941E+01   2.13543442E+02  -4.11845818E+01   1.91113922E+02  -1.03054495E+01   2.44985771E+00
             2375                1   2.20000000E+02   2.21020264E+02   2.21020264E+02   1.46494925E-01   1.90457201E+00   2.21020264E+02   2.21020264E+02   1.90457201E+00   1.46494925E-01   2.20873779E+02  -7.43571091E+01   2.19984192E+02   1.07656455E+00   2.20090195E+02   1.90457201E+00   1.43025818E+01
             2375                2   2.20000000E+02   2.21023758E+02   2.21023758E+02   9.56265032E-01   1.09130514E+00   2.21023758E+02   2.21023758E+02   1.09130514E+00   9.56265032E-01   2.20067490E+02  -7.43571091E+01   2.19999908E+02   1.75174057E+00   2.20228287E+02   1.09130514E+00   1.32070169E+01
             2375                3   2.20000000E+02   2.21018021E+02   2.21018021E+02  -9.87031162E-02   2.15200996E+00   2.21018021E+02   2.21018021E+02   2.15200996E+00  -9.87031162E-02   2.21116714E+02  -7.43571091E+01   2.19974091E+02   6.00479364E-01   2.20318832E+02   2.15200996E+00   1.24141865E+01
             2375                4   2.20000000E+02   2.21023239E+02   2.21023239E+02   6.79609537E-01   1.36847389E+00   2.21023239E+02   2.21023239E+02   1.36847389E+00   6.79609537E-01   2.20343628E+02  -7.43571091E+01   2.19997589E+02   1.26311374E+00   2.20439743E+02   1.36847389E+00   1.13238487E+01
             2376                1   2.20000000E+02   2.15224579E+02   2.15224579E+02  -9.78253174E+00   5.99286497E-01   2.15224579E+02   2.15224579E+02   5.99286497E-01  -9.78253174E+00   2.25007111E+02  -6.86804428E+01   2.19447845E+02  -8.78395939E+00   2.14226013E+02   5.99286497E-01   1.49561758E+01
             2376                2   2.20000000E+02   2.15272263E+02   2.15272263E+02  -8.67268944E+00  -5.58232427E-01   2.15272263E+02   2.15272263E+02  -5.58232427E-01  -8.67268944E+00   2.23944962E+02  -6.86804504E+01   2.19662903E+02  -7.64488745E+00   2.14244461E+02  -5.58232427E-01   1.51365747E+01
             2376                3   2.20000000E+02   2.15239807E+02   2.15239807E+02  -9.45694065E+00   2.58467674E-01   2.15239807E+02   2.15239807E+02   2.58467674E-01  -9.45694065E+00   2.24696747E+02  -6.86804428E+01   2.19516556E+02  -8.72761250E+00   2.14510483E+02   2.58467674E-01   1.27806549E+01
             2376                4   2.20000000E+02   2.15283173E+02   2.15283173E+02  -8.37121773E+00  -8.70600164E-01   2.15283173E+02   2.15283173E+02  -8.70600164E-01  -8.37121773E+00   2.23654388E+02  -6.86804504E+01   2.19712036E+02  -7.62212229E+00   2.14534073E+02  -8.70600164E-01   1.29220266E+01
             2377                1   2.20000000E+02   1.87949432E+02   1.87949432E+02  -3.38426170E+01  -3.02136345E+01   1.87949432E+02   1.87949432E+02  -3.02136345E+01  -3.38426170E+01   2.21792038E+02  -4.12977257E+01   2.19932648E+02  -3.37006874E+01   1.87807495E+02  -3.02136345E+01   5.60887814E+00
             2377                2   2.20000000E+02   1.87962402E+02   1.87962402E+02  -3.13724613E+01  -3.26967621E+01   1.87962402E+02   1.87962402E+02  -3.13724613E+01  -3.26967621E+01   2.20659164E+02  -4.12977257E+01   2.19991028E+02  -3.11814594E+01   1.87771393E+02  -3.26967621E+01   6.46973705E+00
             2377                3   2.20000000E+02   1.87955048E+02   1.87955048E+02  -3.34637184E+01  -3.05981655E+01   1.87955048E+02   1.87955048E+02  -3.05981655E+01  -3.34637184E+01   2.21418777E+02  -4.12977219E+01   2.19957993E+02  -3.34607124E+01   1.87952042E+02  -3.05981655E+01   8.16581130E-01
             2377                4   2.20000000E+02   1.87959015E+02   1.87959015E+02  -3.09453602E+01  -3.31204872E+01   1.87959015E+02   1.87959015E+02  -3.09453602E+01  -3.31204872E+01   2.21079498E+02  -4.12977257E+01   2.19975800E+02  -3.09346905E+01   1.87948349E+02  -3.31204872E+01   1.52805126E+00
             2378                1   2.20000000E+02   2.38792740E+02   2.38792740E+02   1.97804413E+01   1.78181572E+01   2.38792740E+02   2.38792740E+02   1.97804413E+01   1.78181572E+01   2.20974579E+02  -9.21304398E+01   2.19980316E+02   1.98633709E+01   2.38709808E+02   1.78181572E+01   4.26100779E+00
             2378                2   2.20000000E+02   2.38796829E+02   2.38796829E+02   1.90459385E+01   1.85485630E+01   2.38796829E+02   2.38796829E+02   1.90459385E+01   1.85485630E+01   2.20248276E+02  -9.21304398E+01   2.19998749E+02   1.91434498E+01   2.38699326E+02   1.85485630E+01   4.62799025E+00
             2378                3   2.20000000E+02   2.38791199E+02   2.38791199E+02   1.99397240E+01   1.76604023E+01   2.38791199E+02   2.38791199E+02   1.99397240E+01   1.76604023E+01   2.21130798E+02  -9.21304398E+01   2.19973419E+02   2.00820904E+01   2.38648834E+02   1.76604023E+01   5.58006859E+00
             2378                4   2.20000000E+02   2.38796371E+02   2.38796371E+02   1.91994152E+01   1.83955364E+01   2.38796371E+02   2.38796371E+02   1.91994152E+01   1.83955364E+01   2.20400833E+02  -9.21304398E+01   2.19996704E+02   1.93599968E+01   2.38635803E+02   1.83955364E+01   5.93604612E+00
             2379                1   2.20000000E+02   2.38215866E+02   2.38215866E+02   2.14693813E+01   1.51006327E+01   2.38215866E+02   2.38215866E+02   2.14693813E+01   1.51006327E+01   2.23115234E+02  -9.15952988E+01   2.19792419E+02   2.14696083E+01   2.38215622E+02   1.51006327E+01   2.23848075E-01
             2379                2   2.20000000E+02   2.38228394E+02   2.38228394E+02   2.09957294E+01   1.55617476E+01   2.38228394E+02   2.38228394E+02   2.09957294E+01   1.55617476E+01   2.22666641E+02  -9.15952835E+01   2.19848923E+02   2.09957504E+01   2.38228363E+02   1.55617476E+01   7.80494735E-02
             2379                3   2.20000000E+02   2.38218033E+02   2.38218033E+02   2.13918629E+01   1.51759558E+01   2.38218033E+02   2.38218033E+02   2.13918629E+01   1.51759558E+01   2.23042068E+02  -9.15952835E+01   2.19802292E+02   2.13985424E+01   2.38211365E+02   1.51759558E+01   1.20296812E+00
             2379                4   2.20000000E+02   2.38230164E+02   2.38230164E+02   2.09224224E+01   1.56332798E+01   2.38230164E+02   2.38230164E+02   2.09224224E+01   1.56332798E+01   2.22596893E+02  -9.15952835E+01   2.19856888E+02   2.09272175E+01   2.38225372E+02   1.56332798E+01   1.02058613E+00
             2380                1   2.20000000E+02   2.00871735E+02   2.00871735E+02  -2.17905579E+01  -1.63656521E+01   2.00871735E+02   2.00871735E+02  -1.63656521E+01  -2.17905579E+01   2.22662292E+02  -5.42385101E+01   2.19849442E+02  -2.12738743E+01   2.00355057E+02  -1.63656521E+01   1.07134275E+01
             2380                2   2.20000000E+02   2.00807541E+02   2.00807541E+02  -2.36798077E+01  -1.44122114E+01   2.00807541E+02   2.00807541E+02  -1.44122114E+01  -2.36798077E+01   2.24487350E+02  -5.42385063E+01   2.19560165E+02  -2.33428936E+01   2.00470627E+02  -1.44122114E+01   8.69016457E+00
             2380                3   2.20000000E+02   2.00840942E+02   2.00840942E+02  -2.28214397E+01  -1.53039722E+01   2.00840942E+02   2.00840942E+02  -1.53039722E+01  -2.28214397E+01   2.23662384E+02  -5.42385101E+01   2.19710724E+02  -2.18628616E+01   1.99882355E+02  -1.53039722E+01   1.46109724E+01
             2380                4   2.20000000E+02   2.00762634E+02   2.00762634E+02  -2.46221046E+01  -1.34250040E+01   2.00762634E+02   2.00762634E+02  -1.34250040E+01  -2.46221046E+01   2.25384735E+02  -5.42385101E+01   2.19357529E+02  -2.39250965E+01   2.00065628E+02  -1.34250040E+01   1.25143747E+01
             2381                1   2.20000000E+02   1.97364578E+02   1.97364578E+02  -2.59302044E+01  -1.91855526E+01   1.97364578E+02   1.97364578E+02  -1.91855526E+01  -2.59302044E+01   2.23294785E+02  -5.07496071E+01   2.19767197E+02  -2.54367504E+01   1.96871124E+02  -1.91855526E+01   1.04853029E+01
             2381                2   2.20000000E+02   1.97281174E+02   1.97281174E+02  -2.79666023E+01  -1.70657616E+01   1.97281174E+02   1.97281174E+02  -1.70657616E+01  -2.79666023E+01   2.25247787E+02  -5.07496033E+01   2.19391144E+02  -2.76725292E+01   1.96987106E+02  -1.70657616E+01   8.13342094E+00
             2381                3   2.20000000E+02   1.97321228E+02   1.97321228E+02  -2.71083069E+01  -1.79640923E+01   1.97321228E+02   1.97321228E+02  -1.79640923E+01  -2.71083069E+01   2.24429535E+02  -5.07496071E+01   2.19571808E+02  -2.61401596E+01   1.96353073E+02  -1.79640923E+01   1.47086782E+01
             2381                4   2.20000000E+02   1.97221909E+02   1.97221909E+02  -2.90233917E+01  -1.59496994E+01   1.97221909E+02   1.97221909E+02  -1.59496994E+01  -2.90233917E+01   2.26245300E+02  -5.07496033E+01   2.19123444E+02  -2.83539200E+01   1.96552429E+02  -1.59496994E+01   1.22889576E+01
             2382                1   2.20000000E+02   2.14119400E+02   2.14119400E+02  -4.97910261E+00  -6.77114248E+00   2.14119400E+02   2.14119400E+02  -4.97910261E+00  -6.77114248E+00   2.20890549E+02  -6.74563828E+01   2.19983597E+02  -4.95400381E+00   2.14094315E+02  -6.77114248E+00   2.34458542E+00
             2382                2   2.20000000E+02   2.14119232E+02   2.14119232E+02  -4.95802784E+00  -6.79204464E+00   2.14119232E+02   2.14119232E+02  -4.95802784E+00  -6.79204464E+00   2.20911285E+02  -6.74563904E+01   2.19982803E+02  -4.95276737E+00   2.14113983E+02  -6.79204464E+00  -1.07283282E+00
             2382                3   2.20000000E+02   2.14119400E+02   2.14119400E+02  -6.77048349E+00  -4.97975445E+00   2.14119400E+02   2.14119400E+02  -4.97975445E+00  -6.77048349E+00   2.20889893E+02  -6.74563904E+01   2.19983582E+02  -6.74718380E+00   2.14096100E+02  -4.97975445E+00   2.26882482E+00
             2382                4   2.20000000E+02   2.14119568E+02   2.14119568E+02  -6.75113964E+00  -4.99925756E+00   2.14119568E+02   2.14119568E+02  -4.99925756E+00  -6.75113964E+00   2.20870697E+02  -6.74563904E+01   2.19984283E+02  -6.74594498E+00   2.14114365E+02  -4.99925756E+00  -1.07152569E+00
             2383                1   2.20000000E+02   1.83856125E+02   1.83856125E+02  -4.55252724E+01  -2.53762436E+01   1.83856125E+02   1.83856125E+02  -2.53762436E+01  -4.55252724E+01   2.29381393E+02  -3.76515388E+01   2.17909592E+02  -4.55222740E+01   1.83853134E+02  -2.53762436E+01   8.28762531E-01
             2383                2   2.20000000E+02   1.83505814E+02   1.83505814E+02  -4.86259079E+01  -2.19252872E+01   1.83505814E+02   1.83505814E+02  -2.19252872E+01  -4.86259079E+01   2.32131729E+02  -3.76515427E+01   2.16309631E+02  -4.84657593E+01   1.83345673E+02  -2.19252872E+01  -6.09506845E+00
             2383                3   2.20000000E+02   1.83519257E+02   1.83519257E+02  -4.85220871E+01  -2.20425434E+01   1.83519257E+02   1.83519257E+02  -2.20425434E+01  -4.85220871E+01   2.32041336E+02  -3.76515388E+01   2.16371231E+02  -4.82850952E+01   1.83282257E+02  -2.20425434E+01   7.41187668E+00
             2383                4   2.20000000E+02   1.83136383E+02   1.83136383E+02  -5.11829643E+01  -1.89987888E+01   1.83136383E+02   1.83136383E+02  -1.89987888E+01  -5.11829643E+01   2.34319336E+02  -3.76515427E+01   2.14607651E+02  -5.11815071E+01   1.83134918E+02  -1.89987888E+01   5.84805191E-01
             2384                1   2.20000000E+02   2.24310989E+02   2.24310989E+02  -3.82229900E+00   1.34641953E+01   2.24310989E+02   2.24310989E+02   1.34641953E+01  -3.82229900E+00   2.28133286E+02  -7.79842911E+01   2.18464188E+02  -3.35808301E+00   2.23846771E+02   1.34641953E+01   1.02805052E+01
             2384                2   2.20000000E+02   2.24241913E+02   2.24241913E+02  -4.62435436E+00   1.43353415E+01   2.24241913E+02   2.24241913E+02   1.43353415E+01  -4.62435436E+00   2.28866257E+02  -7.79842987E+01   2.18150574E+02  -4.30812359E+00   2.23925674E+02   1.43353415E+01   8.50148010E+00
             2384                3   2.20000000E+02   2.24245041E+02   2.24245041E+02  -4.58952522E+00   1.42973776E+01   2.24245041E+02   2.24245041E+02   1.42973776E+01  -4.58952522E+00   2.28834564E+02  -7.79842987E+01   2.18164825E+02  -3.95249104E+00   2.23608002E+02   1.42973776E+01   1.20570002E+01
             2384                4   2.20000000E+02   2.24174133E+02   2.24174133E+02  -5.34451151E+00   1.51232624E+01   2.24174133E+02   2.24174133E+02   1.51232624E+01  -5.34451151E+00   2.29518646E+02  -7.79842911E+01   2.17842468E+02  -4.88050222E+00   2.23710129E+02   1.51232624E+01   1.03093185E+01
             2385                1   2.20000000E+02   2.21909866E+02   2.21909866E+02  -6.96720123E+00   1.20173092E+01   2.21909866E+02   2.21909866E+02   1.20173092E+01  -6.96720123E+00   2.28877060E+02  -7.56533203E+01   2.18145706E+02  -6.41174793E+00   2.21354401E+02   1.20173092E+01   1.12615757E+01
             2385                2   2.20000000E+02   2.21827606E+02   2.21827606E+02  -7.83285713E+00   1.29651985E+01   2.21827606E+02   2.21827606E+02   1.29651985E+01  -7.83285713E+00   2.29660461E+02  -7.56533127E+01   2.17771744E+02  -7.42599440E+00   2.21420746E+02   1.29651985E+01   9.65787792E+00
             2385                3   2.20000000E+02   2.21839249E+02   2.21839249E+02  -7.71532583E+00   1.28360338E+01   2.21839249E+02   2.21839249E+02   1.28360338E+01  -7.71532583E+00   2.29554565E+02  -7.56533127E+01   2.17824677E+02  -6.97422409E+00   2.21098145E+02   1.28360338E+01   1.30220289E+01
             2385                4   2.20000000E+02   2.21754532E+02   2.21754532E+02  -8.53999805E+00   1.37454166E+01   2.21754532E+02   2.21754532E+02   1.37454166E+01  -8.53999805E+00   2.30294540E+02  -7.56533203E+01   2.17438828E+02  -7.97152185E+00   2.21186066E+02   1.37454166E+01   1.14277124E+01
             2386                1   2.20000000E+02   2.25477951E+02   2.25477951E+02  -4.30880994E-01   1.19059467E+01   2.25477951E+02   2.25477951E+02   1.19059467E+01  -4.30880994E-01   2.25908829E+02  -7.89843369E+01   2.19219727E+02  -2.90163100E-01   2.25337234E+02   1.19059467E+01   5.63649368E+00
             2386                2   2.20000000E+02   2.25450821E+02   2.25450821E+02  -8.82816374E-01   1.23850069E+01   2.25450821E+02   2.25450821E+02   1.23850069E+01  -8.82816374E-01   2.26333649E+02  -7.89843369E+01   2.19097137E+02  -6.88800812E-01   2.25256805E+02   1.23850069E+01   6.62385559E+00
             2386                3   2.20000000E+02   2.25503937E+02   2.25503937E+02   3.78662683E-02   1.14112120E+01   2.25503937E+02   2.25503937E+02   1.14112120E+01   3.78662683E-02   2.25466080E+02  -7.89843369E+01   2.19337097E+02   2.38004223E-01   2.25303802E+02   1.14112120E+01   6.71452141E+00
             2386                4   2.20000000E+02   2.25478241E+02   2.25478241E+02  -4.25709993E-01   1.19004707E+01   2.25478241E+02   2.25478241E+02   1.19004707E+01  -4.25709993E-01   2.25903961E+02  -7.89843369E+01   2.19221069E+02  -1.62898228E-01   2.25215439E+02   1.19004707E+01   7.70065641E+00
             2387                1   2.20000000E+02   2.18864578E+02   2.18864578E+02  -2.39022803E+00   1.41217709E-01   2.18864578E+02   2.18864578E+02   1.41217709E-01  -2.39022803E+00   2.21254807E+02  -7.22051926E+01   2.19967239E+02  -2.04793882E+00   2.18522293E+02   1.41217709E-01   8.69569016E+00
             2387                2   2.20000000E+02   2.18871536E+02   2.18871536E+02  -8.57981861E-01  -1.39796865E+00   2.18871536E+02   2.18871536E+02  -8.57981861E-01  -1.39796865E+00   2.20269501E+02  -7.22051926E+01   2.19998505E+02  -4.84045774E-01   2.18497589E+02  -1.39796865E+00   9.05684185E+00
             2387                3   2.20000000E+02   2.18866470E+02   2.18866470E+02  -2.21371078E+00  -3.71949524E-02   2.18866470E+02   2.18866470E+02  -3.71949524E-02  -2.21371078E+00   2.21080185E+02  -7.22051849E+01   2.19975769E+02  -2.06036305E+00   2.18713120E+02  -3.71949524E-02   5.82052183E+00
             2387                4   2.20000000E+02   2.18870895E+02   2.18870895E+02  -6.67802691E-01  -1.58752096E+00   2.18870895E+02   2.18870895E+02  -6.67802691E-01  -1.58752096E+00   2.20458420E+02  -7.22051926E+01   2.19995682E+02  -4.96753365E-01   2.18699844E+02  -1.58752096E+00   6.12563848E+00
             2388                1   2.20000000E+02   2.19035583E+02   2.19035583E+02  -2.03644443E+00   1.23524196E-01   2.19035583E+02   2.19035583E+02   1.23524196E-01  -2.03644443E+00   2.21072037E+02  -7.23742218E+01   2.19976151E+02  -1.83142614E+00   2.18830566E+02   1.23524196E-01   6.72926044E+00
             2388                2   2.20000000E+02   2.19039719E+02   2.19039719E+02  -4.49275494E-01  -1.46776736E+00   2.19039719E+02   2.19039719E+02  -4.49275494E-01  -1.46776736E+00   2.20507477E+02  -7.23742218E+01   2.19994705E+02  -2.22433001E-01   2.18812866E+02  -1.46776736E+00   7.05260277E+00
             2388                3   2.20000000E+02   2.19036987E+02   2.19036987E+02  -1.88425577E+00  -3.00618038E-02   2.19036987E+02   2.19036987E+02  -3.00618038E-02  -1.88425577E+00   2.20921234E+02  -7.23742218E+01   2.19982422E+02  -1.82013214E+00   2.18972855E+02  -3.00618038E-02   3.76334596E+00
             2388                4   2.20000000E+02   2.19038834E+02   2.19038834E+02  -2.84875453E-01  -1.63129056E+00   2.19038834E+02   2.19038834E+02  -2.84875453E-01  -1.63129056E+00   2.20670120E+02  -7.23742218E+01   2.19990723E+02  -2.10923418E-01   2.18964874E+02  -1.63129056E+00   4.02668905E+00
             2389                1   2.20000000E+02   2.19029388E+02   2.19029388E+02  -1.88239622E+00  -4.73661423E-02   2.19029388E+02   2.19029388E+02  -4.73661423E-02  -1.88239622E+00   2.20911774E+02  -7.23665390E+01   2.19982788E+02  -1.78551602E+00   2.18932510E+02  -4.73661423E-02   4.62505913E+00
             2389                2   2.20000000E+02   2.19030930E+02   2.19030930E+02  -2.58929163E-01  -1.67238832E+00   2.19030930E+02   2.19030930E+02  -2.58929163E-01  -1.67238832E+00   2.20703323E+02  -7.23665390E+01   2.19989792E+02  -1.54169515E-01   2.18926178E+02  -1.67238832E+00   4.79172134E+00
             2389                3   2.20000000E+02   2.19029968E+02   2.19029968E+02  -1.80926931E+00  -1.21079057E-01   2.19029968E+02   2.19029968E+02  -1.21079057E-01  -1.80926931E+00   2.20839249E+02  -7.23665390E+01   2.19985428E+02  -1.79758763E+00   2.19018295E+02  -1.21079057E-01   1.60581315E+00
             2389                4   2.20000000E+02   2.19030411E+02   2.19030411E+02  -1.79853126E-01  -1.75092423E+00   2.19030411E+02   2.19030411E+02  -1.79853126E-01  -1.75092423E+00   2.20781326E+02  -7.23665390E+01   2.19987396E+02  -1.66519463E-01   2.19017075E+02  -1.75092423E+00   1.70960939E+00
             2390                1   2.20000000E+02   2.37976578E+02   2.37976578E+02   2.12588711E+01   1.48349981E+01   2.37976578E+02   2.37976578E+02   2.12588711E+01   1.48349981E+01   2.23141571E+02  -9.13568115E+01   2.19788849E+02   2.12678509E+01   2.37967606E+02   1.48349981E+01  -1.39449131E+00
             2390                2   2.20000000E+02   2.37989807E+02   2.37989807E+02   2.07622299E+01   1.53184195E+01   2.37989807E+02   2.37989807E+02   2.07622299E+01   1.53184195E+01   2.22671402E+02  -9.13568192E+01   2.19848389E+02   2.07715206E+01   2.37980530E+02   1.53184195E+01  -1.42015159E+00
             2390                3   2.20000000E+02   2.37976135E+02   2.37976135E+02   2.12749062E+01   1.48194389E+01   2.37976135E+02   2.37976135E+02   2.12749062E+01   1.48194389E+01   2.23156693E+02  -9.13568192E+01   2.19786758E+02   2.12753677E+01   2.37975662E+02   1.48194389E+01  -3.18736196E-01
             2390                4   2.20000000E+02   2.37989410E+02   2.37989410E+02   2.07783470E+01   1.53027039E+01   2.37989410E+02   2.37989410E+02   2.07783470E+01   1.53027039E+01   2.22686707E+02  -9.13568192E+01   2.19846603E+02   2.07788696E+01   2.37988892E+02   1.53027039E+01  -3.37128252E-01
             2391                1   2.20000000E+02   2.40950058E+02   2.40950058E+02   2.33163586E+01   1.86577473E+01   2.40950058E+02   2.40950058E+02   2.33163586E+01   1.86577473E+01   2.22292313E+02  -9.43080521E+01   2.19888992E+02   2.33243122E+01   2.40942108E+02   1.86577473E+01  -1.31552792E+00
             2391                2   2.20000000E+02   2.40957718E+02   2.40957718E+02   2.29161148E+01   1.90503025E+01   2.40957718E+02   2.40957718E+02   2.29161148E+01   1.90503025E+01   2.21907425E+02  -9.43080444E+01   2.19923584E+02   2.29226685E+01   2.40951187E+02   1.90503025E+01  -1.19467878E+00
             2391                3   2.20000000E+02   2.40948410E+02   2.40948410E+02   2.33934746E+01   1.85822716E+01   2.40948410E+02   2.40948410E+02   2.33934746E+01   1.85822716E+01   2.22366135E+02  -9.43080521E+01   2.19881577E+02   2.33943958E+01   2.40947495E+02   1.85822716E+01  -4.47040707E-01
             2391                4   2.20000000E+02   2.40956390E+02   2.40956390E+02   2.29923439E+01   1.89754372E+01   2.40956390E+02   2.40956390E+02   2.29923439E+01   1.89754372E+01   2.21980942E+02  -9.43080521E+01   2.19917465E+02   2.29928265E+01   2.40955902E+02   1.89754372E+01  -3.24927151E-01
             2392                1   2.20000000E+02   2.20421295E+02   2.20421295E+02  -4.71474886E-01   1.32504916E+00   2.20421295E+02   2.20421295E+02   1.32504916E+00  -4.71474886E-01   2.20892761E+02  -7.37582855E+01   2.19983505E+02   4.01873440E-01   2.19547943E+02   1.32504916E+00   1.38619261E+01
             2392                2   2.20000000E+02   2.20419357E+02   2.20419357E+02  -6.81644738E-01   1.53714240E+00   2.20419357E+02   2.20419357E+02   1.53714240E+00  -6.81644738E-01   2.21101013E+02  -7.37582855E+01   2.19974838E+02  -5.20873442E-02   2.19789810E+02   1.53714240E+00   1.17812595E+01
             2392                3   2.20000000E+02   2.20409576E+02   2.20409576E+02  -1.40702260E+00   2.27231503E+00   2.20409576E+02   2.20409576E+02   2.27231503E+00  -1.40702260E+00   2.21816589E+02  -7.37582855E+01   2.19930771E+02  -3.92256528E-01   2.19394806E+02   2.27231503E+00   1.49686985E+01
             2392                4   2.20000000E+02   2.20405991E+02   2.20405991E+02  -1.60784853E+00   2.47671938E+00   2.20405991E+02   2.20405991E+02   2.47671938E+00  -1.60784853E+00   2.22013840E+02  -7.37582855E+01   2.19914658E+02  -8.53441060E-01   2.19651581E+02   2.47671938E+00   1.29197578E+01
             2393                1   2.20000000E+02   2.41078491E+02   2.41078491E+02   2.09411621E+01   2.12160950E+01   2.41078491E+02   2.41078491E+02   2.12160950E+01   2.09411621E+01   2.20137329E+02  -9.44119186E+01   2.19999619E+02   2.10028801E+01   2.41016785E+02   2.12160950E+01   3.68532658E+00
             2393                2   2.20000000E+02   2.41076767E+02   2.41076767E+02   2.17106457E+01   2.04483471E+01   2.41076767E+02   2.41076767E+02   2.17106457E+01   2.04483471E+01   2.20628418E+02  -9.44119186E+01   2.19991852E+02   2.17664738E+01   2.41020935E+02   2.04483471E+01   3.49929905E+00
             2393                3   2.20000000E+02   2.41078369E+02   2.41078369E+02   2.08609619E+01   2.12964211E+01   2.41078369E+02   2.41078369E+02   2.12964211E+01   2.08609619E+01   2.20217407E+02  -9.44119186E+01   2.19999039E+02   2.08852158E+01   2.41054123E+02   2.12964211E+01   2.31055713E+00
             2393                4   2.20000000E+02   2.41077225E+02   2.41077225E+02   2.16272449E+01   2.05312901E+01   2.41077225E+02   2.41077225E+02   2.16272449E+01   2.05312901E+01   2.20545929E+02  -9.44119186E+01   2.19993866E+02   2.16475735E+01   2.41056900E+02   2.05312901E+01   2.11172128E+00
             2394                1   2.20000000E+02   2.17477173E+02   2.17477173E+02   5.67635775E+00  -9.89467144E+00   2.17477173E+02   2.17477173E+02   5.67635775E+00  -9.89467144E+00   2.27371841E+02  -7.10862885E+01   2.18755066E+02   5.80990314E+00   2.17343628E+02  -9.89467144E+00   5.31674290E+00
             2394                2   2.20000000E+02   2.17497986E+02   2.17497986E+02   5.36683989E+00  -9.60596085E+00   2.17497986E+02   2.17497986E+02   5.36683989E+00  -9.60596085E+00   2.27103943E+02  -7.10862885E+01   2.18849258E+02   5.60086393E+00   2.17263962E+02  -9.60596085E+00   7.04190016E+00
             2394                3   2.20000000E+02   2.17411514E+02   2.17411514E+02   6.58559370E+00  -1.07382479E+01   2.17411514E+02   2.17411514E+02   6.58559370E+00  -1.07382479E+01   2.28149750E+02  -7.10862808E+01   2.18457504E+02   6.74474764E+00   2.17252350E+02  -1.07382479E+01   5.79043961E+00
             2394                4   2.20000000E+02   2.17435669E+02   2.17435669E+02   6.26189327E+00  -1.04387054E+01   2.17435669E+02   2.17435669E+02   6.26189327E+00  -1.04387054E+01   2.27874374E+02  -7.10862808E+01   2.18567017E+02   6.53165007E+00   2.17165909E+02  -1.04387054E+01   7.54268312E+00
             2395                1   2.20000000E+02   2.19117310E+02   2.19117310E+02  -1.70667100E+00  -4.93201911E-02   2.19117310E+02   2.19117310E+02  -4.93201911E-02  -1.70667100E+00   2.20823990E+02  -7.24537735E+01   2.19985947E+02  -1.68698311E+00   2.19097626E+02  -4.93201911E-02   2.08508778E+00
             2395                2   2.20000000E+02   2.19117432E+02   2.19117432E+02  -6.30156398E-02  -1.69307303E+00   2.19117432E+02   2.19117432E+02  -6.30156398E-02  -1.69307303E+00   2.20810501E+02  -7.24537811E+01   2.19986404E+02  -4.05032001E-02   2.19094910E+02  -1.69307303E+00   2.22152567E+00
             2395                3   2.20000000E+02   2.19117691E+02   2.19117691E+02  -1.65743458E+00  -9.89157408E-02   2.19117691E+02   2.19117691E+02  -9.89157408E-02  -1.65743458E+00   2.20775116E+02  -7.24537735E+01   2.19987579E+02  -1.65321743E+00   2.19113464E+02  -9.89157408E-02  -9.65339065E-01
             2395                4   2.20000000E+02   2.19117020E+02   2.19117020E+02  -9.68324486E-03  -1.74600911E+00   2.19117020E+02   2.19117020E+02  -9.68324486E-03  -1.74600911E+00   2.20863022E+02  -7.24537735E+01   2.19984573E+02  -6.03868393E-03   2.19113373E+02  -1.74600911E+00  -8.93182695E-01
             2396                1   2.20000000E+02   2.23943115E+02   2.23943115E+02  -9.28898752E-01   9.16245556E+00   2.23943115E+02   2.23943115E+02   9.16245556E+00  -9.28898752E-01   2.24872025E+02  -7.73922272E+01   2.19478348E+02  -5.78083575E-01   2.23592300E+02   9.16245556E+00   8.87504482E+00
             2396                2   2.20000000E+02   2.23913986E+02   2.23913986E+02  -1.51344967E+00   9.77614307E+00   2.23913986E+02   2.23913986E+02   9.77614307E+00  -1.51344967E+00   2.25427444E+02  -7.73922272E+01   2.19346848E+02  -1.24421895E+00   2.23644760E+02   9.77614307E+00   7.78588200E+00
             2396                3   2.20000000E+02   2.23919388E+02   2.23919388E+02  -1.40994382E+00   9.66722775E+00   2.23919388E+02   2.23919388E+02   9.66722775E+00  -1.40994382E+00   2.25329330E+02  -7.73922195E+01   2.19371246E+02  -9.57044303E-01   2.23466492E+02   9.66722775E+00   1.00918741E+01
             2396                4   2.20000000E+02   2.23888321E+02   2.23888321E+02  -1.97989726E+00   1.02682495E+01   2.23888321E+02   2.23888321E+02   1.02682495E+01  -1.97989726E+00   2.25868210E+02  -7.73922195E+01   2.19230927E+02  -1.62066174E+00   2.23529083E+02   1.02682495E+01   9.00054169E+00
             2397                1   2.20000000E+02   2.14751373E+02   2.14751373E+02  -5.31051779E+00  -5.18667793E+00   2.14751373E+02   2.14751373E+02  -5.18667793E+00  -5.31051779E+00   2.20061890E+02  -6.80847244E+01   2.19999924E+02  -4.98600245E+00   2.14426865E+02  -5.18667793E+00   8.44434834E+00
             2397                2   2.20000000E+02   2.14738907E+02   2.14738907E+02  -6.89980078E+00  -3.58491325E+00   2.14738907E+02   2.14738907E+02  -3.58491325E+00  -6.89980078E+00   2.21638718E+02  -6.80847321E+01   2.19943802E+02  -6.62226009E+00   2.14461365E+02  -3.58491325E+00   7.83825493E+00
             2397                3   2.20000000E+02   2.14750641E+02   2.14750641E+02  -5.65625048E+00  -4.84019899E+00   2.14750641E+02   2.14750641E+02  -4.84019899E+00  -5.65625048E+00   2.20406891E+02  -6.80847321E+01   2.19996597E+02  -5.05421638E+00   2.14148605E+02  -4.84019899E+00   1.15034952E+01
             2397                4   2.20000000E+02   2.14733566E+02   2.14733566E+02  -7.22071075E+00  -3.25866365E+00   2.14733566E+02   2.14733566E+02  -3.25866365E+00  -7.22071075E+00   2.21954269E+02  -6.80847244E+01   2.19919724E+02  -6.69016457E+00   2.14203018E+02  -3.25866365E+00   1.08385544E+01
             2398                1   2.20000000E+02   2.34780579E+02   2.34780579E+02   1.59720163E+01   1.36081944E+01   2.34780579E+02   2.34780579E+02   1.59720163E+01   1.36081944E+01   2.21172379E+02  -8.81202621E+01   2.19971436E+02   1.61448898E+01   2.34607712E+02   1.36081944E+01   6.14772940E+00
             2398                2   2.20000000E+02   2.34786392E+02   2.34786392E+02   1.51315079E+01   1.44428930E+01   2.34786392E+02   2.34786392E+02   1.51315079E+01   1.44428930E+01   2.20343506E+02  -8.81202698E+01   2.19997574E+02   1.53243628E+01   2.34593552E+02   1.44428930E+01   6.50559950E+00
             2398                3   2.20000000E+02   2.34778900E+02   2.34778900E+02   1.61205235E+01   1.34613752E+01   2.34778900E+02   2.34778900E+02   1.61205235E+01   1.34613752E+01   2.21317535E+02  -8.81202698E+01   2.19963852E+02   1.63891048E+01   2.34510330E+02   1.34613752E+01   7.65860367E+00
             2398                4   2.20000000E+02   2.34785858E+02   2.34785858E+02   1.52744188E+01   1.43005304E+01   2.34785858E+02   2.34785858E+02   1.52744188E+01   1.43005304E+01   2.20485321E+02  -8.81202698E+01   2.19995132E+02   1.55664644E+01   2.34493805E+02   1.43005304E+01   8.00141144E+00
             2399                1   2.20000000E+02   2.23240463E+02   2.23240463E+02  -2.72473127E-01   6.93028450E+00   2.23240463E+02   2.23240463E+02   6.93028450E+00  -2.72473127E-01   2.23512939E+02  -7.66327591E+01   2.19734482E+02  -1.13122813E-01   2.23081116E+02   6.93028450E+00   5.96574879E+00
             2399                2   2.20000000E+02   2.23230515E+02   2.23230515E+02  -5.59464991E-01   7.22723341E+00   2.23230515E+02   2.23230515E+02   7.22723341E+00  -5.59464991E-01   2.23789978E+02  -7.66327591E+01   2.19689636E+02  -3.56170654E-01   2.23027222E+02   7.22723341E+00   6.74195147E+00
             2399                3   2.20000000E+02   2.23252670E+02   2.23252670E+02   1.15907386E-01   6.52969313E+00   2.23252670E+02   2.23252670E+02   6.52969313E+00   1.15907386E-01   2.23136765E+02  -7.66327591E+01   2.19789505E+02   3.12016129E-01   2.23056564E+02   6.52969313E+00   6.61208200E+00
             2399                4   2.20000000E+02   2.23243591E+02   2.23243591E+02  -1.76821843E-01   6.83149672E+00   2.23243591E+02   2.23243591E+02   6.83149672E+00  -1.76821843E-01   2.23420410E+02  -7.66327591E+01   2.19748627E+02   6.78570345E-02   2.22998917E+02   6.83149672E+00   7.38959551E+00
             2400                1   2.20000000E+02   2.23289719E+02   2.23289719E+02   6.49168396E+00   2.21773103E-01   2.23289719E+02   2.23289719E+02   6.49168396E+00   2.21773103E-01   2.23067947E+02  -7.66677246E+01   2.19798859E+02   6.85216284E+00   2.22929245E+02   2.21773103E-01   8.83289528E+00
             2400                2   2.20000000E+02   2.23310425E+02   2.23310425E+02   5.64254093E+00   1.05021656E+00   2.23310425E+02   2.23310425E+02   5.64254093E+00   1.05021656E+00   2.22260208E+02  -7.66677322E+01   2.19892120E+02   6.15061235E+00   2.22802353E+02   1.05021656E+00   1.05040131E+01
             2400                3   2.20000000E+02   2.23273087E+02   2.23273087E+02   7.03732586E+00  -3.07230085E-01   2.23273087E+02   2.23273087E+02   7.03732586E+00  -3.07230085E-01   2.23580307E+02  -7.66677246E+01   2.19723907E+02   7.57230997E+00   2.22738098E+02  -3.07230085E-01   1.07422915E+01
             2400                4   2.20000000E+02   2.23298538E+02   2.23298538E+02   6.16093540E+00   5.43709040E-01   2.23298538E+02   2.23298538E+02   6.16093540E+00   5.43709040E-01   2.22754822E+02  -7.66677322E+01   2.19838562E+02   6.87152004E+00   2.22587952E+02   5.43709040E-01   1.24012070E+01
             2401                1   2.20000000E+02   2.44016266E+02   2.44016266E+02   2.49981747E+01   2.30472984E+01   2.44016266E+02   2.44016266E+02   2.49981747E+01   2.30472984E+01   2.20968964E+02  -9.73539124E+01   2.19980530E+02   2.50125618E+01   2.44001862E+02   2.30472984E+01   1.77530885E+00
             2401                2   2.20000000E+02   2.44018692E+02   2.44018692E+02   2.46656094E+01   2.33774185E+01   2.44018692E+02   2.44018692E+02   2.46656094E+01   2.33774185E+01   2.20641266E+02  -9.73539047E+01   2.19991516E+02   2.46905231E+01   2.43993774E+02   2.33774185E+01   2.33749509E+00
             2401                3   2.20000000E+02   2.44013687E+02   2.44013687E+02   2.52541370E+01   2.27938843E+01   2.44013687E+02   2.44013687E+02   2.52541370E+01   2.27938843E+01   2.21219803E+02  -9.73539047E+01   2.19969040E+02   2.52796497E+01   2.43988174E+02   2.27938843E+01   2.36225486E+00
             2401                4   2.20000000E+02   2.44016937E+02   2.44016937E+02   2.49174271E+01   2.31273556E+01   2.44016937E+02   2.44016937E+02   2.49174271E+01   2.31273556E+01   2.20889572E+02  -9.73539047E+01   2.19983643E+02   2.49564629E+01   2.43977905E+02   2.31273556E+01   2.92411113E+00
             2402                1   2.20000000E+02   2.34855301E+02   2.34855301E+02   1.90847321E+01   1.08567362E+01   2.34855301E+02   2.34855301E+02   1.90847321E+01   1.08567362E+01   2.23998566E+02  -8.82655945E+01   2.19653397E+02   1.90847301E+01   2.34855301E+02   1.08567362E+01   9.85279400E-03
             2402                2   2.20000000E+02   2.34849991E+02   2.34849991E+02   1.92269859E+01   1.07197914E+01   2.34849991E+02   2.34849991E+02   1.92269859E+01   1.07197914E+01   2.24130203E+02  -8.82655945E+01   2.19629456E+02   1.92334442E+01   2.34843536E+02   1.07197914E+01  -1.18008173E+00
             2402                3   2.20000000E+02   2.34873367E+02   2.34873367E+02   1.85607471E+01   1.13626566E+01   2.34873367E+02   2.34873367E+02   1.85607471E+01   1.13626566E+01   2.23510712E+02  -8.82655945E+01   2.19734802E+02   1.85614910E+01   2.34872620E+02   1.13626566E+01  -4.01534379E-01
             2402                4   2.20000000E+02   2.34868820E+02   2.34868820E+02   1.86992779E+01   1.12286644E+01   2.34868820E+02   2.34868820E+02   1.86992779E+01   1.12286644E+01   2.23640152E+02  -8.82655869E+01   2.19714355E+02   1.87109890E+01   2.34857117E+02   1.12286644E+01  -1.59064114E+00
             2403                1   2.20000000E+02   2.18088791E+02   2.18088791E+02  -1.28668556E+01   1.09888439E+01   2.18088791E+02   2.18088791E+02   1.09888439E+01  -1.28668556E+01   2.30955658E+02  -7.20702591E+01   2.17061493E+02  -1.23160677E+01   2.17538010E+02   1.09888439E+01   1.12651482E+01
             2403                2   2.20000000E+02   2.17989182E+02   2.17989182E+02  -1.36987162E+01   1.19203148E+01   2.17989182E+02   2.17989182E+02   1.19203148E+01  -1.36987162E+01   2.31687897E+02  -7.20702591E+01   2.16605896E+02  -1.32788973E+01   2.17569366E+02   1.19203148E+01   9.85342598E+00
             2403                3   2.20000000E+02   2.17996750E+02   2.17996750E+02  -1.36377468E+01   1.18517857E+01   2.17996750E+02   2.17996750E+02   1.18517857E+01  -1.36377468E+01   2.31634506E+02  -7.20702667E+01   2.16640518E+02  -1.29173546E+01   2.17276367E+02   1.18517857E+01   1.28975887E+01
             2403                4   2.20000000E+02   2.17898270E+02   2.17898270E+02  -1.44076214E+01   1.27201557E+01   2.17898270E+02   2.17898270E+02   1.27201557E+01  -1.44076214E+01   2.32305893E+02  -7.20702667E+01   2.16189087E+02  -1.38336706E+01   2.17324310E+02   1.27201557E+01   1.15327501E+01
             2404                1   2.20000000E+02   2.23697754E+02   2.23697754E+02   2.89324307E+00   4.51118994E+00   2.23697754E+02   2.23697754E+02   4.51118994E+00   2.89324307E+00   2.20804520E+02  -7.70340652E+01   2.19986618E+02   2.97666669E+00   2.23614334E+02   4.51118994E+00   4.29114294E+00
             2404                2   2.20000000E+02   2.23698669E+02   2.23698669E+02   4.37509108E+00   3.02842116E+00   2.23698669E+02   2.23698669E+02   4.37509108E+00   3.02842116E+00   2.20670242E+02  -7.70340652E+01   2.19990723E+02   4.46515322E+00   2.23608612E+02   3.02842116E+00   4.44339037E+00
             2404                3   2.20000000E+02   2.23698242E+02   2.23698242E+02   2.96048713E+00   4.44346714E+00   2.23698242E+02   2.23698242E+02   4.44346714E+00   2.96048713E+00   2.20737747E+02  -7.70340652E+01   2.19988754E+02   2.97140551E+00   2.23687317E+02   4.44346714E+00   1.55238438E+00
             2404                4   2.20000000E+02   2.23698212E+02   2.23698212E+02   4.44731617E+00   2.95666885E+00   2.23698212E+02   2.23698212E+02   4.44731617E+00   2.95666885E+00   2.20741531E+02  -7.70340652E+01   2.19988647E+02   4.45977354E+00   2.23685745E+02   2.95666885E+00   1.65288830E+00
             2405                1   2.20000000E+02   2.23411484E+02   2.23411484E+02   2.53961706E+00   4.29381895E+00   2.23411484E+02   2.23411484E+02   4.29381895E+00   2.53961706E+00   2.20871857E+02  -7.67483063E+01   2.19984268E+02   2.72173142E+00   2.23229370E+02   4.29381895E+00   6.33951473E+00
             2405                2   2.20000000E+02   2.23413467E+02   2.23413467E+02   3.99156713E+00   2.83987975E+00   2.23413467E+02   2.23413467E+02   3.99156713E+00   2.83987975E+00   2.20573578E+02  -7.67482986E+01   2.19993225E+02   4.18404150E+00   2.23220993E+02   2.83987975E+00   6.49575806E+00
             2405                3   2.20000000E+02   2.23412064E+02   2.23412064E+02   2.61611438E+00   4.21674156E+00   2.23412064E+02   2.23412064E+02   4.21674156E+00   2.61611438E+00   2.20795959E+02  -7.67483063E+01   2.19986908E+02   2.67654467E+00   2.23351639E+02   4.21674156E+00   3.65226126E+00
             2405                4   2.20000000E+02   2.23413010E+02   2.23413010E+02   4.07353878E+00   2.75837278E+00   2.23413010E+02   2.23413010E+02   4.07353878E+00   2.75837278E+00   2.20654633E+02  -7.67483063E+01   2.19991150E+02   4.13796902E+00   2.23348572E+02   2.75837278E+00   3.75874448E+00
             2406                1   2.20000000E+02   2.37757233E+02   2.37757233E+02   2.08331013E+01   1.48052320E+01   2.37757233E+02   2.37757233E+02   2.08331013E+01   1.48052320E+01   2.22951996E+02  -9.11318588E+01   2.19814072E+02   2.08741455E+01   2.37716171E+02   1.48052320E+01  -2.98386288E+00
             2406                2   2.20000000E+02   2.37768433E+02   2.37768433E+02   2.03860741E+01   1.52410440E+01   2.37768433E+02   2.37768433E+02   2.03860741E+01   1.52410440E+01   2.22527390E+02  -9.11318588E+01   2.19864548E+02   2.04206886E+01   2.37733810E+02   1.52410440E+01  -2.74303317E+00
             2406                3   2.20000000E+02   2.37752686E+02   2.37752686E+02   2.09967957E+01   1.46460752E+01   2.37752686E+02   2.37752686E+02   2.09967957E+01   1.46460752E+01   2.23106613E+02  -9.11318588E+01   2.19793594E+02   2.10161495E+01   2.37733322E+02   1.46460752E+01  -2.04821348E+00
             2406                4   2.20000000E+02   2.37764664E+02   2.37764664E+02   2.05439358E+01   1.50869370E+01   2.37764664E+02   2.37764664E+02   2.05439358E+01   1.50869370E+01   2.22677719E+02  -9.11318436E+01   2.19847641E+02   2.05593204E+01   2.37749283E+02   1.50869370E+01  -1.82786810E+00
             2407                1   2.20000000E+02   2.32004791E+02   2.32004791E+02   1.14208927E+01   1.25934000E+01   2.32004791E+02   2.32004791E+02   1.25934000E+01   1.14208927E+01   2.20583908E+02  -8.53396988E+01   2.19992950E+02   1.14800873E+01   2.31945602E+02   1.25934000E+01   3.61300921E+00
             2407                2   2.20000000E+02   2.32004654E+02   2.32004654E+02   1.26209240E+01   1.13935213E+01   2.32004654E+02   2.32004654E+02   1.26209240E+01   1.13935213E+01   2.20611130E+02  -8.53396988E+01   2.19992294E+02   1.26813335E+01   2.31944244E+02   1.13935213E+01   3.64001441E+00
             2407                3   2.20000000E+02   2.32004868E+02   2.32004868E+02   1.14328270E+01   1.25813980E+01   2.32004868E+02   2.32004868E+02   1.25813980E+01   1.14328270E+01   2.20572037E+02  -8.53396988E+01   2.19993256E+02   1.14420366E+01   2.31995667E+02   1.25813980E+01   1.42485321E+00
             2407                4   2.20000000E+02   2.32004578E+02   2.32004578E+02   1.26334782E+01   1.13810291E+01   2.32004578E+02   2.32004578E+02   1.26334782E+01   1.13810291E+01   2.20623550E+02  -8.53396988E+01   2.19991974E+02   1.26426601E+01   2.31995407E+02   1.13810291E+01   1.41874957E+00
             2408                1   2.20000000E+02   2.32248611E+02   2.32248611E+02  -3.78750515E+00   3.28965645E+01   2.32248611E+02   2.32248611E+02   3.28965645E+01  -3.78750515E+00   2.36036118E+02  -8.71192245E+01   2.12955414E+02  -3.55703378E+00   2.32018143E+02   3.28965645E+01   7.37194872E+00
             2408                2   2.20000000E+02   2.32068802E+02   2.32068802E+02  -4.73467731E+00   3.40235558E+01   2.32068802E+02   2.32068802E+02   3.40235558E+01  -4.73467731E+00   2.36803482E+02  -8.71192245E+01   2.12113922E+02  -4.67566061E+00   2.32009781E+02   3.40235558E+01   3.73794794E+00
             2408                3   2.20000000E+02   2.32018829E+02   2.32018829E+02  -4.98793316E+00   3.43267708E+01   2.32018829E+02   2.32018829E+02   3.43267708E+01  -4.98793316E+00   2.37006760E+02  -8.71192245E+01   2.11879410E+02  -4.56565619E+00   2.31596558E+02   3.43267708E+01   9.99518108E+00
             2408                4   2.20000000E+02   2.31842148E+02   2.31842148E+02  -5.85271835E+00   3.53682442E+01   2.31842148E+02   2.31842148E+02   3.53682442E+01  -5.85271835E+00   2.37694855E+02  -8.71192245E+01   2.11047653E+02  -5.67929935E+00   2.31668732E+02   3.53682442E+01   6.41787672E+00
             2409                1   2.20000000E+02   2.22107819E+02   2.22107819E+02   1.02060757E+01  -5.18241549E+00   2.22107819E+02   2.22107819E+02   1.02060757E+01  -5.18241549E+00   2.27290222E+02  -7.57104874E+01   2.18784210E+02   1.02073269E+01   2.22106567E+02  -5.18241549E+00  -5.13828635E-01
             2409                2   2.20000000E+02   2.22116867E+02   2.22116867E+02   1.00712986E+01  -5.05668306E+00   2.22116867E+02   2.22116867E+02   1.00712986E+01  -5.05668306E+00   2.27173553E+02  -7.57104950E+01   2.18825195E+02   1.00800323E+01   2.22108139E+02  -5.05668306E+00   1.36084938E+00
             2409                3   2.20000000E+02   2.22039612E+02   2.22039612E+02   1.11584797E+01  -6.06660700E+00   2.22039612E+02   2.22039612E+02   1.11584797E+01  -6.06660700E+00   2.28106216E+02  -7.57104950E+01   2.18475128E+02   1.11587830E+01   2.22039307E+02  -6.06660700E+00  -2.52885520E-01
             2409                4   2.20000000E+02   2.22050430E+02   2.22050430E+02   1.10139465E+01  -5.93290472E+00   2.22050430E+02   2.22050430E+02   1.10139465E+01  -5.93290472E+00   2.27983337E+02  -7.57104874E+01   2.18524231E+02   1.10274372E+01   2.22036942E+02  -5.93290472E+00   1.68712866E+00
             2410                1   2.20000000E+02   2.39739563E+02   2.39739563E+02   2.17695961E+01   1.77641983E+01   2.39739563E+02   2.39739563E+02   2.17695961E+01   1.77641983E+01   2.21975357E+02  -9.30911179E+01   2.19917938E+02   2.17994595E+01   2.39709686E+02   1.77641983E+01   2.55125070E+00
             2410                2   2.20000000E+02   2.39744858E+02   2.39744858E+02   2.14498119E+01   1.80786610E+01   2.39744858E+02   2.39744858E+02   2.14498119E+01   1.80786610E+01   2.21666199E+02  -9.30911179E+01   2.19941879E+02   2.15024223E+01   2.39692261E+02   1.80786610E+01   3.38835979E+00
             2410                3   2.20000000E+02   2.39731812E+02   2.39731812E+02   2.21608505E+01   1.73806763E+01   2.39731812E+02   2.39731812E+02   2.21608505E+01   1.73806763E+01   2.22351135E+02  -9.30911179E+01   2.19883118E+02   2.22051258E+01   2.39687546E+02   1.73806763E+01   3.10329604E+00
             2410                4   2.20000000E+02   2.39738358E+02   2.39738358E+02   2.18347301E+01   1.77002525E+01   2.39738358E+02   2.39738358E+02   2.18347301E+01   1.77002525E+01   2.22038101E+02  -9.30911179E+01   2.19912567E+02   2.19061337E+01   2.39666962E+02   1.77002525E+01   3.94370103E+00
             2411                1   2.20000000E+02   2.22398575E+02   2.22398575E+02  -3.80816579E-01   5.28751612E+00   2.22398575E+02   2.22398575E+02   5.28751612E+00  -3.80816579E-01   2.22779388E+02  -7.57684250E+01   2.19835602E+02  -3.45375724E-02   2.22052292E+02   5.28751612E+00   8.77641487E+00
             2411                2   2.20000000E+02   2.22383301E+02   2.22383301E+02  -9.13977146E-01   5.83593464E+00   2.22383301E+02   2.22383301E+02   5.83593464E+00  -9.13977146E-01   2.23297287E+02  -7.57684250E+01   2.19766846E+02  -6.15094423E-01   2.22084427E+02   5.83593464E+00   8.16393185E+00
             2411                3   2.20000000E+02   2.22390686E+02   2.22390686E+02  -6.67923510E-01   5.58250380E+00   2.22390686E+02   2.22390686E+02   5.58250380E+00  -6.67923510E-01   2.23058609E+02  -7.57684250E+01   2.19800095E+02  -2.33461022E-01   2.21956223E+02   5.58250380E+00   9.83474350E+00
             2411                4   2.20000000E+02   2.22374176E+02   2.22374176E+02  -1.19510710E+00   6.12620783E+00   2.22374176E+02   2.22374176E+02   6.12620783E+00  -1.19510710E+00   2.23569275E+02  -7.57684250E+01   2.19725662E+02  -8.14606071E-01   2.21993668E+02   6.12620783E+00   9.21540260E+00
             2412                1   2.20000000E+02   2.28479675E+02   2.28479675E+02   1.08134346E+01   6.21789265E+00   2.28479675E+02   2.28479675E+02   1.08134346E+01   6.21789265E+00   2.22261780E+02  -8.18369980E+01   2.19891968E+02   1.11265917E+01   2.28166519E+02   6.21789265E+00   8.25012970E+00
             2412                2   2.20000000E+02   2.28494171E+02   2.28494171E+02   9.95385742E+00   7.06297255E+00   2.28494171E+02   2.28494171E+02   9.95385742E+00   7.06297255E+00   2.21431198E+02  -8.18369980E+01   2.19957260E+02   1.03656292E+01   2.28082397E+02   7.06297255E+00   9.47732162E+00
             2412                3   2.20000000E+02   2.28470245E+02   2.28470245E+02   1.12316151E+01   5.80912971E+00   2.28470245E+02   2.28470245E+02   1.12316151E+01   5.80912971E+00   2.22661118E+02  -8.18369980E+01   2.19849564E+02   1.16907225E+01   2.28011139E+02   5.80912971E+00   9.97619724E+00
             2412                4   2.20000000E+02   2.28488251E+02   2.28488251E+02   1.03537064E+01   6.66905975E+00   2.28488251E+02   2.28488251E+02   1.03537064E+01   6.66905975E+00   2.21819183E+02  -8.18370056E+01   2.19930557E+02   1.09290857E+01   2.27912857E+02   6.66905975E+00   1.11884117E+01
             2413                1   2.20000000E+02   2.18903809E+02   2.18903809E+02  -8.79903913E-01  -1.31183207E+00   2.18903809E+02   2.18903809E+02  -8.79903913E-01  -1.31183207E+00   2.20215652E+02  -7.22373581E+01   2.19999039E+02  -5.83846211E-01   2.18607758E+02  -1.31183207E+00   8.06106853E+00
             2413                2   2.20000000E+02   2.18896683E+02   2.18896683E+02  -2.36271977E+00   1.78102702E-01   2.18896683E+02   2.18896683E+02   1.78102702E-01  -2.36271977E+00   2.21259399E+02  -7.22373581E+01   2.19966995E+02  -2.09905362E+00   2.18633026E+02   1.78102702E-01   7.63332748E+00
             2413                3   2.20000000E+02   2.18904022E+02   2.18904022E+02  -1.13409352E+00  -1.05784237E+00   2.18904022E+02   2.18904022E+02  -1.05784237E+00  -1.13409352E+00   2.20038116E+02  -7.22373581E+01   2.19999969E+02  -5.95005810E-01   2.18364929E+02  -1.05784237E+00   1.08779707E+01
             2413                4   2.20000000E+02   2.18893677E+02   2.18893677E+02  -2.59900212E+00   4.17388290E-01   2.18893677E+02   2.18893677E+02   4.17388290E-01  -2.59900212E+00   2.21492676E+02  -7.22373581E+01   2.19953461E+02  -2.10964322E+00   2.18404327E+02   4.17388290E-01   1.03994493E+01
             2414                1   2.20000000E+02   2.23751892E+02   2.23751892E+02   3.01075363E+00   4.50061321E+00   2.23751892E+02   2.23751892E+02   4.50061321E+00   3.01075363E+00   2.20741150E+02  -7.70877533E+01   2.19988647E+02   3.02875185E+00   2.23733902E+02   4.50061321E+00   1.99290800E+00
             2414                2   2.20000000E+02   2.23751846E+02   2.23751846E+02   4.51005697E+00   3.00138211E+00   2.23751846E+02   2.23751846E+02   4.51005697E+00   3.00138211E+00   2.20750458E+02  -7.70877609E+01   2.19988358E+02   4.52833176E+00   2.23733566E+02   3.00138211E+00   2.00177336E+00
             2414                3   2.20000000E+02   2.23751877E+02   2.23751877E+02   3.00493622E+00   4.50647068E+00   2.23751877E+02   2.23751877E+02   4.50647068E+00   3.00493622E+00   2.20746933E+02  -7.70877609E+01   2.19988480E+02   3.00763297E+00   2.23749176E+02   4.50647068E+00  -7.71043479E-01
             2414                4   2.20000000E+02   2.23751892E+02   2.23751892E+02   4.50374508E+00   3.00764394E+00   2.23751892E+02   2.23751892E+02   4.50374508E+00   3.00764394E+00   2.20744247E+02  -7.70877609E+01   2.19988556E+02   4.50677824E+00   2.23748856E+02   3.00764394E+00  -8.15055549E-01
             2415                1   2.20000000E+02   2.20924591E+02   2.20924591E+02  -1.13858908E-01   1.97794569E+00   2.20924591E+02   2.20924591E+02   1.97794569E+00  -1.13858908E-01   2.21038452E+02  -7.42628937E+01   2.19977615E+02   6.03806786E-02   2.20750351E+02   1.97794569E+00   6.20346069E+00
             2415                2   2.20000000E+02   2.20923706E+02   2.20923706E+02  -2.01628983E-01   2.06658936E+00   2.20923706E+02   2.20923706E+02   2.06658936E+00  -2.01628983E-01   2.21125336E+02  -7.42628860E+01   2.19973679E+02   7.41791911E-03   2.20714661E+02   2.06658936E+00   6.79568911E+00
             2415                3   2.20000000E+02   2.20927124E+02   2.20927124E+02   1.98707327E-01   1.66283953E+00   2.20927124E+02   2.20927124E+02   1.66283953E+00   1.98707327E-01   2.20728409E+02  -7.42628860E+01   2.19989029E+02   3.83565336E-01   2.20742264E+02   1.66283953E+00   6.38499069E+00
             2415                4   2.20000000E+02   2.20926483E+02   2.20926483E+02   1.09703116E-01   1.75247395E+00   2.20926483E+02   2.20926483E+02   1.75247395E+00   1.09703116E-01   2.20816788E+02  -7.42628860E+01   2.19986206E+02   3.30526203E-01   2.20705673E+02   1.75247395E+00   6.97935915E+00
             2416                1   2.20000000E+02   2.40008499E+02   2.40008499E+02   2.01133823E+01   1.99037933E+01   2.40008499E+02   2.40008499E+02   2.01133823E+01   1.99037933E+01   2.20104706E+02  -9.33418961E+01   2.19999756E+02   2.02212944E+01   2.39900589E+02   1.99037933E+01   4.87017632E+00
             2416                2   2.20000000E+02   2.40005173E+02   2.40005173E+02   2.08715286E+01   1.91489601E+01   2.40005173E+02   2.40005173E+02   2.08715286E+01   1.91489601E+01   2.20856216E+02  -9.33418884E+01   2.19984833E+02   2.09663048E+01   2.39910416E+02   1.91489601E+01   4.55617809E+00
             2416                3   2.20000000E+02   2.40008560E+02   2.40008560E+02   1.99777622E+01   2.00393696E+01   2.40008560E+02   2.40008560E+02   2.00393696E+01   1.99777622E+01   2.20030807E+02  -9.33418961E+01   2.19999969E+02   2.00341816E+01   2.39952133E+02   2.00393696E+01   3.52309871E+00
             2416                4   2.20000000E+02   2.40006195E+02   2.40006195E+02   2.07306557E+01   1.92888355E+01   2.40006195E+02   2.40006195E+02   2.07306557E+01   1.92888355E+01   2.20717361E+02  -9.33418961E+01   2.19989349E+02   2.07772751E+01   2.39959564E+02   1.92888355E+01   3.19720674E+00
             2417                1   2.20000000E+02   2.36824249E+02   2.36824249E+02   1.97589684E+01   1.40025196E+01   2.36824249E+02   2.36824249E+02   1.97589684E+01   1.40025196E+01   2.22821732E+02  -9.01952515E+01   2.19830460E+02   1.98529949E+01   2.36730240E+02   1.40025196E+01  -4.51661730E+00
             2417                2   2.20000000E+02   2.36835007E+02   2.36835007E+02   1.93085499E+01   1.44421988E+01   2.36835007E+02   2.36835007E+02   1.93085499E+01   1.44421988E+01   2.22392807E+02  -9.01952515E+01   2.19878830E+02   1.93860359E+01   2.36757507E+02   1.44421988E+01  -4.10487127E+00
             2417                3   2.20000000E+02   2.36816879E+02   2.36816879E+02   2.00313244E+01   1.37375240E+01   2.36816879E+02   2.36816879E+02   2.00313244E+01   1.37375240E+01   2.23079361E+02  -9.01952438E+01   2.19797318E+02   2.00904980E+01   2.36757721E+02   1.37375240E+01  -3.58095360E+00
             2417                4   2.20000000E+02   2.36828674E+02   2.36828674E+02   1.95829544E+01   1.41741285E+01   2.36828674E+02   2.36828674E+02   1.95829544E+01   1.41741285E+01   2.22654541E+02  -9.01952515E+01   2.19850327E+02   1.96285553E+01   2.36783066E+02   1.41741285E+01  -3.14717555E+00
             2418                1   2.20000000E+02   2.21487350E+02   2.21487350E+02  -9.35753524E-01   3.99327254E+00   2.21487350E+02   2.21487350E+02   3.99327254E+00  -9.35753524E-01   2.22423096E+02  -7.48482895E+01   2.19875717E+02  -4.34676409E-01   2.20986267E+02   3.99327254E+00   1.05451355E+01
             2418                2   2.20000000E+02   2.21470840E+02   2.21470840E+02  -1.57815182E+00   4.65218258E+00   2.21470840E+02   2.21470840E+02   4.65218258E+00  -1.57815182E+00   2.23048996E+02  -7.48482895E+01   2.19801376E+02  -1.13025403E+00   2.21022934E+02   4.65218258E+00   9.98517132E+00
             2418                3   2.20000000E+02   2.21480637E+02   2.21480637E+02  -1.21537519E+00   4.27960634E+00   2.21480637E+02   2.21480637E+02   4.27960634E+00  -1.21537519E+00   2.22696014E+02  -7.48482895E+01   2.19845505E+02  -5.89163184E-01   2.20854416E+02   4.27960634E+00   1.17925453E+01
             2418                4   2.20000000E+02   2.21462479E+02   2.21462479E+02  -1.85656190E+00   4.93895102E+00   2.21462479E+02   2.21462479E+02   4.93895102E+00  -1.85656190E+00   2.23319031E+02  -7.48482895E+01   2.19763687E+02  -1.29165149E+00   2.20897568E+02   4.93895102E+00   1.12176208E+01
             2419                1   2.20000000E+02   2.21075867E+02   2.21075867E+02   5.95733881E+00  -3.50054598E+00   2.21075867E+02   2.21075867E+02   5.95733881E+00  -3.50054598E+00   2.24576416E+02  -7.45108871E+01   2.19541885E+02   6.47398090E+00   2.20559219E+02  -3.50054598E+00   1.05296240E+01
             2419                2   2.20000000E+02   2.21050461E+02   2.21050461E+02   6.52758789E+00  -4.04539251E+00   2.21050461E+02   2.21050461E+02   6.52758789E+00  -4.04539251E+00   2.25095856E+02  -7.45108871E+01   2.19427277E+02   6.93371201E+00   2.20644333E+02  -4.04539251E+00   9.32516861E+00
             2419                3   2.20000000E+02   2.21098541E+02   2.21098541E+02   5.38597536E+00  -2.95184946E+00   2.21098541E+02   2.21098541E+02   5.38597536E+00  -2.95184946E+00   2.24050385E+02  -7.45108871E+01   2.19644089E+02   5.79997253E+00   2.20684540E+02  -2.95184946E+00   9.44102859E+00
             2419                4   2.20000000E+02   2.21076080E+02   2.21076080E+02   5.95203590E+00  -3.49546599E+00   2.21076080E+02   2.21076080E+02   5.95203590E+00  -3.49546599E+00   2.24571548E+02  -7.45108871E+01   2.19542892E+02   6.26601839E+00   2.20762100E+02  -3.49546599E+00   8.21262932E+00
             2420                1   2.19222504E+02   1.91847565E+02   1.91847565E+02  -3.76951637E+01  -1.53419228E+01   1.91847565E+02   1.91847565E+02  -1.53419228E+01  -3.76951637E+01   2.29542740E+02  -4.62701607E+01   2.16636292E+02  -3.76894188E+01   1.91841827E+02  -1.53419228E+01   1.14798009E+00
             2420                2   2.19460785E+02   1.91662643E+02   1.91662643E+02  -4.05723190E+01  -1.22798386E+01   1.91662643E+02   1.91662643E+02  -1.22798386E+01  -4.05723190E+01   2.32234955E+02  -4.62701607E+01   2.15300446E+02  -4.04412537E+01   1.91531570E+02  -1.22798386E+01  -5.51551723E+00
             2420                3   2.19558838E+02   1.91702316E+02   1.91702316E+02  -4.07920799E+01  -1.20997553E+01   1.91702316E+02   1.91702316E+02  -1.20997553E+01  -4.07920799E+01   2.32494385E+02  -4.62701569E+01   2.15280334E+02  -4.04951172E+01   1.91405350E+02  -1.20997553E+01   8.30383778E+00
             2420                4   2.19629440E+02   1.91383789E+02   1.91383789E+02  -4.31850319E+01  -9.38828754E+00   1.91383789E+02   1.91383789E+02  -9.38828754E+00  -4.31850319E+01   2.34568817E+02  -4.62701569E+01   2.13661469E+02  -4.31751480E+01   1.91373917E+02  -9.38828754E+00   1.52196169E+00
             2421                1   2.19622910E+02   1.99550629E+02   1.99550629E+02  -3.48225670E+01  -1.51760709E+00   1.99550629E+02   1.99550629E+02  -1.51760709E+00  -3.48225670E+01   2.34373199E+02  -5.44034843E+01   2.13830612E+02  -3.44092331E+01   1.99137299E+02  -1.51760709E+00   9.83372498E+00
             2421                2   2.19263474E+02   1.99764496E+02   1.99764496E+02  -3.16233025E+01  -4.93072844E+00   1.99764496E+02   1.99764496E+02  -4.93072844E+00  -3.16233025E+01   2.31387802E+02  -5.44034882E+01   2.15562653E+02  -3.16093884E+01   1.99750580E+02  -4.93072844E+00   1.79417729E+00
             2421                3   2.19651947E+02   1.99136246E+02   1.99136246E+02  -3.72410469E+01   1.31525826E+00   1.99136246E+02   1.99136246E+02   1.31525826E+00  -3.72410469E+01   2.36377289E+02  -5.44034882E+01   2.11836990E+02  -3.72281532E+01   1.99123352E+02   1.31525826E+00   1.74588239E+00
             2421                4   2.19480865E+02   1.99492126E+02   1.99492126E+02  -3.45496483E+01  -1.73202777E+00   1.99492126E+02   1.99492126E+02  -1.73202777E+00  -3.45496483E+01   2.34041763E+02  -5.44034843E+01   2.13856293E+02  -3.43775749E+01   1.99320053E+02  -1.73202777E+00  -6.34361219E+00
             2422                1   2.19435196E+02   1.83385513E+02   1.83385513E+02  -4.69294586E+01  -2.32490845E+01   1.83385513E+02   1.83385513E+02  -2.32490845E+01  -4.69294586E+01   2.30314972E+02  -3.77356567E+01   2.16532532E+02  -4.67030869E+01   1.83159134E+02  -2.32490845E+01   7.21717405E+00
             2422                2   2.19279343E+02   1.83566849E+02   1.83566849E+02  -4.39979172E+01  -2.63619728E+01   1.83566849E+02   1.83566849E+02  -2.63619728E+01  -4.39979172E+01   2.27564774E+02  -3.77356567E+01   2.17675156E+02  -4.39940224E+01   1.83562958E+02  -2.63619728E+01   9.41722274E-01
             2422                3   2.19559021E+02   1.83165405E+02   1.83165405E+02  -4.93446426E+01  -2.06137810E+01   1.83165405E+02   1.83165405E+02  -2.06137810E+01  -4.93446426E+01   2.32510040E+02  -3.77356567E+01   2.15268860E+02  -4.93422356E+01   1.83162994E+02  -2.06137810E+01   7.47642279E-01
             2422                4   2.19427078E+02   1.83400162E+02   1.83400162E+02  -4.67500191E+01  -2.34431877E+01   1.83400162E+02   1.83400162E+02  -2.34431877E+01  -4.67500191E+01   2.30150177E+02  -3.77356529E+01   2.16616043E+02  -4.66148453E+01   1.83264999E+02  -2.34431877E+01  -5.57586002E+00
             2423                1   2.20000000E+02   2.09128906E+02   2.09128906E+02  -1.20410624E+01  -9.68214798E+00   2.09128906E+02   2.09128906E+02  -9.68214798E+00  -1.20410624E+01   2.21169968E+02  -6.24685669E+01   2.19971542E+02  -1.19223576E+01   2.09010208E+02  -9.68214798E+00   5.12236547E+00
             2423                2   2.19999985E+02   2.09132812E+02   2.09132812E+02  -1.01356125E+01  -1.15915108E+01   2.09132812E+02   2.09132812E+02  -1.01356125E+01  -1.15915108E+01   2.20724335E+02  -6.24685669E+01   2.19989151E+02  -9.99918747E+00   2.08996399E+02  -1.15915108E+01   5.46755552E+00
             2423                3   2.20000000E+02   2.09130432E+02   2.09130432E+02  -1.18892546E+01  -9.83548737E+00   2.09130432E+02   2.09130432E+02  -9.83548737E+00  -1.18892546E+01   2.21019684E+02  -6.24685669E+01   2.19978424E+02  -1.18786860E+01   2.09119873E+02  -9.83548737E+00   1.52785146E+00
             2423                4   2.20000000E+02   2.09131607E+02   2.09131607E+02  -9.96903801E+00  -1.17568560E+01   2.09131607E+02   2.09131607E+02  -9.96903801E+00  -1.17568560E+01   2.20888458E+02  -6.24685707E+01   2.19983643E+02  -9.95450020E+00   2.09117065E+02  -1.17568560E+01   1.78479862E+00
             2424                1   2.20000000E+02   2.22940918E+02   2.22940918E+02   2.41181469E+00   3.47388434E+00   2.22940918E+02   2.22940918E+02   3.47388434E+00   2.41181469E+00   2.20529114E+02  -7.62755356E+01   2.19994232E+02   3.30304646E+00   2.22049698E+02   3.47388434E+00   1.39909525E+01
             2424                2   2.20000000E+02   2.22941086E+02   2.22941086E+02   3.43902445E+00   2.44652057E+00   2.22941086E+02   2.22941086E+02   3.43902445E+00   2.44652057E+00   2.20494568E+02  -7.62755432E+01   2.19994965E+02   4.22588968E+00   2.22154221E+02   2.44652057E+00   1.31186771E+01
             2424                3   2.20000000E+02   2.22940063E+02   2.22940063E+02   2.25651646E+00   3.63004708E+00   2.22940063E+02   2.22940063E+02   3.63004708E+00   2.25651646E+00   2.20683548E+02  -7.62755432E+01   2.19990341E+02   2.91144252E+00   2.22285141E+02   3.63004708E+00   1.20042267E+01
             2424                4   2.20000000E+02   2.22941818E+02   2.22941818E+02   3.23587346E+00   2.64893818E+00   2.22941818E+02   2.22941818E+02   3.23587346E+00   2.64893818E+00   2.20292877E+02  -7.62755432E+01   2.19998230E+02   3.80197573E+00   2.22375717E+02   2.64893818E+00   1.11379814E+01
             2425                1   2.20000000E+02   2.28183929E+02   2.28183929E+02   8.86147404E+00   7.51261759E+00   2.28183929E+02   2.28183929E+02   8.86147404E+00   7.51261759E+00   2.20671326E+02  -8.15193405E+01   2.19990677E+02   8.87727070E+00   2.28168137E+02   7.51261759E+00   1.86142755E+00
             2425                2   2.20000000E+02   2.28183777E+02   2.28183777E+02   8.88825703E+00   7.48599577E+00   2.28183777E+02   2.28183777E+02   8.88825703E+00   7.48599577E+00   2.20697784E+02  -8.15193405E+01   2.19989960E+02   8.89027691E+00   2.28181763E+02   7.48599577E+00  -6.65113986E-01
             2425                3   2.20000000E+02   2.28183899E+02   2.28183899E+02   7.50751638E+00   8.86660290E+00   2.28183899E+02   2.28183899E+02   8.86660290E+00   7.50751638E+00   2.20676392E+02  -8.15193405E+01   2.19990540E+02   7.52200365E+00   2.28169418E+02   8.86660290E+00   1.78793514E+00
             2425                4   2.20000000E+02   2.28184067E+02   2.28184067E+02   7.53261042E+00   8.84135818E+00   2.28184067E+02   2.28184067E+02   8.84135818E+00   7.53261042E+00   2.20651459E+02  -8.15193405E+01   2.19991241E+02   7.53480387E+00   2.28181870E+02   8.84135818E+00  -6.95930719E-01
             2426                1   2.20000000E+02   2.18541702E+02   2.18541702E+02   2.72058576E-01  -3.14876294E+00   2.18541702E+02   2.18541702E+02   2.72058576E-01  -3.14876294E+00   2.21690475E+02  -7.18883362E+01   2.19940155E+02   4.40736175E-01   2.18373032E+02  -3.14876294E+00   6.06534910E+00
             2426                2   2.20000000E+02   2.18545227E+02   2.18545227E+02   2.58276779E-02  -2.90605998E+00   2.18545227E+02   2.18545227E+02   2.58276779E-02  -2.90605998E+00   2.21451294E+02  -7.18883286E+01   2.19956039E+02   2.07457811E-01   2.18363602E+02  -2.90605998E+00   6.29736996E+00
             2426                3   2.20000000E+02   2.18539963E+02   2.18539963E+02   3.80852431E-01  -3.25582695E+00   2.18539963E+02   2.18539963E+02   3.80852431E-01  -3.25582695E+00   2.21795792E+02  -7.18883286E+01   2.19932358E+02   5.75182855E-01   2.18345642E+02  -3.25582695E+00   6.50819302E+00
             2426                4   2.20000000E+02   2.18543747E+02   2.18543747E+02   1.33218810E-01  -3.01198626E+00   2.18543747E+02   2.18543747E+02   1.33218810E-01  -3.01198626E+00   2.21555740E+02  -7.18883286E+01   2.19949417E+02   3.41377228E-01   2.18335602E+02  -3.01198626E+00   6.73936224E+00
             2427                1   2.20000000E+02   2.43377075E+02   2.43377075E+02   2.33578548E+01   2.33962784E+01   2.43377075E+02   2.43377075E+02   2.33962784E+01   2.33578548E+01   2.20019211E+02  -9.67103958E+01   2.20000000E+02   2.34011955E+01   2.43333725E+02   2.33962784E+01   3.08783627E+00
             2427                2   2.20000000E+02   2.43375381E+02   2.43375381E+02   2.39862251E+01   2.27695827E+01   2.43375381E+02   2.43375381E+02   2.39862251E+01   2.27695827E+01   2.20605789E+02  -9.67103958E+01   2.19992416E+02   2.40225239E+01   2.43339081E+02   2.27695827E+01   2.82166505E+00
             2427                3   2.20000000E+02   2.43376984E+02   2.43376984E+02   2.32413406E+01   2.35128784E+01   2.43376984E+02   2.43376984E+02   2.35128784E+01   2.32413406E+01   2.20135635E+02  -9.67103958E+01   2.19999619E+02   2.32589817E+01   2.43359329E+02   2.35128784E+01   1.97092104E+00
             2427                4   2.20000000E+02   2.43375992E+02   2.43375992E+02   2.38659821E+01   2.28892326E+01   2.43375992E+02   2.43375992E+02   2.38659821E+01   2.28892326E+01   2.20486755E+02  -9.67103958E+01   2.19995132E+02   2.38790951E+01   2.43362869E+02   2.28892326E+01   1.69662666E+00
             2428                1   2.20000000E+02   2.11452896E+02   2.11452896E+02  -9.54043674E+00  -7.54012632E+00   2.11452896E+02   2.11452896E+02  -7.54012632E+00  -9.54043674E+00   2.20993332E+02  -6.47907791E+01   2.19979538E+02  -9.03972530E+00   2.10952179E+02  -7.54012632E+00   1.05073605E+01
             2428                2   2.20000000E+02   2.11425995E+02   2.11425995E+02  -1.11573153E+01  -5.89634418E+00   2.11425995E+02   2.11425995E+02  -5.89634418E+00  -1.11573153E+01   2.22583313E+02  -6.47907791E+01   2.19858414E+02  -1.07488432E+01   2.11017517E+02  -5.89634418E+00   9.52642918E+00
             2428                3   2.20000000E+02   2.11446762E+02   2.11446762E+02  -1.00700817E+01  -7.00435400E+00   2.11446762E+02   2.11446762E+02  -7.00435400E+00  -1.00700817E+01   2.21516846E+02  -6.47907791E+01   2.19951920E+02  -9.22169590E+00   2.10598373E+02  -7.00435400E+00   1.36825514E+01
             2428                4   2.20000000E+02   2.11413025E+02   2.11413025E+02  -1.16460638E+01  -5.39464092E+00   2.11413025E+02   2.11413025E+02  -5.39464092E+00  -1.16460638E+01   2.23059097E+02  -6.47907791E+01   2.19800034E+02  -1.09270906E+01   2.10694061E+02  -5.39464092E+00   1.26434116E+01
             2429                1   2.20000000E+02   2.44992371E+02   2.44992371E+02   2.59446049E+01   2.40523491E+01   2.44992371E+02   2.44992371E+02   2.59446049E+01   2.40523491E+01   2.20940033E+02  -9.83297729E+01   2.19981689E+02   2.59485378E+01   2.44988434E+02   2.40523491E+01   9.28341925E-01
             2429                2   2.20000000E+02   2.44993866E+02   2.44993866E+02   2.57516136E+01   2.42438564E+01   2.44993866E+02   2.44993866E+02   2.57516136E+01   2.42438564E+01   2.20750015E+02  -9.83297806E+01   2.19988358E+02   2.57616310E+01   2.44983841E+02   2.42438564E+01   1.48228240E+00
             2429                3   2.20000000E+02   2.44989929E+02   2.44989929E+02   2.61973934E+01   2.38020153E+01   2.44989929E+02   2.44989929E+02   2.61973934E+01   2.38020153E+01   2.21187912E+02  -9.83297729E+01   2.19970657E+02   2.62047310E+01   2.44982574E+02   2.38020153E+01   1.26743114E+00
             2429                4   2.20000000E+02   2.44991867E+02   2.44991867E+02   2.60019722E+01   2.39954834E+01   2.44991867E+02   2.44991867E+02   2.60019722E+01   2.39954834E+01   2.20996384E+02  -9.83297729E+01   2.19979431E+02   2.60171471E+01   2.44976700E+02   2.39954834E+01   1.82268798E+00
             2430                1   2.20000000E+02   2.35950058E+02   2.35950058E+02   1.84921856E+01   1.34931479E+01   2.35950058E+02   2.35950058E+02   1.84921856E+01   1.34931479E+01   2.22456909E+02  -8.93117981E+01   2.19872147E+02   1.86574249E+01   2.35784821E+02   1.34931479E+01  -5.99209023E+00
             2430                2   2.20000000E+02   2.35957428E+02   2.35957428E+02   1.81404133E+01   1.38375559E+01   2.35957428E+02   2.35957428E+02   1.81404133E+01   1.38375559E+01   2.22119873E+02  -8.93117981E+01   2.19905304E+02   1.82681313E+01   2.35829712E+02   1.38375559E+01  -5.27274704E+00
             2430                3   2.20000000E+02   2.35939758E+02   2.35939758E+02   1.89154301E+01   1.30801935E+01   2.35939758E+02   2.35939758E+02   1.89154301E+01   1.30801935E+01   2.22859573E+02  -8.93117981E+01   2.19825775E+02   1.90434952E+01   2.35811707E+02   1.30801935E+01  -5.27020645E+00
             2430                4   2.20000000E+02   2.35948959E+02   2.35948959E+02   1.85411530E+01   1.34452877E+01   2.35948959E+02   2.35948959E+02   1.85411530E+01   1.34452877E+01   2.22503677E+02  -8.93117981E+01   2.19867172E+02   1.86375942E+01   2.35852524E+02   1.34452877E+01  -4.57784224E+00
             2431                1   2.20000000E+02   2.20699722E+02   2.20699722E+02   1.13083601E-01   1.29107594E+00   2.20699722E+02   2.20699722E+02   1.29107594E+00   1.13083601E-01   2.20586639E+02  -7.40346298E+01   2.19992905E+02   5.94926476E-01   2.20217880E+02   1.29107594E+00   1.02983294E+01
             2431                2   2.20000000E+02   2.20694992E+02   2.20694992E+02  -4.72473085E-01   1.88135326E+00   2.20694992E+02   2.20694992E+02   1.88135326E+00  -4.72473085E-01   2.21167465E+02  -7.40346222E+01   2.19971664E+02  -4.88266954E-03   2.20227402E+02   1.88135326E+00   1.01585979E+01
             2431                3   2.20000000E+02   2.20699127E+02   2.20699127E+02   1.37310009E-02   1.39101267E+00   2.20699127E+02   2.20699127E+02   1.39101267E+00   1.37310009E-02   2.20685394E+02  -7.40346222E+01   2.19990295E+02   6.06044590E-01   2.20106812E+02   1.39101267E+00   1.14177494E+01
             2431                4   2.20000000E+02   2.20694031E+02   2.20694031E+02  -5.59625983E-01   1.96948075E+00   2.20694031E+02   2.20694031E+02   1.96948075E+00  -5.59625983E-01   2.21253647E+02  -7.40346298E+01   2.19967285E+02   1.61725245E-02   2.20118225E+02   1.96948075E+00   1.12723722E+01
             2432                1   2.20000000E+02   2.30922485E+02   2.30922485E+02   1.04387665E+01   1.14094086E+01   2.30922485E+02   2.30922485E+02   1.14094086E+01   1.04387665E+01   2.20483719E+02  -8.42568893E+01   2.19995193E+02   1.06610899E+01   2.30700165E+02   1.14094086E+01   6.99776077E+00
             2432                2   2.20000000E+02   2.30921509E+02   2.30921509E+02   1.15947742E+01   1.02543755E+01   2.30921509E+02   2.30921509E+02   1.15947742E+01   1.02543755E+01   2.20667130E+02  -8.42568893E+01   2.19990799E+02   1.18181610E+01   2.30698120E+02   1.02543755E+01   6.99605703E+00
             2432                3   2.20000000E+02   2.30922516E+02   2.30922516E+02   1.04477386E+01   1.14004040E+01   2.30922516E+02   2.30922516E+02   1.14004040E+01   1.04477386E+01   2.20474777E+02  -8.42568893E+01   2.19995346E+02   1.05564232E+01   2.30813828E+02   1.14004040E+01   4.89399767E+00
             2432                4   2.20000000E+02   2.30921448E+02   2.30921448E+02   1.16040440E+01   1.02451620E+01   2.30921448E+02   2.30921448E+02   1.16040440E+01   1.02451620E+01   2.20676285E+02  -8.42568893E+01   2.19990555E+02   1.17118683E+01   2.30813629E+02   1.02451620E+01   4.86169529E+00
             2433                1   2.20000000E+02   2.24201675E+02   2.24201675E+02   8.04689217E+00   5.48184454E-01   2.24201675E+02   2.24201675E+02   8.04689217E+00   5.48184454E-01   2.23653488E+02  -7.75989151E+01   2.19712189E+02   8.64850616E+00   2.23600052E+02   5.48184454E-01   1.13877745E+01
             2433                2   2.20000000E+02   2.24170502E+02   2.24170502E+02   8.88600063E+00  -2.59758264E-01   2.24170502E+02   2.24170502E+02   8.88600063E+00  -2.59758264E-01   2.24430267E+02  -7.75989151E+01   2.19571671E+02   9.32116318E+00   2.23735336E+02  -2.59758264E-01   9.66929150E+00
             2433                3   2.20000000E+02   2.24219711E+02   2.24219711E+02   7.46509123E+00   1.11194289E+00   2.24219711E+02   2.24219711E+02   7.46509123E+00   1.11194289E+00   2.23107773E+02  -7.75989151E+01   2.19793472E+02   7.87374496E+00   2.23811050E+02   1.11194289E+00   9.40273571E+00
             2433                4   2.20000000E+02   2.24194458E+02   2.24194458E+02   8.25588417E+00   3.46384466E-01   2.24194458E+02   2.24194458E+02   8.25588417E+00   3.46384466E-01   2.23848083E+02  -7.75989151E+01   2.19679733E+02   8.53182602E+00   2.23918518E+02   3.46384466E-01   7.71435165E+00
             2434                1   2.20000000E+02   2.16193207E+02   2.16193207E+02   1.55530170E-01  -7.56583071E+00   2.16193207E+02   2.16193207E+02   1.55530170E-01  -7.56583071E+00   2.23759033E+02  -6.95943069E+01   2.19694824E+02   3.39418918E-01   2.16009323E+02  -7.56583071E+00   6.30020332E+00
             2434                2   2.20000000E+02   2.16180725E+02   2.16180725E+02   5.02262652E-01  -7.90007973E+00   2.16180725E+02   2.16180725E+02   5.02262652E-01  -7.90007973E+00   2.24080795E+02  -6.95942993E+01   2.19638565E+02   7.05462098E-01   2.15977524E+02  -7.90007973E+00   6.61694193E+00
             2434                3   2.20000000E+02   2.16186600E+02   2.16186600E+02   3.42461467E-01  -7.74615574E+00   2.16186600E+02   2.16186600E+02   3.42461467E-01  -7.74615574E+00   2.23932770E+02  -6.95943069E+01   2.19665070E+02   4.87912744E-01   2.16041153E+02  -7.74615574E+00   5.60126305E+00
             2434                4   2.20000000E+02   2.16173447E+02   2.16173447E+02   6.92280412E-01  -8.08281136E+00   2.16173447E+02   2.16173447E+02   6.92280412E-01  -8.08281136E+00   2.24256256E+02  -6.95943069E+01   2.19605728E+02   8.54779065E-01   2.16010941E+02  -8.08281136E+00   5.91520500E+00
             2435                1   2.20000000E+02   2.32181320E+02   2.32181320E+02   1.15861683E+01   1.27813568E+01   2.32181320E+02   2.32181320E+02   1.27813568E+01   1.15861683E+01   2.20595154E+02  -8.55162735E+01   2.19992691E+02   1.15988550E+01   2.32168625E+02   1.27813568E+01   1.67329562E+00
             2435                2   2.20000000E+02   2.32181229E+02   2.32181229E+02   1.27971621E+01   1.15704432E+01   2.32181229E+02   2.32181229E+02   1.27971621E+01   1.15704432E+01   2.20610794E+02  -8.55162735E+01   2.19992310E+02   1.28092804E+01   2.32169113E+02   1.15704432E+01   1.63044298E+00
             2435                3   2.20000000E+02   2.32181183E+02   2.32181183E+02   1.15610399E+01   1.28066139E+01   2.32181183E+02   2.32181183E+02   1.28066139E+01   1.15610399E+01   2.20620132E+02  -8.55162735E+01   2.19992065E+02   1.15623360E+01   2.32179886E+02   1.28066139E+01  -5.33854544E-01
             2435                4   2.20000000E+02   2.32181381E+02   2.32181381E+02   1.27704573E+01   1.15969973E+01   2.32181381E+02   2.32181381E+02   1.27704573E+01   1.15969973E+01   2.20584381E+02  -8.55162735E+01   2.19992981E+02   1.27721615E+01   2.32179688E+02   1.15969973E+01  -6.10385776E-01
             2436                1   2.20000000E+02   2.35118439E+02   2.35118439E+02   1.47204523E+01   1.55186205E+01   2.35118439E+02   2.35118439E+02   1.55186205E+01   1.47204523E+01   2.20397995E+02  -8.84525070E+01   2.19996735E+02   1.48263645E+01   2.35012527E+02   1.55186205E+01   4.83040285E+00
             2436                2   2.20000000E+02   2.35117279E+02   2.35117279E+02   1.57659273E+01   1.44743118E+01   2.35117279E+02   2.35117279E+02   1.57659273E+01   1.44743118E+01   2.20642975E+02  -8.84525070E+01   2.19991486E+02   1.58696127E+01   2.35013596E+02   1.44743118E+01   4.76791477E+00
             2436                3   2.20000000E+02   2.35118362E+02   2.35118362E+02   1.46967897E+01   1.55423651E+01   2.35118362E+02   2.35118362E+02   1.55423651E+01   1.46967897E+01   2.20421570E+02  -8.84525070E+01   2.19996353E+02   1.47359924E+01   2.35079163E+02   1.55423651E+01   2.93930721E+00
             2436                4   2.20000000E+02   2.35117432E+02   2.35117432E+02   1.57408676E+01   1.44992228E+01   2.35117432E+02   2.35117432E+02   1.57408676E+01   1.44992228E+01   2.20618195E+02  -8.84525070E+01   2.19992126E+02   1.57779589E+01   2.35080338E+02   1.44992228E+01   2.85212588E+00
             2437                1   2.20000000E+02   2.35587051E+02   2.35587051E+02   1.51141672E+01   1.60630169E+01   2.35587051E+02   2.35587051E+02   1.60630169E+01   1.51141672E+01   2.20472885E+02  -8.89214096E+01   2.19995407E+02   1.51628704E+01   2.35538345E+02   1.60630169E+01   3.27655864E+00
             2437                2   2.20000000E+02   2.35586533E+02   2.35586533E+02   1.61743679E+01   1.50033484E+01   2.35586533E+02   2.35586533E+02   1.61743679E+01   1.50033484E+01   2.20583176E+02  -8.89214172E+01   2.19992981E+02   1.62210712E+01   2.35539825E+02   1.50033484E+01   3.20075393E+00
             2437                3   2.20000000E+02   2.35586914E+02   2.35586914E+02   1.50805511E+01   1.60967751E+01   2.35586914E+02   2.35586914E+02   1.60967751E+01   1.50805511E+01   2.20506363E+02  -8.89214172E+01   2.19994720E+02   1.50889044E+01   2.35578568E+02   1.60967751E+01   1.35659087E+00
             2437                4   2.20000000E+02   2.35586716E+02   2.35586716E+02   1.61388760E+01   1.50386667E+01   2.35586716E+02   2.35586716E+02   1.61388760E+01   1.50386667E+01   2.20548050E+02  -8.89214172E+01   2.19993805E+02   1.61460495E+01   2.35579529E+02   1.50386667E+01   1.25534451E+00
             2438                1   2.20000000E+02   2.34273499E+02   2.34273499E+02   1.66021118E+01   1.20165739E+01   2.34273499E+02   2.34273499E+02   1.66021118E+01   1.20165739E+01   2.22256927E+02  -8.76307297E+01   2.19892441E+02   1.68533401E+01   2.34022263E+02   1.20165739E+01  -7.39078045E+00
             2438                2   2.20000000E+02   2.34280426E+02   2.34280426E+02   1.62378349E+01   1.23739128E+01   2.34280426E+02   2.34280426E+02   1.62378349E+01   1.23739128E+01   2.21906509E+02  -8.76307297E+01   2.19923630E+02   1.64366760E+01   2.34081589E+02   1.23739128E+01  -6.58150721E+00
             2438                3   2.20000000E+02   2.34261734E+02   2.34261734E+02   1.71156883E+01   1.15147419E+01   2.34261734E+02   2.34261734E+02   1.71156883E+01   1.15147419E+01   2.22746994E+02  -8.76307297E+01   2.19839493E+02   1.73197823E+01   2.34057648E+02   1.15147419E+01  -6.65400314E+00
             2438                4   2.20000000E+02   2.34270355E+02   2.34270355E+02   1.67495861E+01   1.18722248E+01   2.34270355E+02   2.34270355E+02   1.67495861E+01   1.18722248E+01   2.22398132E+02  -8.76307297E+01   2.19878296E+02   1.69061642E+01   2.34113785E+02   1.18722248E+01  -5.83380365E+00
             2439                1   2.20000000E+02   2.25930878E+02   2.25930878E+02   9.25570393E+00   2.75033975E+00   2.25930878E+02   2.25930878E+02   9.25570393E+00   2.75033975E+00   2.23180542E+02  -7.93123093E+01   2.19783447E+02   9.76672935E+00   2.25419861E+02   2.75033975E+00   1.05101929E+01
             2439                2   2.20000000E+02   2.25944916E+02   2.25944916E+02   8.73287487E+00   3.25912666E+00   2.25944916E+02   2.25944916E+02   8.73287487E+00   3.25912666E+00   2.22685791E+02  -7.93123093E+01   2.19846710E+02   9.06001377E+00   2.25617783E+02   3.25912666E+00   8.42325401E+00
             2439                3   2.20000000E+02   2.25954407E+02   2.25954407E+02   8.31656361E+00   3.66596508E+00   2.25954407E+02   2.25954407E+02   8.31656361E+00   3.66596508E+00   2.22288437E+02  -7.93123093E+01   2.19889359E+02   9.00180244E+00   2.25269165E+02   3.66596508E+00   1.21927805E+01
             2439                4   2.20000000E+02   2.25963730E+02   2.25963730E+02   7.81784344E+00   4.15535545E+00   2.25963730E+02   2.25963730E+02   7.81784344E+00   4.15535545E+00   2.21808365E+02  -7.93123093E+01   2.19931381E+02   8.28936291E+00   2.25492203E+02   4.15535545E+00   1.01310759E+01
             2440                1   2.20000000E+02   2.29976639E+02   2.29976639E+02   1.06958513E+01   9.26438999E+00   2.29976639E+02   2.29976639E+02   1.06958513E+01   9.26438999E+00   2.20712250E+02  -8.33122940E+01   2.19989532E+02   1.08828249E+01   2.29789658E+02   9.26438999E+00   6.40041876E+00
             2440                2   2.20000000E+02   2.29978226E+02   2.29978226E+02   9.57959175E+00   1.03790407E+01   2.29978226E+02   2.29978226E+02   1.03790407E+01   9.57959175E+00   2.20398636E+02  -8.33122864E+01   2.19996719E+02   9.77119732E+00   2.29786621E+02   1.03790407E+01   6.49555016E+00
             2440                3   2.20000000E+02   2.29976517E+02   2.29976517E+02   1.07129040E+01   9.24744225E+00   2.29976517E+02   2.29976517E+02   1.07129040E+01   9.24744225E+00   2.20729080E+02  -8.33122864E+01   2.19989029E+02   1.10397539E+01   2.29649673E+02   9.24744225E+00   8.45922470E+00
             2440                4   2.20000000E+02   2.29978287E+02   2.29978287E+02   9.59474468E+00   1.03638411E+01   2.29978287E+02   2.29978287E+02   1.03638411E+01   9.59474468E+00   2.20383545E+02  -8.33122940E+01   2.19996964E+02   9.92507648E+00   2.29647949E+02   1.03638411E+01   8.52591705E+00
             2441                1   2.20000000E+02   2.36801880E+02   2.36801880E+02   1.83352547E+01   1.52998934E+01   2.36801880E+02   2.36801880E+02   1.83352547E+01   1.52998934E+01   2.21501984E+02  -9.01456680E+01   2.19952896E+02   1.85494556E+01   2.36587677E+02   1.52998934E+01  -6.83736086E+00
             2441                2   2.20000000E+02   2.36805328E+02   2.36805328E+02   1.80585384E+01   1.55731564E+01   2.36805328E+02   2.36805328E+02   1.80585384E+01   1.55731564E+01   2.21232162E+02  -9.01456680E+01   2.19968414E+02   1.82134914E+01   2.36650375E+02   1.55731564E+01  -5.81980610E+00
             2441                3   2.20000000E+02   2.36792084E+02   2.36792084E+02   1.89337139E+01   1.47112303E+01   2.36792084E+02   2.36792084E+02   1.89337139E+01   1.47112303E+01   2.22080856E+02  -9.01456833E+01   2.19908798E+02   1.91129131E+01   2.36612885E+02   1.47112303E+01  -6.24566031E+00
             2441                4   2.20000000E+02   2.36797058E+02   2.36797058E+02   1.86533813E+01   1.49865818E+01   2.36797058E+02   2.36797058E+02   1.86533813E+01   1.49865818E+01   2.21810471E+02  -9.01456680E+01   2.19931229E+02   1.87783012E+01   2.36672134E+02   1.49865818E+01  -5.21879435E+00
             2442                1   2.20000000E+02   2.20794922E+02   2.20794922E+02  -1.28423572E+00   2.93474817E+00   2.20794922E+02   2.20794922E+02   2.93474817E+00  -1.28423572E+00   2.22079147E+02  -7.41484756E+01   2.19908951E+02  -6.73931360E-01   2.20184616E+02   2.93474817E+00   1.16259460E+01
             2442                2   2.20000000E+02   2.20778336E+02   2.20778336E+02  -2.01202679E+00   3.67912149E+00   2.20778336E+02   2.20778336E+02   3.67912149E+00  -2.01202679E+00   2.22790359E+02  -7.41484756E+01   2.19834290E+02  -1.41302168E+00   2.20179337E+02   3.67912149E+00   1.15365953E+01
             2442                3   2.20000000E+02   2.20792053E+02   2.20792053E+02  -1.42762208E+00   3.08100772E+00   2.20792053E+02   2.20792053E+02   3.08100772E+00  -1.42762208E+00   2.22219666E+02  -7.41484756E+01   2.19896027E+02  -6.63967371E-01   2.20028397E+02   3.08100772E+00   1.30044279E+01
             2442                4   2.20000000E+02   2.20774658E+02   2.20774658E+02  -2.14896059E+00   3.81973052E+00   2.20774658E+02   2.20774658E+02   3.81973052E+00  -2.14896059E+00   2.22923630E+02  -7.41484756E+01   2.19817734E+02  -1.39968228E+00   2.20025391E+02   3.81973052E+00   1.29022865E+01
             2443                1   2.20000000E+02   2.34251022E+02   2.34251022E+02   1.39897442E+01   1.45132380E+01   2.34251022E+02   2.34251022E+02   1.45132380E+01   1.39897442E+01   2.20261276E+02  -8.75846634E+01   2.19998611E+02   1.41724768E+01   2.34068298E+02   1.45132380E+01   6.34144735E+00
             2443                2   2.20000000E+02   2.34248703E+02   2.34248703E+02   1.50137491E+01   1.34915657E+01   2.34248703E+02   2.34248703E+02   1.50137491E+01   1.34915657E+01   2.20757141E+02  -8.75846786E+01   2.19988129E+02   1.51888075E+01   2.34073639E+02   1.34915657E+01   6.19267941E+00
             2443                3   2.20000000E+02   2.34250870E+02   2.34250870E+02   1.39311399E+01   1.45719976E+01   2.34250870E+02   2.34250870E+02   1.45719976E+01   1.39311399E+01   2.20319733E+02  -8.75846634E+01   2.19997910E+02   1.40229092E+01   2.34159103E+02   1.45719976E+01   4.49542284E+00
             2443                4   2.20000000E+02   2.34249115E+02   2.34249115E+02   1.49519100E+01   1.35529842E+01   2.34249115E+02   2.34249115E+02   1.49519100E+01   1.35529842E+01   2.20696121E+02  -8.75846634E+01   2.19990005E+02   1.50371780E+01   2.34163849E+02   1.35529842E+01   4.32320833E+00
             2444                1   2.20000000E+02   2.15249374E+02   2.15249374E+02  -5.27760220E+00  -4.21983862E+00   2.15249374E+02   2.15249374E+02  -4.21983862E+00  -5.27760220E+00   2.20526978E+02  -6.85839767E+01   2.19994278E+02  -4.80786419E+00   2.14779633E+02  -4.21983862E+00   1.01670980E+01
             2444                2   2.20000000E+02   2.15231903E+02   2.15231903E+02  -6.77001905E+00  -2.70995784E+00   2.15231903E+02   2.15231903E+02  -2.70995784E+00  -6.77001905E+00   2.22001923E+02  -6.85839767E+01   2.19915680E+02  -6.36794043E+00   2.14829819E+02  -2.70995784E+00   9.43936920E+00
             2444                3   2.20000000E+02   2.15246643E+02   2.15246643E+02  -5.68490267E+00  -3.80981708E+00   2.15246643E+02   2.15246643E+02  -3.80981708E+00  -5.68490267E+00   2.20931549E+02  -6.85839767E+01   2.19982010E+02  -4.90892029E+00   2.14470657E+02  -3.80981708E+00   1.30704575E+01
             2444                4   2.20000000E+02   2.15224075E+02   2.15224075E+02  -7.15360117E+00  -2.31854987E+00   2.15224075E+02   2.15224075E+02  -2.31854987E+00  -7.15360117E+00   2.22377686E+02  -6.85839767E+01   2.19880417E+02  -6.47236252E+00   2.14542847E+02  -2.31854987E+00   1.22893171E+01
             2445                1   2.20000000E+02   2.17731339E+02   2.17731339E+02   1.25089717E+00  -5.62691069E+00   2.17731339E+02   2.17731339E+02   1.25089717E+00  -5.62691069E+00   2.23358246E+02  -7.11184464E+01   2.19757904E+02   1.53036165E+00   2.17451874E+02  -5.62691069E+00   7.77310801E+00
             2445                2   2.20000000E+02   2.17741913E+02   2.17741913E+02   8.89375091E-01  -5.27595377E+00   2.17741913E+02   2.17741913E+02   8.89375091E-01  -5.27595377E+00   2.23017868E+02  -7.11184464E+01   2.19805496E+02   1.21385002E+00   2.17417435E+02  -5.27595377E+00   8.38202477E+00
             2445                3   2.20000000E+02   2.17721848E+02   2.17721848E+02   1.54693019E+00  -5.91344500E+00   2.17721848E+02   2.17721848E+02   1.54693019E+00  -5.91344500E+00   2.23635300E+02  -7.11184464E+01   2.19715134E+02   1.87352872E+00   2.17395248E+02  -5.91344500E+00   8.39625740E+00
             2445                4   2.20000000E+02   2.17733505E+02   2.17733505E+02   1.18013501E+00  -5.55830717E+00   2.17733505E+02   2.17733505E+02   1.18013501E+00  -5.55830717E+00   2.23291809E+02  -7.11184464E+01   2.19767624E+02   1.55526531E+00   2.17358368E+02  -5.55830717E+00   9.00530052E+00
             2446                1   2.20000000E+02   2.16946320E+02   2.16946320E+02   7.14686155E+00  -1.20023460E+01   2.16946320E+02   2.16946320E+02   7.14686155E+00  -1.20023460E+01   2.28948669E+02  -7.06969452E+01   2.18113190E+02   7.14834738E+00   2.16944839E+02  -1.20023460E+01  -5.58018088E-01
             2446                2   2.20000000E+02   2.16950134E+02   2.16950134E+02   7.10120678E+00  -1.19605026E+01   2.16950134E+02   2.16950134E+02   7.10120678E+00  -1.19605026E+01   2.28910645E+02  -7.06969528E+01   2.18130493E+02   7.11447430E+00   2.16936874E+02  -1.19605026E+01   1.66835463E+00
             2446                3   2.20000000E+02   2.16840057E+02   2.16840057E+02   8.34800148E+00  -1.30972338E+01   2.16840057E+02   2.16840057E+02   8.34800148E+00  -1.30972338E+01   2.29937302E+02  -7.06969452E+01   2.17629791E+02   8.34915733E+00   2.16838913E+02  -1.30972338E+01  -4.89591539E-01
             2446                4   2.20000000E+02   2.16844604E+02   2.16844604E+02   8.29920578E+00  -1.30529718E+01   2.16844604E+02   2.16844604E+02   8.29920578E+00  -1.30529718E+01   2.29897583E+02  -7.06969452E+01   2.17650482E+02   8.31457329E+00   2.16829239E+02  -1.30529718E+01   1.79022455E+00
             2447                1   2.20000000E+02   2.47738358E+02   2.47738358E+02   2.79930515E+01   2.74845581E+01   2.47738358E+02   2.47738358E+02   2.79930515E+01   2.74845581E+01   2.20253799E+02  -1.01071991E+02   2.19998657E+02   2.79985695E+01   2.47732834E+02   2.74845581E+01   1.10156882E+00
             2447                2   2.20000000E+02   2.47737717E+02   2.47737717E+02   2.81932888E+01   2.72849503E+01   2.47737717E+02   2.47737717E+02   2.81932888E+01   2.72849503E+01   2.20452759E+02  -1.01071983E+02   2.19995789E+02   2.81962509E+01   2.47734756E+02   2.72849503E+01   8.05271983E-01
             2447                3   2.20000000E+02   2.47738586E+02   2.47738586E+02   2.78612099E+01   2.76161652E+01   2.47738586E+02   2.47738586E+02   2.78612099E+01   2.76161652E+01   2.20122421E+02  -1.01071983E+02   2.19999710E+02   2.78637581E+01   2.47736038E+02   2.76161652E+01   7.47963965E-01
             2447                4   2.20000000E+02   2.47738190E+02   2.47738190E+02   2.80601463E+01   2.74176388E+01   2.47738190E+02   2.47738190E+02   2.80601463E+01   2.74176388E+01   2.20320557E+02  -1.01071991E+02   2.19997879E+02   2.80610676E+01   2.47737259E+02   2.74176388E+01   4.51411813E-01
             2448                1   2.20000000E+02   2.42173340E+02   2.42173340E+02   2.36235104E+01   2.07513046E+01   2.42173340E+02   2.42173340E+02   2.36235104E+01   2.07513046E+01   2.21422028E+02  -9.55160522E+01   2.19957809E+02   2.36457462E+01   2.42151108E+02   2.07513046E+01   2.20424032E+00
             2448                2   2.20000000E+02   2.42177078E+02   2.42177078E+02   2.32991447E+01   2.10719376E+01   2.42177078E+02   2.42177078E+02   2.32991447E+01   2.10719376E+01   2.21105148E+02  -9.55160522E+01   2.19974640E+02   2.33366375E+01   2.42139587E+02   2.10719376E+01   2.86452818E+00
             2448                3   2.20000000E+02   2.42168991E+02   2.42168991E+02   2.39270458E+01   2.04521217E+01   2.42168991E+02   2.42168991E+02   2.39270458E+01   2.04521217E+01   2.21716873E+02  -9.55160522E+01   2.19938232E+02   2.39622459E+01   2.42133789E+02   2.04521217E+01   2.77156329E+00
             2448                4   2.20000000E+02   2.42173676E+02   2.42173676E+02   2.35979919E+01   2.07764893E+01   2.42173676E+02   2.42173676E+02   2.35979919E+01   2.07764893E+01   2.21397186E+02  -9.55160522E+01   2.19959290E+02   2.36519089E+01   2.42119766E+02   2.07764893E+01   3.43225646E+00
             2449                1   2.20000000E+02   2.35913284E+02   2.35913284E+02   1.53823109E+01   1.64481316E+01   2.35913284E+02   2.35913284E+02   1.64481316E+01   1.53823109E+01   2.20530975E+02  -8.92479019E+01   2.19994202E+02   1.53919907E+01   2.35903610E+02   1.64481316E+01   1.46042466E+00
             2449                2   2.20000000E+02   2.35913269E+02   2.35913269E+02   1.64497013E+01   1.53807526E+01   2.35913269E+02   2.35913269E+02   1.64497013E+01   1.53807526E+01   2.20532516E+02  -8.92479019E+01   2.19994171E+02   1.64597206E+01   2.35903259E+02   1.53807526E+01   1.48256493E+00
             2449                3   2.20000000E+02   2.35913315E+02   2.35913315E+02   1.53876133E+01   1.64428082E+01   2.35913315E+02   2.35913315E+02   1.64428082E+01   1.53876133E+01   2.20525711E+02  -8.92479172E+01   2.19994308E+02   1.53886433E+01   2.35912292E+02   1.64428082E+01  -4.76051003E-01
             2449                4   2.20000000E+02   2.35913254E+02   2.35913254E+02   1.64552498E+01   1.53752270E+01   2.35913254E+02   2.35913254E+02   1.64552498E+01   1.53752270E+01   2.20538025E+02  -8.92479019E+01   2.19994049E+02   1.64563065E+01   2.35912201E+02   1.53752270E+01  -4.79824275E-01
             2450                1   2.20000000E+02   2.13881699E+02   2.13881699E+02   3.97191852E-01  -1.21009617E+01   2.13881699E+02   2.13881699E+02   3.97191852E-01  -1.21009617E+01   2.25982651E+02  -6.73926392E+01   2.19199127E+02   5.16084731E-01   2.13762802E+02  -1.21009617E+01   5.03658915E+00
             2450                2   2.20000000E+02   2.13889206E+02   2.13889206E+02   2.59899646E-01  -1.19711809E+01   2.13889206E+02   2.13889206E+02   2.59899646E-01  -1.19711809E+01   2.25860397E+02  -6.73926468E+01   2.19233063E+02   4.37255293E-01   2.13711853E+02  -1.19711809E+01   6.15280676E+00
             2450                3   2.20000000E+02   2.13848114E+02   2.13848114E+02   9.78947759E-01  -1.26491213E+01   2.13848114E+02   2.13848114E+02   9.78947759E-01  -1.26491213E+01   2.26497223E+02  -6.73926468E+01   2.19047287E+02   1.10836375E+00   2.13718689E+02  -1.26491213E+01   5.24717188E+00
             2450                4   2.20000000E+02   2.13856506E+02   2.13856506E+02   8.38056147E-01  -1.25166302E+01   2.13856506E+02   2.13856506E+02   8.38056147E-01  -1.25166302E+01   2.26373138E+02  -6.73926468E+01   2.19085251E+02   1.02881098E+00   2.13665756E+02  -1.25166302E+01   6.37160969E+00
             2451                1   2.20000000E+02   2.38226715E+02   2.38226715E+02   1.79752579E+01   1.84789982E+01   2.38226715E+02   2.38226715E+02   1.84789982E+01   1.79752579E+01   2.20251450E+02  -9.15603256E+01   2.19998688E+02   1.80590382E+01   2.38142914E+02   1.84789982E+01   4.29499388E+00
             2451                2   2.20000000E+02   2.38225052E+02   2.38225052E+02   1.88828354E+01   1.75730820E+01   2.38225052E+02   2.38225052E+02   1.88828354E+01   1.75730820E+01   2.20651962E+02  -9.15603256E+01   2.19991211E+02   1.89602242E+01   2.38147644E+02   1.75730820E+01   4.11940527E+00
             2451                3   2.20000000E+02   2.38226486E+02   2.38226486E+02   1.79004345E+01   1.85540104E+01   2.38226486E+02   2.38226486E+02   1.85540104E+01   1.79004345E+01   2.20326050E+02  -9.15603104E+01   2.19997803E+02   1.79326820E+01   2.38194244E+02   1.85540104E+01   2.66519141E+00
             2451                4   2.20000000E+02   2.38225464E+02   2.38225464E+02   1.88044720E+01   1.76509953E+01   2.38225464E+02   2.38225464E+02   1.88044720E+01   1.76509953E+01   2.20574463E+02  -9.15603104E+01   2.19993210E+02   1.88323193E+01   2.38197632E+02   1.76509953E+01   2.47145009E+00
             2452                1   2.20000000E+02   2.26086182E+02   2.26086182E+02   1.20679893E+01   5.56381583E-01   2.26086182E+02   2.26086182E+02   1.20679893E+01   5.56381583E-01   2.25529800E+02  -7.95701828E+01   2.19320831E+02   1.21225691E+01   2.26031601E+02   5.56381583E-01   3.41746235E+00
             2452                2   2.20000000E+02   2.26121613E+02   2.26121613E+02   1.13285532E+01   1.26038706E+00   2.26121613E+02   2.26121613E+02   1.13285532E+01   1.26038706E+00   2.24861221E+02  -7.95701828E+01   2.19480743E+02   1.14647188E+01   2.25985443E+02   1.26038706E+00   5.40643597E+00
             2452                3   2.20000000E+02   2.26046310E+02   2.26046310E+02   1.28044453E+01  -1.40200570E-01   2.26046310E+02   2.26046310E+02   1.28044453E+01  -1.40200570E-01   2.26186508E+02  -7.95701828E+01   2.19140701E+02   1.29251642E+01   2.25925583E+02  -1.40200570E-01   5.07239056E+00
             2452                4   2.20000000E+02   2.26088089E+02   2.26088089E+02   1.20306997E+01   5.91770887E-01   2.26088089E+02   2.26088089E+02   1.20306997E+01   5.91770887E-01   2.25496323E+02  -7.95701828E+01   2.19329422E+02   1.22645092E+01   2.25854279E+02   5.91770887E-01   7.07067060E+00
             2453                1   2.20000000E+02   2.44755615E+02   2.44755615E+02   2.54898739E+01   2.40286007E+01   2.44755615E+02   2.44755615E+02   2.54898739E+01   2.40286007E+01   2.20727005E+02  -9.80913620E+01   2.19989075E+02   2.55026436E+01   2.44742828E+02   2.40286007E+01  -1.67349005E+00
             2453                2   2.20000015E+02   2.44753922E+02   2.44753922E+02   2.57115402E+01   2.38086109E+01   2.44753922E+02   2.44753922E+02   2.57115402E+01   2.38086109E+01   2.20945297E+02  -9.80913620E+01   2.19981491E+02   2.57169113E+01   2.44748550E+02   2.38086109E+01  -1.08392251E+00
             2453                3   2.20000000E+02   2.44753510E+02   2.44753510E+02   2.57560406E+01   2.37645092E+01   2.44753510E+02   2.44753510E+02   2.57560406E+01   2.37645092E+01   2.20988998E+02  -9.80913467E+01   2.19979752E+02   2.57755070E+01   2.44734055E+02   2.37645092E+01  -2.06454992E+00
             2453                4   2.20000000E+02   2.44751266E+02   2.44751266E+02   2.59806728E+01   2.35421333E+01   2.44751266E+02   2.44751266E+02   2.59806728E+01   2.35421333E+01   2.21209122E+02  -9.80913620E+01   2.19969574E+02   2.59905949E+01   2.44741333E+02   2.35421333E+01  -1.47366810E+00
             2454                1   2.20000000E+02   2.31987183E+02   2.31987183E+02   1.55203924E+01   8.61647224E+00   2.31987183E+02   2.31987183E+02   1.55203924E+01   8.61647224E+00   2.23370697E+02  -8.53746872E+01   2.19756058E+02   1.57395916E+01   2.31767975E+02   8.61647224E+00  -6.88488960E+00
             2454                2   2.20000000E+02   2.31996826E+02   2.31996826E+02   1.51926384E+01   8.93455791E+00   2.31996826E+02   2.31996826E+02   1.51926384E+01   8.93455791E+00   2.23062271E+02  -8.53746719E+01   2.19799606E+02   1.54416542E+01   2.31747818E+02   8.93455791E+00  -7.34334660E+00
             2454                3   2.20000000E+02   2.31994934E+02   2.31994934E+02   1.52598162E+01   8.86928177E+00   2.31994934E+02   2.31994934E+02   1.52598162E+01   8.86928177E+00   2.23125641E+02  -8.53746719E+01   2.19791031E+02   1.54506435E+01   2.31804108E+02   8.86928177E+00  -6.42816114E+00
             2454                4   2.20000000E+02   2.32003845E+02   2.32003845E+02   1.49316339E+01   9.18854427E+00   2.32003845E+02   2.32003845E+02   1.49316339E+01   9.18854427E+00   2.22815308E+02  -8.53746719E+01   2.19831238E+02   1.51506920E+01   2.31784790E+02   9.18854427E+00  -6.89232779E+00
             2455                1   2.20000000E+02   2.32745193E+02   2.32745193E+02   1.45488911E+01   1.09848118E+01   2.32745193E+02   2.32745193E+02   1.45488911E+01   1.09848118E+01   2.21760376E+02  -8.60929642E+01   2.19935013E+02   1.48967409E+01   2.32397339E+02   1.09848118E+01  -8.70511913E+00
             2455                2   2.20000000E+02   2.32748856E+02   2.32748856E+02   1.43044920E+01   1.12255478E+01   2.32748856E+02   2.32748856E+02   1.43044920E+01   1.12255478E+01   2.21523300E+02  -8.60929642E+01   2.19951492E+02   1.45702496E+01   2.32483093E+02   1.12255478E+01  -7.61465216E+00
             2455                3   2.20000000E+02   2.32732681E+02   2.32732681E+02   1.52082253E+01   1.03380003E+01   2.32732681E+02   2.32732681E+02   1.52082253E+01   1.03380003E+01   2.22394684E+02  -8.60929642E+01   2.19878662E+02   1.55182295E+01   2.32422668E+02   1.03380003E+01  -8.20600128E+00
             2455                4   2.20000000E+02   2.32737762E+02   2.32737762E+02   1.49643269E+01   1.05768185E+01   2.32737762E+02   2.32737762E+02   1.49643269E+01   1.05768185E+01   2.22160934E+02  -8.60929642E+01   2.19901535E+02   1.51962099E+01   2.32505875E+02   1.05768185E+01  -7.10245132E+00
             2456                1   2.20000000E+02   2.44151459E+02   2.44151459E+02   2.39437790E+01   2.43597412E+01   2.44151459E+02   2.44151459E+02   2.43597412E+01   2.39437790E+01   2.20207687E+02  -9.74849930E+01   2.19999115E+02   2.39627132E+01   2.44132538E+02   2.43597412E+01   2.04148531E+00
             2456                2   2.20000000E+02   2.44150848E+02   2.44150848E+02   2.45769730E+01   2.37271843E+01   2.44150848E+02   2.44150848E+02   2.45769730E+01   2.37271843E+01   2.20423660E+02  -9.74849930E+01   2.19996307E+02   2.45936813E+01   2.44134125E+02   2.37271843E+01   1.91579843E+00
             2456                3   2.20000000E+02   2.44151337E+02   2.44151337E+02   2.38883305E+01   2.44153099E+01   2.44151337E+02   2.44151337E+02   2.44153099E+01   2.38883305E+01   2.20263016E+02  -9.74849930E+01   2.19998596E+02   2.38921032E+01   2.44147583E+02   2.44153099E+01   9.10948396E-01
             2456                4   2.20000000E+02   2.44151047E+02   2.44151047E+02   2.45196991E+01   2.37842369E+01   2.44151047E+02   2.44151047E+02   2.45196991E+01   2.37842369E+01   2.20366806E+02  -9.74849930E+01   2.19997238E+02   2.45224533E+01   2.44148300E+02   2.37842369E+01   7.76573181E-01
             2457                1   2.20000000E+02   2.21625748E+02   2.21625748E+02   8.40499306E+00  -4.57844973E+00   2.21625748E+02   2.21625748E+02   8.40499306E+00  -4.57844973E+00   2.26204208E+02  -7.51507645E+01   2.19135544E+02   8.60977554E+00   2.21420975E+02  -4.57844973E+00  -6.60462761E+00
             2457                2   2.20000000E+02   2.21612381E+02   2.21612381E+02   8.63403416E+00  -4.79412508E+00   2.21612381E+02   2.21612381E+02   8.63403416E+00  -4.79412508E+00   2.26406509E+02  -7.51507645E+01   2.19075119E+02   8.75758648E+00   2.21488831E+02  -4.79412508E+00  -5.12816238E+00
             2457                3   2.20000000E+02   2.21580505E+02   2.21580505E+02   9.15263557E+00  -5.28085184E+00   2.21580505E+02   2.21580505E+02   9.15263557E+00  -5.28085184E+00   2.26861359E+02  -7.51507645E+01   2.18930954E+02   9.37613487E+00   2.21357010E+02  -5.28085184E+00  -6.88667154E+00
             2457                4   2.20000000E+02   2.21564957E+02   2.21564957E+02   9.39324760E+00  -5.50590563E+00   2.21564957E+02   2.21564957E+02   9.39324760E+00  -5.50590563E+00   2.27070862E+02  -7.51507645E+01   2.18860580E+02   9.52913952E+00   2.21429062E+02  -5.50590563E+00  -5.36795044E+00
             2458                1   2.20000000E+02   2.40400711E+02   2.40400711E+02   2.22353611E+01   1.86108570E+01   2.40400711E+02   2.40400711E+02   2.22353611E+01   1.86108570E+01   2.21789856E+02  -9.37489853E+01   2.19932816E+02   2.22623882E+01   2.40373703E+02   1.86108570E+01  -2.42784762E+00
             2458                2   2.20000000E+02   2.40397202E+02   2.40397202E+02   2.24391041E+01   1.84106331E+01   2.40397202E+02   2.40397202E+02   2.24391041E+01   1.84106331E+01   2.21986572E+02  -9.37489853E+01   2.19916992E+02   2.24503727E+01   2.40385941E+02   1.84106331E+01  -1.56707668E+00
             2458                3   2.20000000E+02   2.40393494E+02   2.40393494E+02   2.26344376E+01   1.82190132E+01   2.40393494E+02   2.40393494E+02   2.26344376E+01   1.82190132E+01   2.22174469E+02  -9.37489853E+01   2.19900269E+02   2.26699162E+01   2.40358017E+02   1.82190132E+01  -2.77926493E+00
             2458                4   2.20000000E+02   2.40389160E+02   2.40389160E+02   2.28420410E+01   1.80157204E+01   2.40389160E+02   2.40389160E+02   2.28420410E+01   1.80157204E+01   2.22373444E+02  -9.37489700E+01   2.19880844E+02   2.28589020E+01   2.40372314E+02   1.80157204E+01  -1.91475224E+00
             2459                1   2.20000000E+02   2.38900665E+02   2.38900665E+02   1.85134563E+01   1.92899475E+01   2.38900665E+02   2.38900665E+02   1.92899475E+01   1.85134563E+01   2.20387207E+02  -9.22346878E+01   2.19996918E+02   1.85507298E+01   2.38863403E+02   1.92899475E+01   2.86576462E+00
             2459                2   2.20000000E+02   2.38900085E+02   2.38900085E+02   1.94326172E+01   1.83713913E+01   2.38900085E+02   2.38900085E+02   1.94326172E+01   1.83713913E+01   2.20528702E+02  -9.22347031E+01   2.19994217E+02   1.94683685E+01   2.38864319E+02   1.83713913E+01   2.80121541E+00
             2459                3   2.20000000E+02   2.38900574E+02   2.38900574E+02   1.84850388E+01   1.93184776E+01   2.38900574E+02   2.38900574E+02   1.93184776E+01   1.84850388E+01   2.20415543E+02  -9.22347031E+01   2.19996429E+02   1.84916706E+01   2.38893936E+02   1.93184776E+01   1.20951879E+00
             2459                4   2.20000000E+02   2.38900223E+02   2.38900223E+02   1.94027920E+01   1.84010735E+01   2.38900223E+02   2.38900223E+02   1.94027920E+01   1.84010735E+01   2.20499146E+02  -9.22346878E+01   2.19994873E+02   1.94085655E+01   2.38894440E+02   1.84010735E+01   1.12606347E+00
             2460                1   2.20000000E+02   2.33804123E+02   2.33804123E+02   1.75606480E+01   1.02308130E+01   2.33804123E+02   2.33804123E+02   1.75606480E+01   1.02308130E+01   2.23573318E+02  -8.71985245E+01   2.19725021E+02   1.75981674E+01   2.33766602E+02   1.02308130E+01   2.84846425E+00
             2460                2   2.20000000E+02   2.33818726E+02   2.33818726E+02   1.70853882E+01   1.06914587E+01   2.33818726E+02   2.33818726E+02   1.70853882E+01   1.06914587E+01   2.23127274E+02  -8.71985245E+01   2.19790787E+02   1.71683693E+01   2.33735748E+02   1.06914587E+01   4.23992491E+00
             2460                3   2.20000000E+02   2.33784210E+02   2.33784210E+02   1.81258163E+01   9.68554974E+00   2.33784210E+02   2.33784210E+02   1.81258163E+01   9.68554974E+00   2.24098663E+02  -8.71985245E+01   2.19635269E+02   1.81908836E+01   2.33719147E+02   9.68554974E+00   3.74550414E+00
             2460                4   2.20000000E+02   2.33801178E+02   2.33801178E+02   1.76494942E+01   1.01449080E+01   2.33801178E+02   2.33801178E+02   1.76494942E+01   1.01449080E+01   2.23656265E+02  -8.71985245E+01   2.19711716E+02   1.77701550E+01   2.33680511E+02   1.01449080E+01   5.10558748E+00
             2461                1   2.20000000E+02   2.16366180E+02   2.16366180E+02   1.77930868E+00  -8.67424965E+00   2.16366180E+02   2.16366180E+02   1.77930868E+00  -8.67424965E+00   2.25040436E+02  -6.98237457E+01   2.19440170E+02   2.01425624E+00   2.16131241E+02  -8.67424965E+00   7.09651327E+00
             2461                2   2.20000000E+02   2.16380569E+02   2.16380569E+02   1.46003103E+00  -8.36936665E+00   2.16380569E+02   2.16380569E+02   1.46003103E+00  -8.36936665E+00   2.24749939E+02  -6.98237457E+01   2.19505127E+02   1.76803696E+00   2.16072571E+02  -8.36936665E+00   8.13029480E+00
             2461                3   2.20000000E+02   2.16340698E+02   2.16340698E+02   2.30297685E+00  -9.17242813E+00   2.16340698E+02   2.16340698E+02   2.30297685E+00  -9.17242813E+00   2.25513123E+02  -6.98237534E+01   2.19325119E+02   2.57461786E+00   2.16069061E+02  -9.17242813E+00   7.62017918E+00
             2461                4   2.20000000E+02   2.16356934E+02   2.16356934E+02   1.97496307E+00  -8.86064529E+00   2.16356934E+02   2.16356934E+02   1.97496307E+00  -8.86064529E+00   2.25217575E+02  -6.98237534E+01   2.19398407E+02   2.32555795E+00   2.16006332E+02  -8.86064529E+00   8.66250896E+00
             2462                1   2.20000000E+02   2.11704971E+02   2.11704971E+02   4.44574475E-01  -1.61004162E+01   2.11704971E+02   2.11704971E+02   4.44574475E-01  -1.61004162E+01   2.27805389E+02  -6.53497086E+01   2.18593704E+02   5.34646690E-01   2.11614899E+02  -1.61004162E+01   4.36140442E+00
             2462                2   2.20000000E+02   2.11711365E+02   2.11711365E+02   3.56121272E-01  -1.60183544E+01   2.11711365E+02   2.11711365E+02   3.56121272E-01  -1.60183544E+01   2.27729721E+02  -6.53497086E+01   2.18622681E+02   5.21186888E-01   2.11546295E+02  -1.60183544E+01   5.90439129E+00
             2462                3   2.20000015E+02   2.11641739E+02   2.11641739E+02   1.27659833E+00  -1.68691998E+01   2.11641739E+02   2.11641739E+02   1.27659833E+00  -1.68691998E+01   2.28510941E+02  -6.53497086E+01   2.18306839E+02   1.37189376E+00   2.11546448E+02  -1.68691998E+01   4.47620153E+00
             2462                4   2.20000000E+02   2.11648972E+02   2.11648972E+02   1.18497109E+00  -1.67848072E+01   2.11648972E+02   2.11648972E+02   1.18497109E+00  -1.67848072E+01   2.28433777E+02  -6.53497086E+01   2.18339676E+02   1.35816884E+00   2.11475769E+02  -1.67848072E+01   6.03506804E+00
             2463                1   2.20000000E+02   2.39167023E+02   2.39167023E+02   1.87160721E+01   1.96207542E+01   2.39167023E+02   2.39167023E+02   1.96207542E+01   1.87160721E+01   2.20450943E+02  -9.25012817E+01   2.19995804E+02   1.87240391E+01   2.39159042E+02   1.96207542E+01   1.32578146E+00
             2463                2   2.20000000E+02   2.39166931E+02   2.39166931E+02   1.96402283E+01   1.86966667E+01   2.39166931E+02   2.39166931E+02   1.96402283E+01   1.86966667E+01   2.20470261E+02  -9.25012741E+01   2.19995483E+02   1.96473217E+01   2.39159851E+02   1.86966667E+01   1.24733210E+00
             2463                3   2.20000000E+02   2.39166855E+02   2.39166855E+02   1.86779690E+01   1.96590080E+01   2.39166855E+02   2.39166855E+02   1.96590080E+01   1.86779690E+01   2.20488876E+02  -9.25012741E+01   2.19995087E+02   1.86785030E+01   2.39166321E+02   1.96590080E+01  -3.41188222E-01
             2463                4   2.20000000E+02   2.39167084E+02   2.39167084E+02   1.96003342E+01   1.87363987E+01   2.39167084E+02   2.39167084E+02   1.96003342E+01   1.87363987E+01   2.20430695E+02  -9.25012741E+01   2.19996185E+02   1.96012154E+01   2.39166214E+02   1.87363987E+01  -4.38770860E-01
             2464                1   2.20000000E+02   1.92103104E+02   1.92103104E+02  -3.91099892E+01  -1.46372719E+01   1.92103104E+02   1.92103104E+02  -1.46372719E+01  -3.91099892E+01   2.31213089E+02  -4.61186180E+01   2.16905914E+02  -3.91094666E+01   1.92102585E+02  -1.46372719E+01   3.47557485E-01
             2464                2   2.20000000E+02   1.91709549E+02   1.91709549E+02  -4.20325089E+01  -1.13211670E+01   1.91709549E+02   1.91709549E+02  -1.13211670E+01  -4.20325089E+01   2.33742050E+02  -4.61186218E+01   2.15097946E+02  -4.18297958E+01   1.91506821E+02  -1.13211670E+01  -6.88065910E+00
             2464                3   2.20000000E+02   1.91719162E+02   1.91719162E+02  -4.19687462E+01  -1.13945618E+01   1.91719162E+02   1.91719162E+02  -1.13945618E+01  -4.19687462E+01   2.33687897E+02  -4.61186180E+01   2.15142349E+02  -4.17243042E+01   1.91474716E+02  -1.13945618E+01   7.55402565E+00
             2464                4   2.20000000E+02   1.91294540E+02   1.91294540E+02  -4.45331039E+01  -8.40557480E+00   1.91294540E+02   1.91294540E+02  -8.40557480E+00  -4.45331039E+01   2.35827637E+02  -4.61186180E+01   2.13172531E+02  -4.45322990E+01   1.91293732E+02  -8.40557480E+00   4.34852690E-01
             2465                1   2.19999985E+02   1.99760635E+02   1.99760635E+02  -3.68234024E+01   1.33750248E+00   1.99760635E+02   1.99760635E+02   1.33750248E+00  -3.68234024E+01   2.36584030E+02  -5.47582436E+01   2.12361481E+02  -3.65432358E+01   1.99480469E+02   1.33750248E+00   8.13652515E+00
             2465                2   2.20000000E+02   2.00259277E+02   2.00259277E+02  -3.39741440E+01  -2.01040101E+00   2.00259277E+02   2.00259277E+02  -2.01040101E+00  -3.39741440E+01   2.34233429E+02  -5.47582436E+01   2.14682617E+02  -3.39740105E+01   2.00259155E+02  -2.01040101E+00   1.74197182E-01
             2465                3   2.20000000E+02   1.99201553E+02   1.99201553E+02  -3.94959106E+01   4.56908989E+00   1.99201553E+02   1.99201553E+02   4.56908989E+00  -3.94959106E+01   2.38697464E+02  -5.47582436E+01   2.09723541E+02  -3.94948845E+01   1.99200531E+02   4.56908989E+00  -4.93647784E-01
             2465                4   2.20000015E+02   1.99726669E+02   1.99726669E+02  -3.69990921E+01   1.54717648E+00   1.99726669E+02   1.99726669E+02   1.54717648E+00  -3.69990921E+01   2.36725754E+02  -5.47582512E+01   2.12202255E+02  -3.66668854E+01   1.99394455E+02   1.54717648E+00  -8.86181259E+00
             2466                1   2.17552902E+02   1.83411850E+02   1.83411850E+02  -4.52690506E+01  -2.09733009E+01   1.83411850E+02   1.83411850E+02  -2.09733009E+01  -4.52690506E+01   2.28680893E+02  -3.90564995E+01   2.14468842E+02  -4.52405319E+01   1.83383316E+02  -2.09733009E+01   2.55399704E+00
             2466                2   2.17119308E+02   1.83346558E+02   1.83346558E+02  -4.30324402E+01  -2.31446362E+01   1.83346558E+02   1.83346558E+02  -2.31446362E+01  -4.30324402E+01   2.26378998E+02  -3.90564919E+01   2.15055740E+02  -4.27368164E+01   1.83050934E+02  -2.31446362E+01   8.17530727E+00
             2466                3   2.16869125E+02   1.83209671E+02   1.83209671E+02  -4.26275444E+01  -2.34126339E+01   1.83209671E+02   1.83209671E+02  -2.34126339E+01  -4.26275444E+01   2.25837219E+02  -3.90564957E+01   2.14941467E+02  -4.25918808E+01   1.83173996E+02  -2.34126339E+01  -2.83812332E+00
             2466                4   2.16379257E+02   1.83073654E+02   1.83073654E+02  -4.00903130E+01  -2.58138542E+01   1.83073654E+02   1.83073654E+02  -2.58138542E+01  -4.00903130E+01   2.23163956E+02  -3.90564919E+01   2.15315781E+02  -4.00565567E+01   1.83039886E+02  -2.58138542E+01   2.74472523E+00
             2467                1   2.20000000E+02   2.33300232E+02   2.33300232E+02   1.41459017E+01   1.24642067E+01   2.33300232E+02   2.33300232E+02   1.41459017E+01   1.24642067E+01   2.20836029E+02  -8.66367798E+01   2.19985550E+02   1.42959642E+01   2.33150177E+02   1.24642067E+01   5.73265314E+00
             2467                2   2.20000000E+02   2.33303360E+02   2.33303360E+02   1.31541348E+01   1.34528580E+01   2.33303360E+02   2.33303360E+02   1.34528580E+01   1.31541348E+01   2.20149216E+02  -8.66367798E+01   2.19999557E+02   1.33134832E+01   2.33144012E+02   1.34528580E+01   5.92060184E+00
             2467                3   2.20000000E+02   2.33299728E+02   2.33299728E+02   1.42114925E+01   1.23991356E+01   2.33299728E+02   2.33299728E+02   1.42114925E+01   1.23991356E+01   2.20900589E+02  -8.66367798E+01   2.19983231E+02   1.44714689E+01   2.33039749E+02   1.23991356E+01   7.54252148E+00
             2467                4   2.20000000E+02   2.33303421E+02   2.33303421E+02   1.32165747E+01   1.33903570E+01   2.33303421E+02   2.33303421E+02   1.33903570E+01   1.32165747E+01   2.20086838E+02  -8.66367798E+01   2.19999847E+02   1.34868937E+01   2.33033096E+02   1.33903570E+01   7.70846510E+00
             2468                1   2.20000000E+02   2.30643951E+02   2.30643951E+02   1.19384031E+01   9.37195206E+00   2.30643951E+02   2.30643951E+02   1.19384031E+01   9.37195206E+00   2.21272003E+02  -8.39847641E+01   2.19966309E+02   1.23928642E+01   2.30189484E+02   9.37195206E+00  -9.95929241E+00
             2468                2   2.20000000E+02   2.30646027E+02   2.30646027E+02   1.17436771E+01   9.56458759E+00   2.30646027E+02   2.30646027E+02   1.17436771E+01   9.56458759E+00   2.21081451E+02  -8.39847641E+01   2.19975708E+02   1.20827303E+01   2.30306976E+02   9.56458759E+00  -8.60843182E+00
             2468                3   2.20000000E+02   2.30632431E+02   2.30632431E+02   1.27048130E+01   8.61704350E+00   2.30632431E+02   2.30632431E+02   1.27048130E+01   8.61704350E+00   2.22015396E+02  -8.39847641E+01   2.19914520E+02   1.31251211E+01   2.30212128E+02   8.61704350E+00  -9.56139374E+00
             2468                4   2.20000000E+02   2.30636002E+02   2.30636002E+02   1.25007401E+01   8.81753731E+00   2.30636002E+02   2.30636002E+02   1.25007401E+01   8.81753731E+00   2.21818466E+02  -8.39847641E+01   2.19930618E+02   1.28094540E+01   2.30327301E+02   8.81753731E+00  -8.20029449E+00
             2469                1   2.20000000E+02   2.46490891E+02   2.46490891E+02   2.70753307E+01   2.59110966E+01   2.46490891E+02   2.46490891E+02   2.70753307E+01   2.59110966E+01   2.20579803E+02  -9.98257751E+01   2.19993057E+02   2.70854130E+01   2.46480804E+02   2.59110966E+01   1.48775828E+00
             2469                2   2.20000000E+02   2.46489670E+02   2.46489670E+02   2.72745838E+01   2.57130699E+01   2.46489670E+02   2.46489670E+02   2.72745838E+01   2.57130699E+01   2.20776596E+02  -9.98257751E+01   2.19987518E+02   2.72794151E+01   2.46484833E+02   2.57130699E+01   1.02942014E+00
             2469                3   2.20000000E+02   2.46491806E+02   2.46491806E+02   2.68702850E+01   2.61152477E+01   2.46491806E+02   2.46491806E+02   2.68702850E+01   2.61152477E+01   2.20376556E+02  -9.98257751E+01   2.19997101E+02   2.68761806E+01   2.46485901E+02   2.61152477E+01   1.13809967E+00
             2469                4   2.20000000E+02   2.46490936E+02   2.46490936E+02   2.70675011E+01   2.59188747E+01   2.46490936E+02   2.46490936E+02   2.70675011E+01   2.59188747E+01   2.20572067E+02  -9.98257751E+01   2.19993240E+02   2.70696163E+01   2.46488831E+02   2.59188747E+01   6.80352747E-01
             2470                1   2.20000000E+02   2.21898453E+02   2.21898453E+02   1.02772379E+01  -5.61812544E+00   2.21898453E+02   2.21898453E+02   1.02772379E+01  -5.61812544E+00   2.27516571E+02  -7.55191879E+01   2.18702423E+02   1.04040613E+01   2.21771622E+02  -5.61812544E+00   5.17917299E+00
             2470                2   2.20000000E+02   2.21870789E+02   2.21870789E+02   1.06643982E+01  -5.97762966E+00   2.21870789E+02   2.21870789E+02   1.06643982E+01  -5.97762966E+00   2.27848419E+02  -7.55191879E+01   2.18577087E+02   1.07181873E+01   2.21817001E+02  -5.97762966E+00   3.37006140E+00
             2470                3   2.20000000E+02   2.21959549E+02   2.21959549E+02   9.35223103E+00  -4.75422525E+00   2.21959549E+02   2.21959549E+02   9.35223103E+00  -4.75422525E+00   2.26713776E+02  -7.55191879E+01   2.18979004E+02   9.44229603E+00   2.21869492E+02  -4.75422525E+00   4.37486076E+00
             2470                4   2.20000000E+02   2.21935211E+02   2.21935211E+02   9.73372936E+00  -5.11137438E+00   2.21935211E+02   2.21935211E+02   9.73372936E+00  -5.11137438E+00   2.27046585E+02  -7.55191879E+01   2.18868866E+02   9.76378918E+00   2.21905151E+02  -5.11137438E+00   2.52562165E+00
             2471                1   2.20000000E+02   2.19123734E+02   2.19123734E+02  -5.74463177E+00   4.33887291E+00   2.19123734E+02   2.19123734E+02   4.33887291E+00  -5.74463177E+00   2.24868362E+02  -7.25726547E+01   2.19479172E+02  -5.08801126E+00   2.18467117E+02   4.33887291E+00   1.21334963E+01
             2471                2   2.20000000E+02   2.19087540E+02   2.19087540E+02  -6.46201038E+00   5.09246159E+00   2.19087540E+02   2.19087540E+02   5.09246159E+00  -6.46201038E+00   2.25549561E+02  -7.25726700E+01   2.19315750E+02  -5.76785946E+00   2.18393387E+02   5.09246159E+00   1.24933996E+01
             2471                3   2.20000000E+02   2.19119247E+02   2.19119247E+02  -5.83962440E+00   4.43837738E+00   2.19119247E+02   2.19119247E+02   4.43837738E+00  -5.83962440E+00   2.24958862E+02  -7.25726624E+01   2.19458862E+02  -4.99169016E+00   2.18271301E+02   4.43837738E+00   1.37852373E+01
             2471                4   2.20000000E+02   2.19082550E+02   2.19082550E+02  -6.55348349E+00   5.18890190E+00   2.19082550E+02   2.19082550E+02   5.18890190E+00  -6.55348349E+00   2.25636032E+02  -7.25726547E+01   2.19293274E+02  -5.66570473E+00   2.18194778E+02   5.18890190E+00   1.41253462E+01
             2472                1   2.20000000E+02   2.27953049E+02   2.27953049E+02   7.27173328E+00   8.64073658E+00   2.27953049E+02   2.27953049E+02   8.64073658E+00   7.27173328E+00   2.20681305E+02  -8.12885056E+01   2.19990433E+02   7.34393740E+00   2.27880844E+02   8.64073658E+00   3.99098587E+00
             2472                2   2.20000000E+02   2.27953217E+02   2.27953217E+02   8.61290169E+00   7.29940367E+00   2.27953217E+02   2.27953217E+02   8.61290169E+00   7.29940367E+00   2.20653809E+02  -8.12885056E+01   2.19991180E+02   8.68661404E+00   2.27879501E+02   7.29940367E+00   4.02030087E+00
             2472                3   2.20000015E+02   2.27953125E+02   2.27953125E+02   7.28435993E+00   8.62803841E+00   2.27953125E+02   2.27953125E+02   8.62803841E+00   7.28435993E+00   2.20668762E+02  -8.12885056E+01   2.19990768E+02   7.29498005E+00   2.27942505E+02   8.62803841E+00   1.53102934E+00
             2472                4   2.20000000E+02   2.27953125E+02   2.27953125E+02   8.62626648E+00   7.28612232E+00   2.27953125E+02   2.27953125E+02   8.62626648E+00   7.28612232E+00   2.20667007E+02  -8.12885056E+01   2.19990814E+02   8.63677597E+00   2.27942612E+02   7.28612232E+00   1.51846814E+00
             2473                1   2.20000000E+02   2.25710831E+02   2.25710831E+02   6.26486826E+00   5.16093397E+00   2.25710831E+02   2.25710831E+02   6.26486826E+00   5.16093397E+00   2.20549896E+02  -7.90455399E+01   2.19993774E+02   6.59822559E+00   2.25377472E+02   5.16093397E+00   8.54644775E+00
             2473                2   2.20000000E+02   2.25710342E+02   2.25710342E+02   5.07048798E+00   6.35581160E+00   2.25710342E+02   2.25710342E+02   6.35581160E+00   5.07048798E+00   2.20639847E+02  -7.90455399E+01   2.19991562E+02   5.39875746E+00   2.25382065E+02   6.35581160E+00   8.50421524E+00
             2473                3   2.20000000E+02   2.25711105E+02   2.25711105E+02   6.20677042E+00   5.21876335E+00   2.25711105E+02   2.25711105E+02   6.20677042E+00   5.21876335E+00   2.20492340E+02  -7.90455475E+01   2.19995010E+02   6.73621845E+00   2.25181656E+02   5.21876335E+00   1.07673798E+01
             2473                4   2.20000000E+02   2.25709991E+02   2.25709991E+02   5.01529884E+00   6.41133070E+00   2.25709991E+02   2.25709991E+02   6.41133070E+00   5.01529884E+00   2.20694702E+02  -7.90455399E+01   2.19990036E+02   5.53453732E+00   2.25190765E+02   6.41133070E+00   1.06921492E+01
             2474                1   2.20000000E+02   2.18654266E+02   2.18654266E+02   3.12505293E+00  -5.55935049E+00   2.18654266E+02   2.18654266E+02   3.12505293E+00  -5.55935049E+00   2.24213608E+02  -7.20733185E+01   2.19613846E+02   3.46583343E+00   2.18313477E+02  -5.55935049E+00   8.56343937E+00
             2474                2   2.20000000E+02   2.18671371E+02   2.18671371E+02   2.65918231E+00  -5.11059093E+00   2.18671371E+02   2.18671371E+02   2.65918231E+00  -5.11059093E+00   2.23781967E+02  -7.20733185E+01   2.19690979E+02   3.07835174E+00   2.18252197E+02  -5.11059093E+00   9.50633907E+00
             2474                3   2.20000000E+02   2.18635849E+02   2.18635849E+02   3.57783937E+00  -5.99371767E+00   2.18635849E+02   2.18635849E+02   3.57783937E+00  -5.99371767E+00   2.24629562E+02  -7.20733261E+01   2.19530792E+02   3.98552895E+00   2.18228149E+02  -5.99371767E+00   9.35478020E+00
             2474                4   2.20000000E+02   2.18655365E+02   2.18655365E+02   3.09630084E+00  -5.53171587E+00   2.18655365E+02   2.18655365E+02   3.09630084E+00  -5.53171587E+00   2.24187073E+02  -7.20733109E+01   2.19618851E+02   3.59058142E+00   2.18161087E+02  -5.53171587E+00   1.03102484E+01
             2475                1   2.20000000E+02   2.30238266E+02   2.30238266E+02   1.26978931E+01   7.85848284E+00   2.30238266E+02   2.30238266E+02   1.26978931E+01   7.85848284E+00   2.22379776E+02  -8.35982132E+01   2.19880188E+02   1.31543503E+01   2.29781815E+02   7.85848284E+00   9.95428467E+00
             2475                2   2.20000000E+02   2.30218140E+02   2.30218140E+02   1.34948988E+01   7.08161879E+00   2.30218140E+02   2.30218140E+02   1.34948988E+01   7.08161879E+00   2.23136520E+02  -8.35982208E+01   2.19789536E+02   1.38414116E+01   2.29871628E+02   7.08161879E+00   8.65899277E+00
             2475                3   2.20000000E+02   2.30247269E+02   2.30247269E+02   1.22421284E+01   8.30524540E+00   2.30247269E+02   2.30247269E+02   1.22421284E+01   8.30524540E+00   2.21942017E+02  -8.35982132E+01   2.19920715E+02   1.25633154E+01   2.29926086E+02   8.30524540E+00   8.36156178E+00
             2475                4   2.20000000E+02   2.30231003E+02   2.30231003E+02   1.30121660E+01   7.55148315E+00   2.30231003E+02   2.30231003E+02   1.30121660E+01   7.55148315E+00   2.22679520E+02  -8.35982132E+01   2.19847458E+02   1.32424850E+01   2.30000687E+02   7.55148315E+00   7.06929588E+00
             2476                1   2.20000000E+02   2.48129700E+02   2.48129700E+02   2.84719601E+01   2.77890148E+01   2.48129700E+02   2.48129700E+02   2.84719601E+01   2.77890148E+01   2.20340683E+02  -1.01463554E+02   2.19997650E+02   2.84728680E+01   2.48128799E+02   2.77890148E+01   4.45026457E-01
             2476                2   2.20000000E+02   2.48129501E+02   2.48129501E+02   2.85293713E+01   2.77318001E+01   2.48129501E+02   2.48129501E+02   2.85293713E+01   2.77318001E+01   2.20397705E+02  -1.01463562E+02   2.19996735E+02   2.85294247E+01   2.48129456E+02   2.77318001E+01   1.03318773E-01
             2476                3   2.20000000E+02   2.48130066E+02   2.48130066E+02   2.83193340E+01   2.79412804E+01   2.48130066E+02   2.48130066E+02   2.83193340E+01   2.79412804E+01   2.20188782E+02  -1.01463562E+02   2.19999268E+02   2.83198700E+01   2.48129532E+02   2.79412804E+01   3.43425542E-01
             2476                4   2.20000000E+02   2.48129944E+02   2.48129944E+02   2.83763123E+01   2.78844204E+01   2.48129944E+02   2.48129944E+02   2.83763123E+01   2.78844204E+01   2.20245529E+02  -1.01463562E+02   2.19998734E+02   2.83763065E+01   2.48129944E+02   2.78844204E+01   2.44292617E-03
             2477                1   2.20000000E+02   2.09675781E+02   2.09675781E+02   4.31555718E-01  -1.96966629E+01   2.09675781E+02   2.09675781E+02   4.31555718E-01  -1.96966629E+01   2.29372437E+02  -6.34702263E+01   2.17913940E+02   5.76201737E-01   2.09531128E+02  -1.96966629E+01   5.49959612E+00
             2477                2   2.20000000E+02   2.09579834E+02   2.09579834E+02   1.47531843E+00  -2.06444778E+01   2.09579834E+02   2.09579834E+02   1.47531843E+00  -2.06444778E+01   2.30224304E+02  -6.34702263E+01   2.17477066E+02   1.62441719E+00   2.09430725E+02  -2.06444778E+01   5.56834984E+00
             2477                3   2.20000000E+02   2.09671249E+02   2.09671249E+02   4.82843369E-01  -1.97434406E+01   2.09671249E+02   2.09671249E+02   4.82843369E-01  -1.97434406E+01   2.29414703E+02  -6.34702187E+01   2.17893417E+02   5.45333803E-01   2.09608765E+02  -1.97434406E+01   3.61502194E+00
             2477                4   2.20000000E+02   2.09574677E+02   2.09574677E+02   1.52884400E+00  -2.06928482E+01   2.09574677E+02   2.09574677E+02   1.52884400E+00  -2.06928482E+01   2.30267517E+02  -6.34702263E+01   2.17453568E+02   1.59325719E+00   2.09510254E+02  -2.06928482E+01   3.66028452E+00
             2478                1   2.20000000E+02   2.42088318E+02   2.42088318E+02   2.24819317E+01   2.16967964E+01   2.42088318E+02   2.42088318E+02   2.24819317E+01   2.16967964E+01   2.20391525E+02  -9.54223557E+01   2.19996826E+02   2.24873085E+01   2.42082932E+02   2.16967964E+01   1.08703196E+00
             2478                2   2.20000000E+02   2.42088333E+02   2.42088333E+02   2.24741745E+01   2.17045174E+01   2.42088333E+02   2.42088333E+02   2.24741745E+01   2.17045174E+01   2.20383804E+02  -9.54223404E+01   2.19996964E+02   2.24746685E+01   2.42087845E+02   2.17045174E+01  -3.27743828E-01
             2478                3   2.20000000E+02   2.42088333E+02   2.42088333E+02   2.17021656E+01   2.24765339E+01   2.42088333E+02   2.42088333E+02   2.24765339E+01   2.17021656E+01   2.20386169E+02  -9.54223404E+01   2.19996948E+02   2.17076473E+01   2.42082855E+02   2.24765339E+01   1.09862435E+00
             2478                4   2.20000000E+02   2.42088303E+02   2.42088303E+02   2.16947441E+01   2.24839935E+01   2.42088303E+02   2.42088303E+02   2.24839935E+01   2.16947441E+01   2.20393555E+02  -9.54223404E+01   2.19996826E+02   2.16951523E+01   2.42087891E+02   2.24839935E+01  -3.02620053E-01
             2479                1   2.20000000E+02   2.29027664E+02   2.29027664E+02   9.83444023E+00   8.22966480E+00   2.29027664E+02   2.29027664E+02   9.83444023E+00   8.22966480E+00   2.20798004E+02  -8.23639221E+01   2.19986847E+02   1.01128302E+01   2.28749283E+02   8.22966480E+00   7.80654573E+00
             2479                2   2.20000000E+02   2.29030273E+02   2.29030273E+02   8.76844406E+00   9.29306030E+00   2.29030273E+02   2.29030273E+02   9.29306030E+00   8.76844406E+00   2.20261841E+02  -8.23639297E+01   2.19998581E+02   9.05394936E+00   2.28744766E+02   9.29306030E+00   7.92500353E+00
             2479                3   2.20000000E+02   2.29027496E+02   2.29027496E+02   9.85851097E+00   8.20577621E+00   2.29027496E+02   2.29027496E+02   9.85851097E+00   8.20577621E+00   2.20821716E+02  -8.23639297E+01   2.19986038E+02   1.02955503E+01   2.28590454E+02   8.20577621E+00   9.77720833E+00
             2479                4   2.20000000E+02   2.29030319E+02   2.29030319E+02   8.78719997E+00   9.27425861E+00   2.29030319E+02   2.29030319E+02   9.27425861E+00   8.78719997E+00   2.20243118E+02  -8.23639297E+01   2.19998779E+02   9.23040485E+00   2.28587112E+02   9.27425861E+00   9.87000942E+00
             2480                1   2.20000000E+02   2.26560989E+02   2.26560989E+02   1.30105190E+01   6.33972526E-01   2.26560989E+02   2.26560989E+02   1.30105190E+01   6.33972526E-01   2.25927017E+02  -8.00684891E+01   2.19214661E+02   1.31398602E+01   2.26431641E+02   6.33972526E-01   5.25401020E+00
             2480                2   2.20000000E+02   2.26524597E+02   2.26524597E+02   1.36443043E+01   3.65873724E-02   2.26524597E+02   2.26524597E+02   1.36443043E+01   3.65873724E-02   2.26488007E+02  -8.00684967E+01   2.19050156E+02   1.37028036E+01   2.26466095E+02   3.65873724E-02   3.52848315E+00
             2480                3   2.20000000E+02   2.26597641E+02   2.26597641E+02   1.23027925E+01   1.30503809E+00   2.26597641E+02   2.26597641E+02   1.23027925E+01   1.30503809E+00   2.25292603E+02  -8.00684891E+01   2.19380234E+02   1.23657646E+01   2.26534668E+02   1.30503809E+00   3.67306876E+00
             2480                4   2.20000000E+02   2.26566528E+02   2.26566528E+02   1.29085798E+01   7.30362535E-01   2.26566528E+02   2.26566528E+02   1.29085798E+01   7.30362535E-01   2.25836166E+02  -8.00684891E+01   2.19239716E+02   1.29265051E+01   2.26548615E+02   7.30362535E-01   1.95657611E+00
             2481                1   2.20000000E+02   2.43858566E+02   2.43858566E+02   2.44924431E+01   2.32301311E+01   2.43858566E+02   2.43858566E+02   2.44924431E+01   2.32301311E+01   2.20628433E+02  -9.71937180E+01   2.19991867E+02   2.45206871E+01   2.43830338E+02   2.32301311E+01  -2.48884153E+00
             2481                2   2.20000000E+02   2.43855972E+02   2.43855972E+02   2.48493557E+01   2.28758392E+01   2.43855972E+02   2.43855972E+02   2.48493557E+01   2.28758392E+01   2.20980133E+02  -9.71937256E+01   2.19980057E+02   2.48669453E+01   2.43838364E+02   2.28758392E+01  -1.96290028E+00
             2481                3   2.20000000E+02   2.43856979E+02   2.43856979E+02   2.47274609E+01   2.29967098E+01   2.43856979E+02   2.43856979E+02   2.47274609E+01   2.29967098E+01   2.20860275E+02  -9.71937180E+01   2.19984695E+02   2.47718506E+01   2.43812592E+02   2.29967098E+01  -3.11850381E+00
             2481                4   2.20000000E+02   2.43853561E+02   2.43853561E+02   2.50885830E+01   2.26389999E+01   2.43853561E+02   2.43853561E+02   2.50885830E+01   2.26389999E+01   2.21214554E+02  -9.71937180E+01   2.19969315E+02   2.51193333E+01   2.43822815E+02   2.26389999E+01  -2.59342432E+00
             2482                1   2.20000000E+02   2.28553024E+02   2.28553024E+02   9.27193069E+00   7.84109783E+00   2.28553024E+02   2.28553024E+02   9.27193069E+00   7.84109783E+00   2.20711929E+02  -8.18886795E+01   2.19989532E+02   9.82817554E+00   2.27996780E+02   7.84109783E+00  -1.10301180E+01
             2482                2   2.20000000E+02   2.28553635E+02   2.28553635E+02   9.16996193E+00   7.94246197E+00   2.28553635E+02   2.28553635E+02   9.16996193E+00   7.94246197E+00   2.20611176E+02  -8.18886871E+01   2.19992294E+02   9.58222485E+00   2.28141373E+02   7.94246197E+00  -9.50131130E+00
             2482                3   2.20000000E+02   2.28544037E+02   2.28544037E+02   1.01390104E+01   6.98301411E+00   2.28544037E+02   2.28544037E+02   1.01390104E+01   6.98301411E+00   2.21561020E+02  -8.18886871E+01   2.19949051E+02   1.06771860E+01   2.28005859E+02   6.98301411E+00  -1.08282204E+01
             2482                4   2.20000000E+02   2.28545486E+02   2.28545486E+02   1.00345535E+01   7.08603525E+00   2.28545486E+02   2.28545486E+02   1.00345535E+01   7.08603525E+00   2.21459442E+02  -8.18886871E+01   2.19955551E+02   1.04296398E+01   2.28150391E+02   7.08603525E+00  -9.28305244E+00
             2483                1   2.20000000E+02   2.42382492E+02   2.42382492E+02   2.26185455E+01   2.21471920E+01   2.42382492E+02   2.42382492E+02   2.26185455E+01   2.21471920E+01   2.20235306E+02  -9.57160721E+01   2.19998871E+02   2.26933918E+01   2.42307648E+02   2.21471920E+01   4.05492735E+00
             2483                2   2.20000000E+02   2.42379410E+02   2.42379410E+02   2.32421761E+01   2.15266609E+01   2.42379410E+02   2.42379410E+02   2.32421761E+01   2.15266609E+01   2.20852737E+02  -9.57160873E+01   2.19984924E+02   2.33055878E+01   2.42315979E+02   2.15266609E+01   3.72738409E+00
             2483                3   2.20000000E+02   2.42382690E+02   2.42382690E+02   2.24754639E+01   2.22900581E+01   2.42382690E+02   2.42382690E+02   2.24754639E+01   2.22900581E+01   2.20092636E+02  -9.57160721E+01   2.19999817E+02   2.25151043E+01   2.42343063E+02   2.22900581E+01   2.95202756E+00
             2483                4   2.20000000E+02   2.42380447E+02   2.42380447E+02   2.30945625E+01   2.16732216E+01   2.42380447E+02   2.42380447E+02   2.30945625E+01   2.16732216E+01   2.20707230E+02  -9.57160721E+01   2.19989670E+02   2.31257915E+01   2.42349213E+02   2.16732216E+01   2.61680532E+00
             2484                1   2.20000000E+02   2.27033478E+02   2.27033478E+02  -1.97450125E+00   1.73112507E+01   2.27033478E+02   2.27033478E+02   1.73112507E+01  -1.97450125E+00   2.29007980E+02  -8.07900772E+01   2.18086014E+02  -1.64191723E+00   2.26700897E+02   1.73112507E+01   8.72081947E+00
             2484                2   2.20000000E+02   2.26967987E+02   2.26967987E+02  -2.65976739E+00   1.80620041E+01   2.26967987E+02   2.26967987E+02   1.80620041E+01  -2.65976739E+00   2.29627747E+02  -8.07900696E+01   2.17788193E+02  -2.45847535E+00   2.26766693E+02   1.80620041E+01   6.79561901E+00
             2484                3   2.20000000E+02   2.26959152E+02   2.26959152E+02  -2.74835563E+00   1.81594219E+01   2.26959152E+02   2.26959152E+02   1.81594219E+01  -2.74835563E+00   2.29707504E+02  -8.07900772E+01   2.17748001E+02  -2.28725576E+00   2.26498062E+02   1.81594219E+01   1.02812490E+01
             2484                4   2.20000000E+02   2.26891556E+02   2.26891556E+02  -3.40071559E+00   1.88793774E+01   2.26891556E+02   2.26891556E+02   1.88793774E+01  -3.40071559E+00   2.30292282E+02  -8.07900772E+01   2.17440063E+02  -3.09597278E+00   2.26586823E+02   1.88793774E+01   8.37173080E+00
             2485                1   2.20000000E+02   2.18167419E+02   2.18167419E+02   4.08903313E+00  -7.31090879E+00   2.18167419E+02   2.18167419E+02   4.08903313E+00  -7.31090879E+00   2.25478333E+02  -7.16485138E+01   2.19333969E+02   4.36280107E+00   2.17893646E+02  -7.31090879E+00   7.65077543E+00
             2485                2   2.20000000E+02   2.18187256E+02   2.18187256E+02   3.68323302E+00  -6.92493200E+00   2.18187256E+02   2.18187256E+02   3.68323302E+00  -6.92493200E+00   2.25112183E+02  -7.16485214E+01   2.19423447E+02   4.05166245E+00   2.17818817E+02  -6.92493200E+00   8.88226795E+00
             2485                3   2.20000000E+02   2.18134293E+02   2.18134293E+02   4.71192598E+00  -7.90068483E+00   2.18134293E+02   2.18134293E+02   4.71192598E+00  -7.90068483E+00   2.26034988E+02  -7.16485138E+01   2.19184341E+02   5.03906631E+00   2.17807159E+02  -7.90068483E+00   8.34932709E+00
             2485                4   2.20000000E+02   2.18156494E+02   2.18156494E+02   4.30142307E+00  -7.51237679E+00   2.18156494E+02   2.18156494E+02   4.30142307E+00  -7.51237679E+00   2.25668869E+02  -7.16485138E+01   2.19284622E+02   4.73023939E+00   2.17727676E+02  -7.51237679E+00   9.56664753E+00
             2486                1   2.20000000E+02   1.92289795E+02   1.92289795E+02  -3.59000244E+01  -1.84852715E+01   1.92289795E+02   1.92289795E+02  -1.84852715E+01  -3.59000244E+01   2.28189819E+02  -4.59681664E+01   2.18441193E+02  -3.55253296E+01   1.91915100E+02  -1.84852715E+01   9.23913002E+00
             2486                2   2.20000000E+02   1.92086105E+02   1.92086105E+02  -3.80677719E+01  -1.61138401E+01   1.92086105E+02   1.92086105E+02  -1.61138401E+01  -3.80677719E+01   2.30153885E+02  -4.59681664E+01   2.17515091E+02  -3.79654655E+01   1.91983810E+02  -1.61138401E+01   4.85126400E+00
             2486                3   2.20000000E+02   1.92104172E+02   1.92104172E+02  -3.78949013E+01  -1.63047714E+01   1.92104172E+02   1.92104172E+02  -1.63047714E+01  -3.78949013E+01   2.29999084E+02  -4.59681702E+01   2.17597397E+02  -3.70214081E+01   1.91230682E+02  -1.63047714E+01   1.41470795E+01
             2486                4   2.20000000E+02   1.91881073E+02   1.91881073E+02  -3.98491516E+01  -1.41274204E+01   1.91881073E+02   1.91881073E+02  -1.41274204E+01  -3.98491516E+01   2.31730225E+02  -4.59681664E+01   2.16578339E+02  -3.94403801E+01   1.91472305E+02  -1.41274204E+01   9.72403526E+00
             2487                1   2.20000000E+02   2.45353653E+02   2.45353653E+02   2.54254055E+01   2.52819443E+01   2.45353653E+02   2.45353653E+02   2.54254055E+01   2.52819443E+01   2.20071701E+02  -9.86870041E+01   2.19999893E+02   2.54522591E+01   2.45326797E+02   2.52819443E+01   2.42988944E+00
             2487                2   2.20000000E+02   2.45352234E+02   2.45352234E+02   2.59131393E+01   2.47956066E+01   2.45352234E+02   2.45352234E+02   2.59131393E+01   2.47956066E+01   2.20556641E+02  -9.86869888E+01   2.19993637E+02   2.59346886E+01   2.45330704E+02   2.47956066E+01   2.17426634E+00
             2487                3   2.20000000E+02   2.45353668E+02   2.45353668E+02   2.53129044E+01   2.53944378E+01   2.45353668E+02   2.45353668E+02   2.53944378E+01   2.53129044E+01   2.20040756E+02  -9.86870041E+01   2.19999954E+02   2.53240395E+01   2.45342514E+02   2.53944378E+01   1.56559086E+00
             2487                4   2.20000000E+02   2.45352783E+02   2.45352783E+02   2.57978497E+01   2.49103775E+01   2.45352783E+02   2.45352783E+02   2.57978497E+01   2.49103775E+01   2.20442413E+02  -9.86870041E+01   2.19995972E+02   2.58056087E+01   2.45345016E+02   2.49103775E+01   1.30527353E+00
             2488                1   2.20000000E+02   2.07893555E+02   2.07893555E+02   5.22170842E-01  -2.28662605E+01   2.07893555E+02   2.07893555E+02   5.22170842E-01  -2.28662605E+01   2.30759811E+02  -6.18498230E+01   2.17176559E+02   5.58490157E-01   2.07857239E+02  -2.28662605E+01   2.74401188E+00
             2488                2   2.20000000E+02   2.07896240E+02   2.07896240E+02   4.95571494E-01  -2.28423557E+01   2.07896240E+02   2.07896240E+02   4.95571494E-01  -2.28423557E+01   2.30738602E+02  -6.18498192E+01   2.17188858E+02   6.15803778E-01   2.07776016E+02  -2.28423557E+01   4.99207354E+00
             2488                3   2.20000000E+02   2.07757568E+02   2.07757568E+02   1.80061758E+00  -2.40087204E+01   2.07757568E+02   2.07757568E+02   1.80061758E+00  -2.40087204E+01   2.31766281E+02  -6.18498230E+01   2.16554703E+02   1.83716071E+00   2.07721024E+02  -2.40087204E+01   2.74307299E+00
             2488                4   2.20000000E+02   2.07760681E+02   2.07760681E+02   1.77264690E+00  -2.39838657E+01   2.07760681E+02   2.07760681E+02   1.77264690E+00  -2.39838657E+01   2.31744537E+02  -6.18498192E+01   2.16568970E+02   1.89527011E+00   2.07638062E+02  -2.39838657E+01   5.02419615E+00
             2489                1   2.20000000E+02   2.44474350E+02   2.44474350E+02   2.41682034E+01   2.47817707E+01   2.44474350E+02   2.44474350E+02   2.47817707E+01   2.41682034E+01   2.20306137E+02  -9.78081055E+01   2.19998077E+02   2.41722679E+01   2.44470276E+02   2.47817707E+01   9.46681857E-01
             2489                2   2.20000000E+02   2.44474289E+02   2.44474289E+02   2.48033886E+01   2.41466503E+01   2.44474289E+02   2.44474289E+02   2.48033886E+01   2.41466503E+01   2.20327637E+02  -9.78081055E+01   2.19997803E+02   2.48066273E+01   2.44471039E+02   2.41466503E+01   8.44150782E-01
             2489                3   2.20000000E+02   2.44474213E+02   2.44474213E+02   2.41213722E+01   2.48287315E+01   2.44474213E+02   2.44474213E+02   2.48287315E+01   2.41213722E+01   2.20352829E+02  -9.78081055E+01   2.19997452E+02   2.41215420E+01   2.44474045E+02   2.48287315E+01  -1.89600736E-01
             2489                4   2.20000000E+02   2.44474411E+02   2.44474411E+02   2.47550507E+01   2.41948490E+01   2.44474411E+02   2.44474411E+02   2.47550507E+01   2.41948490E+01   2.20279556E+02  -9.78081055E+01   2.19998383E+02   2.47554626E+01   2.44473999E+02   2.41948490E+01  -3.00942630E-01
             2490                1   2.19719116E+02   2.21700562E+02   2.21700562E+02  -1.87246437E+01   3.13218899E+01   2.21700562E+02   2.21700562E+02   3.13218899E+01  -1.87246437E+01   2.40425201E+02  -7.80992661E+01   2.06302063E+02  -1.86902866E+01   2.21666214E+02   3.13218899E+01  -2.87362933E+00
             2490                2   2.19693344E+02   2.22100418E+02   2.22100418E+02  -1.70559864E+01   2.92533951E+01   2.22100418E+02   2.22100418E+02   2.92533951E+01  -1.70559864E+01   2.39156403E+02  -7.80992737E+01   2.08282837E+02  -1.70134811E+01   2.22057907E+02   2.92533951E+01   3.18835616E+00
             2490                3   2.19674469E+02   2.22194107E+02   2.22194107E+02  -1.66005802E+01   2.87042999E+01   2.22194107E+02   2.22194107E+02   2.87042999E+01  -1.66005802E+01   2.38794678E+02  -7.80992737E+01   2.08771591E+02  -1.63644466E+01   2.21957962E+02   2.87042999E+01  -7.50554562E+00
             2490                4   2.19473541E+02   2.22490540E+02   2.22490540E+02  -1.45800982E+01   2.63873692E+01   2.22490540E+02   2.22490540E+02   2.63873692E+01  -1.45800982E+01   2.37070648E+02  -7.80992737E+01   2.10611832E+02  -1.45741224E+01   2.22484573E+02   2.63873692E+01  -1.18975711E+00
             2491                1   2.20000000E+02   2.40880173E+02   2.40880173E+02   2.18826160E+01   1.98912563E+01   2.40880173E+02   2.40880173E+02   2.18826160E+01   1.98912563E+01   2.20988907E+02  -9.42180176E+01   2.19979706E+02   2.19370041E+01   2.40825775E+02   1.98912563E+01   3.45100832E+00
             2491                2   2.20000000E+02   2.40883987E+02   2.40883987E+02   2.12759838E+01   2.04940758E+01   2.40883987E+02   2.40883987E+02   2.12759838E+01   2.04940758E+01   2.20389908E+02  -9.42180176E+01   2.19996872E+02   2.13463230E+01   2.40813644E+02   2.04940758E+01   3.92982316E+00
             2491                3   2.20000000E+02   2.40878036E+02   2.40878036E+02   2.20968723E+01   1.96791210E+01   2.40878036E+02   2.40878036E+02   2.20968723E+01   1.96791210E+01   2.21198914E+02  -9.42180099E+01   2.19970123E+02   2.21908951E+01   2.40784027E+02   1.96791210E+01   4.53427982E+00
             2491                4   2.20000000E+02   2.40883057E+02   2.40883057E+02   2.14834824E+01   2.02875042E+01   2.40883057E+02   2.40883057E+02   2.14834824E+01   2.02875042E+01   2.20595566E+02  -9.42180176E+01   2.19992676E+02   2.15977993E+01   2.40768738E+02   2.02875042E+01   5.00683594E+00
             2492                1   2.20000000E+02   2.26096786E+02   2.26096786E+02   6.15328217E+00   6.04033327E+00   2.26096786E+02   2.26096786E+02   6.15328217E+00   6.04033327E+00   2.20056458E+02  -7.94301376E+01   2.19999954E+02   6.81130075E+00   2.25438782E+02   6.04033327E+00  -1.20121841E+01
             2492                2   2.20000000E+02   2.26096786E+02   2.26096786E+02   6.15206861E+00   6.04154921E+00   2.26096786E+02   2.26096786E+02   6.15206861E+00   6.04154921E+00   2.20055237E+02  -7.94301376E+01   2.19999939E+02   6.62916899E+00   2.25619690E+02   6.04154921E+00  -1.02326603E+01
             2492                3   2.20000000E+02   2.26091949E+02   2.26091949E+02   7.13134336E+00   5.06710052E+00   2.26091949E+02   2.26091949E+02   7.13134336E+00   5.06710052E+00   2.21024857E+02  -7.94301376E+01   2.19978195E+02   7.79448462E+00   2.25428818E+02   5.06710052E+00  -1.20316639E+01
             2492                4   2.20000000E+02   2.26092056E+02   2.26092056E+02   7.12073088E+00   5.07762003E+00   2.26092056E+02   2.26092056E+02   7.12073088E+00   5.07762003E+00   2.21014435E+02  -7.94301376E+01   2.19978638E+02   7.59976149E+00   2.25613022E+02   5.07762003E+00  -1.02305698E+01
             2493                1   2.20000000E+02   2.44166992E+02   2.44166992E+02   2.45360355E+01   2.37997894E+01   2.44166992E+02   2.44166992E+02   2.45360355E+01   2.37997894E+01   2.20367203E+02  -9.75009384E+01   2.19997238E+02   2.45835781E+01   2.44119446E+02   2.37997894E+01   3.23111010E+00
             2493                2   2.20000000E+02   2.44164322E+02   2.44164322E+02   2.50174656E+01   2.33210068E+01   2.44164322E+02   2.44164322E+02   2.50174656E+01   2.33210068E+01   2.20843323E+02  -9.75009384E+01   2.19985275E+02   2.50539284E+01   2.44127869E+02   2.33210068E+01   2.82637358E+00
             2493                3   2.20000000E+02   2.44167419E+02   2.44167419E+02   2.43571720E+01   2.39781933E+01   2.44167419E+02   2.44167419E+02   2.43571720E+01   2.39781933E+01   2.20189224E+02  -9.75009232E+01   2.19999283E+02   2.43830223E+01   2.44141586E+02   2.39781933E+01   2.38341045E+00
             2493                4   2.20000000E+02   2.44165588E+02   2.44165588E+02   2.48342838E+01   2.35029392E+01   2.44165588E+02   2.44165588E+02   2.48342838E+01   2.35029392E+01   2.20662659E+02  -9.75009384E+01   2.19990952E+02   2.48520641E+01   2.44147812E+02   2.35029392E+01   1.97482276E+00
             2494                1   2.20000000E+02   2.30172684E+02   2.30172684E+02   1.57405071E+01   4.99841118E+00   2.30172684E+02   2.30172684E+02   1.57405071E+01   4.99841118E+00   2.25174271E+02  -8.36371994E+01   2.19408783E+02   1.58460407E+01   2.30067154E+02   4.99841118E+00   4.75586653E+00
             2494                2   2.20000000E+02   2.30197388E+02   2.30197388E+02   1.51960583E+01   5.51815271E+00   2.30197388E+02   2.30197388E+02   1.51960583E+01   5.51815271E+00   2.24679230E+02  -8.36371994E+01   2.19520279E+02   1.52244215E+01   2.30169022E+02   5.51815271E+00   2.46949220E+00
             2494                3   2.20000000E+02   2.30215530E+02   2.30215530E+02   1.47557173E+01   5.94035292E+00   2.30215530E+02   2.30215530E+02   1.47557173E+01   5.94035292E+00   2.24275177E+02  -8.36371994E+01   2.19602097E+02   1.49711132E+01   2.30000137E+02   5.94035292E+00   6.80905199E+00
             2494                4   2.20000000E+02   2.30233978E+02   2.30233978E+02   1.42596359E+01   6.41799212E+00   2.30233978E+02   2.30233978E+02   1.42596359E+01   6.41799212E+00   2.23815979E+02  -8.36371994E+01   2.19685226E+02   1.43539267E+01   2.30139679E+02   6.41799212E+00   4.51173735E+00
             2495                1   2.20000000E+02   2.27361389E+02   2.27361389E+02   7.19005585E+00   7.53312731E+00   2.27361389E+02   2.27361389E+02   7.53312731E+00   7.19005585E+00   2.20171341E+02  -8.06948624E+01   2.19999405E+02   7.75364637E+00   2.26797806E+02   7.53312731E+00  -1.11251478E+01
             2495                2   2.20000000E+02   2.27361404E+02   2.27361404E+02   7.20188618E+00   7.52127695E+00   2.27361404E+02   2.27361404E+02   7.52127695E+00   7.20188618E+00   2.20159515E+02  -8.06948547E+01   2.19999481E+02   7.59008932E+00   2.26973206E+02   7.52127695E+00  -9.23664188E+00
             2495                3   2.20000000E+02   2.27358093E+02   2.27358093E+02   8.23136520E+00   6.49510431E+00   2.27358093E+02   2.27358093E+02   8.23136520E+00   6.49510431E+00   2.20862991E+02  -8.06948547E+01   2.19984589E+02   8.79875755E+00   2.26790710E+02   6.49510431E+00  -1.11358700E+01
             2495                4   2.20000000E+02   2.27358017E+02   2.27358017E+02   8.24163532E+00   6.48492670E+00   2.27358017E+02   2.27358017E+02   8.24163532E+00   6.48492670E+00   2.20873093E+02  -8.06948624E+01   2.19984222E+02   8.63051796E+00   2.26969131E+02   6.48492670E+00  -9.22283268E+00
             2496                1   2.20000000E+02   2.46045700E+02   2.46045700E+02   2.59287319E+01   2.61628437E+01   2.46045700E+02   2.46045700E+02   2.61628437E+01   2.59287319E+01   2.20116959E+02  -9.93790894E+01   2.19999695E+02   2.59408569E+01   2.46033554E+02   2.61628437E+01   1.63410866E+00
             2496                2   2.20000000E+02   2.46045135E+02   2.46045135E+02   2.64185562E+01   2.56735744E+01   2.46045135E+02   2.46045135E+02   2.64185562E+01   2.56735744E+01   2.20371552E+02  -9.93790894E+01   2.19997162E+02   2.64280453E+01   2.46035645E+02   2.56735744E+01   1.44321787E+00
             2496                3   2.20000000E+02   2.46045563E+02   2.46045563E+02   2.58443584E+01   2.62473335E+01   2.46045563E+02   2.46045563E+02   2.62473335E+01   2.58443584E+01   2.20201202E+02  -9.93790894E+01   2.19999161E+02   2.58470001E+01   2.46042923E+02   2.62473335E+01   7.62789190E-01
             2496                4   2.20000000E+02   2.46045380E+02   2.46045380E+02   2.63320942E+01   2.57597809E+01   2.46045380E+02   2.46045380E+02   2.63320942E+01   2.57597809E+01   2.20285599E+02  -9.93790894E+01   2.19998306E+02   2.63335590E+01   2.46043915E+02   2.57597809E+01   5.66927791E-01
             2497                1   2.20000000E+02   2.20976990E+02   2.20976990E+02   4.70926476E+00  -2.57441974E+00   2.20976990E+02   2.20976990E+02   4.70926476E+00  -2.57441974E+00   2.23551407E+02  -7.43706131E+01   2.19728485E+02   5.09943295E+00   2.20586823E+02  -2.57441974E+00   9.17753506E+00
             2497                2   2.20000000E+02   2.20995972E+02   2.20995972E+02   4.07201767E+00  -1.95617175E+00   2.20995972E+02   2.20995972E+02   4.07201767E+00  -1.95617175E+00   2.22952148E+02  -7.43706055E+01   2.19814072E+02   4.56459761E+00   2.20503403E+02  -1.95617175E+00   1.03251276E+01
             2497                3   2.20000000E+02   2.20960663E+02   2.20960663E+02   5.18050289E+00  -3.02934313E+00   2.20960663E+02   2.20960663E+02   5.18050289E+00  -3.02934313E+00   2.23990005E+02  -7.43706055E+01   2.19654938E+02   5.67957115E+00   2.20461594E+02  -3.02934313E+00   1.03652678E+01
             2497                4   2.20000000E+02   2.20982681E+02   2.20982681E+02   4.52997255E+00  -2.40081930E+00   2.20982681E+02   2.20982681E+02   4.52997255E+00  -2.40081930E+00   2.23383499E+02  -7.43706131E+01   2.19754150E+02   5.14341307E+00   2.20369232E+02  -2.40081930E+00   1.15067596E+01
             2498                1   2.20000000E+02   2.12886673E+02   2.12886673E+02   3.08211899E+00  -1.60580692E+01   2.12886673E+02   2.12886673E+02   3.08211899E+00  -1.60580692E+01   2.28944748E+02  -6.66369095E+01   2.18114975E+02   3.17111087E+00   2.12797684E+02  -1.60580692E+01   4.32009697E+00
             2498                2   2.20000000E+02   2.12901901E+02   2.12901901E+02   2.89855146E+00  -1.58897114E+01   2.12901901E+02   2.12901901E+02   2.89855146E+00  -1.58897114E+01   2.28791611E+02  -6.66369095E+01   2.18184067E+02   3.08541679E+00   2.12715027E+02  -1.58897114E+01   6.26161432E+00
             2498                3   2.20000000E+02   2.12793259E+02   2.12793259E+02   4.14522028E+00  -1.70277557E+01   2.12793259E+02   2.12793259E+02   4.14522028E+00  -1.70277557E+01   2.29821014E+02  -6.66369095E+01   2.17690048E+02   4.24547052E+00   2.12693008E+02  -1.70277557E+01   4.57235622E+00
             2498                4   2.20000000E+02   2.12810806E+02   2.12810806E+02   3.95323348E+00  -1.68533134E+01   2.12810806E+02   2.12810806E+02   3.95323348E+00  -1.68533134E+01   2.29664124E+02  -6.66369095E+01   2.17769928E+02   4.15816402E+00   2.12605881E+02  -1.68533134E+01   6.53895187E+00
             2499                1   2.20000000E+02   2.46532898E+02   2.46532898E+02   2.70545292E+01   2.60149574E+01   2.46532898E+02   2.46532898E+02   2.70545292E+01   2.60149574E+01   2.20517944E+02  -9.98674622E+01   2.19994476E+02   2.70666752E+01   2.46520752E+02   2.60149574E+01  -1.63307273E+00
             2499                2   2.20000000E+02   2.46534027E+02   2.46534027E+02   2.66817875E+01   2.63865700E+01   2.46534027E+02   2.46534027E+02   2.66817875E+01   2.63865700E+01   2.20147461E+02  -9.98674622E+01   2.19999557E+02   2.66983738E+01   2.46517441E+02   2.63865700E+01  -1.90981710E+00
             2499                3   2.20000000E+02   2.46533417E+02   2.46533417E+02   2.69298153E+01   2.61391506E+01   2.46533417E+02   2.46533417E+02   2.69298153E+01   2.61391506E+01   2.20394257E+02  -9.98674622E+01   2.19996780E+02   2.69341087E+01   2.46529114E+02   2.61391506E+01  -9.71424818E-01
             2499                4   2.20000000E+02   2.46534119E+02   2.46534119E+02   2.65593796E+01   2.65088806E+01   2.46534119E+02   2.46534119E+02   2.65593796E+01   2.65088806E+01   2.20025238E+02  -9.98674622E+01   2.19999969E+02   2.65664864E+01   2.46527008E+02   2.65088806E+01  -1.25062978E+00
             2500                1   2.20000000E+02   2.17354340E+02   2.17354340E+02   5.93432903E+00  -1.03236322E+01   2.17354340E+02   2.17354340E+02   5.93432903E+00  -1.03236322E+01   2.27677963E+02  -7.09883423E+01   2.18642319E+02   6.11899233E+00   2.17169678E+02  -1.03236322E+01  -6.24551964E+00
             2500                2   2.20000000E+02   2.17338547E+02   2.17338547E+02   6.15279627E+00  -1.05262966E+01   2.17338547E+02   2.17338547E+02   6.15279627E+00  -1.05262966E+01   2.27864853E+02  -7.09883499E+01   2.18570724E+02   6.24270248E+00   2.17248642E+02  -1.05262966E+01  -4.35656738E+00
             2500                3   2.20000000E+02   2.17279343E+02   2.17279343E+02   6.92806673E+00  -1.12423725E+01   2.17279343E+02   2.17279343E+02   6.92806673E+00  -1.12423725E+01   2.28521713E+02  -7.09883499E+01   2.18302185E+02   7.13327169E+00   2.17074142E+02  -1.12423725E+01  -6.56678820E+00
             2500                4   2.20000000E+02   2.17260864E+02   2.17260864E+02   7.15767717E+00  -1.14535084E+01   2.17260864E+02   2.17260864E+02   7.15767717E+00  -1.14535084E+01   2.28714386E+02  -7.09883499E+01   2.18218323E+02   7.26018953E+00   2.17158356E+02  -1.14535084E+01  -4.63986826E+00
             2501                1   2.20000000E+02   2.46475632E+02   2.46475632E+02   2.62343903E+01   2.67176666E+01   2.46475632E+02   2.46475632E+02   2.67176666E+01   2.62343903E+01   2.20241241E+02  -9.98092270E+01   2.19998825E+02   2.62366867E+01   2.46473328E+02   2.67176666E+01   7.12383151E-01
             2501                2   2.20000000E+02   2.46475601E+02   2.46475601E+02   2.67252979E+01   2.62267647E+01   2.46475601E+02   2.46475601E+02   2.67252979E+01   2.62267647E+01   2.20248840E+02  -9.98092270E+01   2.19998734E+02   2.67273998E+01   2.46473511E+02   2.62267647E+01   6.78803563E-01
             2501                3   2.20000000E+02   2.46475586E+02   2.46475586E+02   2.62186584E+01   2.67334270E+01   2.46475586E+02   2.46475586E+02   2.67334270E+01   2.62186584E+01   2.20256927E+02  -9.98092270E+01   2.19998642E+02   2.62187805E+01   2.46475464E+02   2.67334270E+01  -1.63790166E-01
             2501                4   2.20000000E+02   2.46475647E+02   2.46475647E+02   2.67091713E+01   2.62428551E+01   2.46475647E+02   2.46475647E+02   2.67091713E+01   2.62428551E+01   2.20232788E+02  -9.98092270E+01   2.19998901E+02   2.67093639E+01   2.46475464E+02   2.62428551E+01  -2.02635050E-01
             2502                1   2.20000000E+02   2.06389236E+02   2.06389236E+02   5.47146320E-01  -2.54572754E+01   2.06389236E+02   2.06389236E+02   5.47146320E-01  -2.54572754E+01   2.31846512E+02  -6.04930382E+01   2.16501816E+02   5.63322723E-01   2.06373062E+02  -2.54572754E+01   1.82476795E+00
             2502                2   2.20000000E+02   2.06391098E+02   2.06391098E+02   5.30594766E-01  -2.54425774E+01   2.06391098E+02   2.06391098E+02   5.30594766E-01  -2.54425774E+01   2.31833679E+02  -6.04930382E+01   2.16510315E+02   6.21485770E-01   2.06300201E+02  -2.54425774E+01   4.32476282E+00
             2502                3   2.20000000E+02   2.06218567E+02   2.06218567E+02   1.99641407E+00  -2.67358742E+01   2.06218567E+02   2.06218567E+02   1.99641407E+00  -2.67358742E+01   2.32954437E+02  -6.04930382E+01   2.15718246E+02   2.01239181E+00   2.06202591E+02  -2.67358742E+01   1.80621243E+00
             2502                4   2.20000000E+02   2.06220718E+02   2.06220718E+02   1.97892201E+00  -2.67205372E+01   2.06220718E+02   2.06220718E+02   1.97892201E+00  -2.67205372E+01   2.32941254E+02  -6.04930382E+01   2.15728165E+02   2.07147098E+00   2.06128174E+02  -2.67205372E+01   4.34672832E+00
             2503                1   2.20000000E+02   2.42879974E+02   2.42879974E+02   2.41076012E+01   2.16725903E+01   2.42879974E+02   2.42879974E+02   2.41076012E+01   2.16725903E+01   2.21207382E+02  -9.62200546E+01   2.19969696E+02   2.41267204E+01   2.42860870E+02   2.16725903E+01  -2.04486632E+00
             2503                2   2.20000000E+02   2.42877350E+02   2.42877350E+02   2.43279667E+01   2.14548721E+01   2.42877350E+02   2.42877350E+02   2.43279667E+01   2.14548721E+01   2.21422485E+02  -9.62200623E+01   2.19957794E+02   2.43364086E+01   2.42868912E+02   2.14548721E+01  -1.35840309E+00
             2503                3   2.20000000E+02   2.42876099E+02   2.42876099E+02   2.44209919E+01   2.13630981E+01   2.42876099E+02   2.42876099E+02   2.44209919E+01   2.13630981E+01   2.21513000E+02  -9.62200623E+01   2.19952164E+02   2.44480381E+01   2.42849045E+02   2.13630981E+01  -2.43082666E+00
             2503                4   2.20000000E+02   2.42872803E+02   2.42872803E+02   2.46447830E+01   2.11426182E+01   2.42872803E+02   2.42872803E+02   2.46447830E+01   2.11426182E+01   2.21730179E+02  -9.62200623E+01   2.19937271E+02   2.46586857E+01   2.42858887E+02   2.11426182E+01  -1.74215448E+00
             2504                1   2.20000000E+02   2.26718353E+02   2.26718353E+02   1.31515903E+01   8.05090129E-01   2.26718353E+02   2.26718353E+02   1.31515903E+01   8.05090129E-01   2.25913269E+02  -8.02250137E+01   2.19218506E+02   1.31860075E+01   2.26683945E+02   8.05090129E-01  -2.71082115E+00
             2504                2   2.20000000E+02   2.26735229E+02   2.26735229E+02   1.28351393E+01   1.10467267E+00   2.26735229E+02   2.26735229E+02   1.28351393E+01   1.10467267E+00   2.25630554E+02  -8.02250137E+01   2.19294708E+02   1.28420544E+01   2.26728317E+02   1.10467267E+00  -1.21632290E+00
             2504                3   2.20000000E+02   2.26679977E+02   2.26679977E+02   1.38194389E+01   1.75609216E-01   2.26679977E+02   2.26679977E+02   1.38194389E+01   1.75609216E-01   2.26504379E+02  -8.02250137E+01   2.19045074E+02   1.38363056E+01   2.26663116E+02   1.75609216E-01  -1.89462924E+00
             2504                4   2.20000000E+02   2.26699982E+02   2.26699982E+02   1.34795904E+01   4.95469481E-01   2.26699982E+02   2.26699982E+02   1.34795904E+01   4.95469481E-01   2.26204498E+02  -8.02250137E+01   2.19135452E+02   1.34801331E+01   2.26699432E+02   4.95469481E-01  -3.40123832E-01
             2505                1   2.20000000E+02   2.46729935E+02   2.46729935E+02   2.69029751E+01   2.65572796E+01   2.46729935E+02   2.46729935E+02   2.69029751E+01   2.65572796E+01   2.20172653E+02  -1.00063393E+02   2.19999390E+02   2.69175644E+01   2.46715347E+02   2.65572796E+01   1.79033470E+00
             2505                2   2.20000000E+02   2.46728851E+02   2.46728851E+02   2.72467060E+01   2.62146244E+01   2.46728851E+02   2.46728851E+02   2.72467060E+01   2.62146244E+01   2.20514221E+02  -1.00063393E+02   2.19994553E+02   2.72565975E+01   2.46718964E+02   2.62146244E+01   1.47294581E+00
             2505                3   2.20000000E+02   2.46730042E+02   2.46730042E+02   2.67623844E+01   2.66977425E+01   2.46730042E+02   2.46730042E+02   2.67623844E+01   2.66977425E+01   2.20032303E+02  -1.00063393E+02   2.19999969E+02   2.67687492E+01   2.46723694E+02   2.66977425E+01   1.18294966E+00
             2505                4   2.20000000E+02   2.46729416E+02   2.46729416E+02   2.71036816E+01   2.63570728E+01   2.46729416E+02   2.46729416E+02   2.71036816E+01   2.63570728E+01   2.20372345E+02  -1.00063393E+02   2.19997147E+02   2.71070843E+01   2.46726028E+02   2.63570728E+01   8.63710761E-01
             2506                1   2.20000000E+02   2.38216461E+02   2.38216461E+02   1.84133663E+01   1.80200729E+01   2.38216461E+02   2.38216461E+02   1.84133663E+01   1.80200729E+01   2.20196381E+02  -9.15499649E+01   2.19999222E+02   1.85180187E+01   2.38111816E+02   1.80200729E+01  -4.79484940E+00
             2506                2   2.20000000E+02   2.38212448E+02   2.38212448E+02   1.91784878E+01   1.72589741E+01   2.38212448E+02   2.38212448E+02   1.91784878E+01   1.72589741E+01   2.20953476E+02  -9.15499649E+01   2.19981155E+02   1.92672691E+01   2.38123657E+02   1.72589741E+01  -4.40899944E+00
             2506                3   2.20000015E+02   2.38216049E+02   2.38216049E+02   1.85748100E+01   1.78590393E+01   2.38216049E+02   2.38216049E+02   1.85748100E+01   1.78590393E+01   2.20357010E+02  -9.15499649E+01   2.19997391E+02   1.87475986E+01   2.38043274E+02   1.78590393E+01  -6.15802002E+00
             2506                4   2.20000000E+02   2.38210861E+02   2.38210861E+02   1.93458366E+01   1.70931950E+01   2.38210861E+02   2.38210861E+02   1.93458366E+01   1.70931950E+01   2.21117676E+02  -9.15499649E+01   2.19974060E+02   1.94988232E+01   2.38057892E+02   1.70931950E+01  -5.78434181E+00
             2507                1   2.20000000E+02   2.25059448E+02   2.25059448E+02   6.30482054E+00   3.83487678E+00   2.25059448E+02   2.25059448E+02   6.30482054E+00   3.83487678E+00   2.21224579E+02  -7.83997116E+01   2.19968811E+02   7.02860212E+00   2.24335678E+02   3.83487678E+00  -1.25620508E+01
             2507                2   2.20000000E+02   2.25065552E+02   2.25065552E+02   5.49446201E+00   4.63914156E+00   2.25065552E+02   2.25065552E+02   5.49446201E+00   4.63914156E+00   2.20426407E+02  -7.83997192E+01   2.19996246E+02   6.17988539E+00   2.24380127E+02   4.63914156E+00  -1.22486496E+01
             2507                3   2.20000000E+02   2.25058624E+02   2.25058624E+02   6.37658024E+00   3.76395178E+00   2.25058624E+02   2.25058624E+02   6.37658024E+00   3.76395178E+00   2.21294678E+02  -7.83997192E+01   2.19965088E+02   6.93223238E+00   2.24502975E+02   3.76395178E+00  -1.10092278E+01
             2507                4   2.20000000E+02   2.25065247E+02   2.25065247E+02   5.56516600E+00   4.56873846E+00   2.25065247E+02   2.25065247E+02   5.56516600E+00   4.56873846E+00   2.20496506E+02  -7.83997192E+01   2.19994904E+02   6.08915281E+00   2.24541260E+02   4.56873846E+00  -1.07117491E+01
             2508                1   2.20000000E+02   2.23718491E+02   2.23718491E+02   3.05050874E+00   4.39260721E+00   2.23718491E+02   2.23718491E+02   4.39260721E+00   3.05050874E+00   2.20667984E+02  -7.70538712E+01   2.19990784E+02   3.78893781E+00   2.22980057E+02   4.39260721E+00  -1.27437410E+01
             2508                2   2.20000000E+02   2.23719269E+02   2.23719269E+02   3.19309807E+00   4.24923706E+00   2.23719269E+02   2.23719269E+02   4.24923706E+00   3.19309807E+00   2.20526169E+02  -7.70538712E+01   2.19994293E+02   3.71867275E+00   2.23193695E+02   4.24923706E+00  -1.07529984E+01
             2508                3   2.20000000E+02   2.23719772E+02   2.23719772E+02   4.13226414E+00   3.30957842E+00   2.23719772E+02   2.23719772E+02   4.13226414E+00   3.30957842E+00   2.20410187E+02  -7.70538712E+01   2.19996536E+02   4.91912174E+00   2.22932907E+02   3.30957842E+00  -1.31212215E+01
             2508                4   2.20000000E+02   2.23719131E+02   2.23719131E+02   4.27626085E+00   3.16620708E+00   2.23719131E+02   2.23719131E+02   4.27626085E+00   3.16620708E+00   2.20552917E+02  -7.70538712E+01   2.19993683E+02   4.83936977E+00   2.23156021E+02   3.16620708E+00  -1.11019526E+01
             2509                1   2.20000000E+02   2.47558868E+02   2.47558868E+02   2.75130062E+01   2.76047440E+01   2.47558868E+02   2.47558868E+02   2.76047440E+01   2.75130062E+01   2.20045853E+02  -1.00892204E+02   2.19999969E+02   2.75192375E+01   2.47552628E+02   2.76047440E+01   1.17130387E+00
             2509                2   2.20000000E+02   2.47558456E+02   2.47558456E+02   2.78595734E+01   2.72585754E+01   2.47558456E+02   2.47558456E+02   2.78595734E+01   2.72585754E+01   2.20299881E+02  -1.00892204E+02   2.19998154E+02   2.78642426E+01   2.47553787E+02   2.72585754E+01   1.01280284E+00
             2509                3   2.20000000E+02   2.47558807E+02   2.47558807E+02   2.74428406E+01   2.76749516E+01   2.47558807E+02   2.47558807E+02   2.76749516E+01   2.74428406E+01   2.20115967E+02  -1.00892204E+02   2.19999725E+02   2.74442520E+01   2.47557404E+02   2.76749516E+01   5.55898011E-01
             2509                4   2.20000000E+02   2.47558624E+02   2.47558624E+02   2.77881775E+01   2.73297920E+01   2.47558624E+02   2.47558624E+02   2.77881775E+01   2.73297920E+01   2.20228836E+02  -1.00892204E+02   2.19998932E+02   2.77888927E+01   2.47557922E+02   2.73297920E+01   3.94972175E-01
             2510                1   2.20000000E+02   2.48982574E+02   2.48982574E+02   2.90916119E+01   2.88736935E+01   2.48982574E+02   2.48982574E+02   2.90916119E+01   2.88736935E+01   2.20108887E+02  -1.02315956E+02   2.19999771E+02   2.90919552E+01   2.48982239E+02   2.88736935E+01   2.72194356E-01
             2510                2   2.20000000E+02   2.48982513E+02   2.48982513E+02   2.91497841E+01   2.88156033E+01   2.48982513E+02   2.48982513E+02   2.91497841E+01   2.88156033E+01   2.20166901E+02  -1.02315971E+02   2.19999420E+02   2.91498222E+01   2.48982468E+02   2.88156033E+01   9.55638066E-02
             2510                3   2.20000000E+02   2.48982635E+02   2.48982635E+02   2.90130081E+01   2.89522610E+01   2.48982635E+02   2.48982635E+02   2.90130081E+01   2.89522610E+01   2.20030365E+02  -1.02315971E+02   2.19999969E+02   2.90131302E+01   2.48982498E+02   2.89522610E+01   1.68977082E-01
             2510                4   2.20000000E+02   2.48982590E+02   2.48982590E+02   2.90709381E+01   2.88943596E+01   2.48982590E+02   2.48982590E+02   2.90709381E+01   2.88943596E+01   2.20088226E+02  -1.02315956E+02   2.19999847E+02   2.90709343E+01   2.48982590E+02   2.88943596E+01  -7.51134474E-03
             2511                1   2.20000000E+02   2.20757980E+02   2.20757980E+02   3.58430767E+00  -1.96342254E+00   2.20757980E+02   2.20757980E+02   3.58430767E+00  -1.96342254E+00   2.22721405E+02  -7.41262894E+01   2.19842545E+02   4.09053040E+00   2.20251755E+02  -1.96342254E+00  -1.04729176E+01
             2511                2   2.20000000E+02   2.20744263E+02   2.20744263E+02   4.09006357E+00  -2.45545769E+00   2.20744263E+02   2.20744263E+02   4.09006357E+00  -2.45545769E+00   2.23199707E+02  -7.41262894E+01   2.19780746E+02   4.56927013E+00   2.20265045E+02  -2.45545769E+00  -1.01780882E+01
             2511                3   2.20000000E+02   2.20753571E+02   2.20753571E+02   3.75618458E+00  -2.13089395E+00   2.20753571E+02   2.20753571E+02   3.75618458E+00  -2.13089395E+00   2.22884460E+02  -7.41262894E+01   2.19822678E+02   4.34891319E+00   2.20160843E+02  -2.13089395E+00  -1.13255472E+01
             2511                4   2.20000000E+02   2.20738159E+02   2.20738159E+02   4.29223680E+00  -2.65152955E+00   2.20738159E+02   2.20738159E+02   4.29223680E+00  -2.65152955E+00   2.23389694E+02  -7.41262894E+01   2.19753250E+02   4.85476780E+00   2.20175629E+02  -2.65152955E+00  -1.10200243E+01
             2512                1   2.20000000E+02   2.34715683E+02   2.34715683E+02   1.56927147E+01   1.37515078E+01   2.34715683E+02   2.34715683E+02   1.56927147E+01   1.37515078E+01   2.20964172E+02  -8.80533066E+01   2.19980728E+02   1.59085884E+01   2.34499817E+02   1.37515078E+01  -6.87269306E+00
             2512                2   2.20000000E+02   2.34706909E+02   2.34706909E+02   1.64207993E+01   1.30321970E+01   2.34706909E+02   2.34706909E+02   1.64207993E+01   1.30321970E+01   2.21674713E+02  -8.80533066E+01   2.19941254E+02   1.66023064E+01   2.34525406E+02   1.30321970E+01  -6.29191923E+00
             2512                3   2.20000000E+02   2.34713165E+02   2.34713165E+02   1.59470510E+01   1.34996910E+01   2.34713165E+02   2.34713165E+02   1.59470510E+01   1.34996910E+01   2.21213470E+02  -8.80533066E+01   2.19969376E+02   1.62496262E+01   2.34410599E+02   1.34996910E+01  -8.13018417E+00
             2512                4   2.20000000E+02   2.34702682E+02   2.34702682E+02   1.66792145E+01   1.27780190E+01   2.34702682E+02   2.34702682E+02   1.66792145E+01   1.27780190E+01   2.21924667E+02  -8.80533066E+01   2.19922165E+02   1.69418545E+01   2.34440048E+02   1.27780190E+01  -7.56249046E+00
             2513                1   2.20000000E+02   2.12125824E+02   2.12125824E+02   3.42730212E+00  -1.76574612E+01   2.12125824E+02   2.12125824E+02   3.42730212E+00  -1.76574612E+01   2.29783295E+02  -6.59652252E+01   2.17709412E+02   3.47387075E+00   2.12079254E+02  -1.76574612E+01   3.11735964E+00
             2513                2   2.20000000E+02   2.12139099E+02   2.12139099E+02   3.28171253E+00  -1.75251503E+01   2.12139099E+02   2.12139099E+02   3.28171253E+00  -1.75251503E+01   2.29664246E+02  -6.59652176E+01   2.17769836E+02   3.41744709E+00   2.12003357E+02  -1.75251503E+01   5.32271814E+00
             2513                3   2.20000000E+02   2.12007492E+02   2.12007492E+02   4.65192699E+00  -1.87637596E+01   2.12007492E+02   2.12007492E+02   4.65192699E+00  -1.87637596E+01   2.30771255E+02  -6.59652176E+01   2.17169922E+02   4.70470619E+00   2.11954712E+02  -1.87637596E+01   3.30793881E+00
             2513                4   2.20000000E+02   2.12022995E+02   2.12022995E+02   4.49824429E+00  -1.86255798E+01   2.12022995E+02   2.12022995E+02   4.49824429E+00  -1.86255798E+01   2.30648575E+02  -6.59652176E+01   2.17240677E+02   4.64687920E+00   2.11874359E+02  -1.86255798E+01   5.55191040E+00
             2514                1   2.20000000E+02   2.34426285E+02   2.34426285E+02   1.81160851E+01   1.09133949E+01   2.34426285E+02   2.34426285E+02   1.81160851E+01   1.09133949E+01   2.23512894E+02  -8.78185959E+01   2.19734467E+02   1.81592865E+01   2.34383087E+02   1.09133949E+01  -3.05664372E+00
             2514                2   2.20000000E+02   2.34426773E+02   2.34426773E+02   1.81011066E+01   1.09278927E+01   2.34426773E+02   2.34426773E+02   1.81011066E+01   1.09278927E+01   2.23498871E+02  -8.78185959E+01   2.19736633E+02   1.81184521E+01   2.34409424E+02   1.09278927E+01  -1.93706262E+00
             2514                3   2.20000000E+02   2.34407593E+02   2.34407593E+02   1.86570702E+01   1.03911037E+01   2.34407593E+02   2.34407593E+02   1.86570702E+01   1.03911037E+01   2.24016495E+02  -8.78185959E+01   2.19650208E+02   1.86950130E+01   2.34369659E+02   1.03911037E+01  -2.86069131E+00
             2514                4   2.20000000E+02   2.34408173E+02   2.34408173E+02   1.86411247E+01   1.04064627E+01   2.34408173E+02   2.34408173E+02   1.86411247E+01   1.04064627E+01   2.24001709E+02  -8.78185806E+01   2.19652863E+02   1.86553841E+01   2.34393921E+02   1.04064627E+01  -1.75373578E+00
             2515                1   2.20000000E+02   2.47909943E+02   2.47909943E+02   2.77475929E+01   2.80726433E+01   2.47909943E+02   2.47909943E+02   2.80726433E+01   2.77475929E+01   2.20162354E+02  -1.01243385E+02   2.19999451E+02   2.77489624E+01   2.47908554E+02   2.80726433E+01   5.50707221E-01
             2515                2   2.20000000E+02   2.47909897E+02   2.47909897E+02   2.80948601E+01   2.77254066E+01   2.47909897E+02   2.47909897E+02   2.80948601E+01   2.77254066E+01   2.20184494E+02  -1.01243385E+02   2.19999283E+02   2.80957222E+01   2.47909027E+02   2.77254066E+01   4.36371446E-01
             2515                3   2.20000000E+02   2.47909851E+02   2.47909851E+02   2.76965961E+01   2.81237259E+01   2.47909851E+02   2.47909851E+02   2.81237259E+01   2.76965961E+01   2.20213257E+02  -1.01243385E+02   2.19999054E+02   2.76966095E+01   2.47909821E+02   2.81237259E+01  -6.73837662E-02
             2515                4   2.20000000E+02   2.47909973E+02   2.47909973E+02   2.80429668E+01   2.77772198E+01   2.47909973E+02   2.47909973E+02   2.80429668E+01   2.77772198E+01   2.20132751E+02  -1.01243385E+02   2.19999634E+02   2.80431232E+01   2.47909821E+02   2.77772198E+01  -1.84250653E-01
             2516                1   2.20000000E+02   2.05253860E+02   2.05253860E+02   5.61845303E-01  -2.73836918E+01   2.05253860E+02   2.05253860E+02   5.61845303E-01  -2.73836918E+01   2.32637558E+02  -5.94773369E+01   2.15952682E+02   6.24977171E-01   2.05190720E+02  -2.73836918E+01   3.59446120E+00
             2516                2   2.20000000E+02   2.05050201E+02   2.05050201E+02   2.17431068E+00  -2.87925205E+01   2.05050201E+02   2.05050201E+02   2.17431068E+00  -2.87925205E+01   2.33842728E+02  -5.94773293E+01   2.15014648E+02   2.23841596E+00   2.04986099E+02  -2.87925205E+01   3.60580635E+00
             2516                3   2.20000000E+02   2.05253342E+02   2.05253342E+02   5.65987825E-01  -2.73873444E+01   2.05253342E+02   2.05253342E+02   5.65987825E-01  -2.73873444E+01   2.32640686E+02  -5.94773293E+01   2.15950394E+02   5.69535911E-01   2.05249802E+02  -2.73873444E+01   8.52001011E-01
             2516                4   2.20000000E+02   2.05049637E+02   2.05049637E+02   2.17870283E+00  -2.87963333E+01   2.05049637E+02   2.05049637E+02   2.17870283E+00  -2.87963333E+01   2.33845963E+02  -5.94773369E+01   2.15011963E+02   2.18197632E+00   2.05046356E+02  -2.87963333E+01   8.14915001E-01
             2517                1   2.20000000E+02   2.42747055E+02   2.42747055E+02   2.37553902E+01   2.17523899E+01   2.42747055E+02   2.42747055E+02   2.37553902E+01   2.17523899E+01   2.20994659E+02  -9.60849380E+01   2.19979492E+02   2.37871532E+01   2.42715286E+02   2.17523899E+01   2.63726401E+00
             2517                2   2.20000000E+02   2.42750320E+02   2.42750320E+02   2.32858772E+01   2.22186298E+01   2.42750320E+02   2.42750320E+02   2.32858772E+01   2.22186298E+01   2.20531693E+02  -9.60849380E+01   2.19994186E+02   2.33307076E+01   2.42705490E+02   2.22186298E+01   3.13618135E+00
             2517                3   2.20000000E+02   2.42744781E+02   2.42744781E+02   2.39804688E+01   2.15295773E+01   2.42744781E+02   2.42744781E+02   2.39804688E+01   2.15295773E+01   2.21215210E+02  -9.60849380E+01   2.19969284E+02   2.40355206E+01   2.42689728E+02   2.15295773E+01   3.46996832E+00
             2517                4   2.20000000E+02   2.42749023E+02   2.42749023E+02   2.35059547E+01   2.19998379E+01   2.42749023E+02   2.42749023E+02   2.35059547E+01   2.19998379E+01   2.20749176E+02  -9.60849380E+01   2.19988403E+02   2.35777092E+01   2.42677277E+02   2.19998379E+01   3.96555591E+00
             2518                1   2.20000000E+02   2.21636627E+02   2.21636627E+02   2.45891953E+00   8.23455572E-01   2.21636627E+02   2.21636627E+02   2.45891953E+00   8.23455572E-01   2.20813171E+02  -7.49729996E+01   2.19986328E+02   2.97325730E+00   2.21122299E+02   8.23455572E-01   1.06049776E+01
             2518                2   2.20000000E+02   2.21639679E+02   2.21639679E+02   1.64706612E+00   1.63227379E+00   2.21639679E+02   2.21639679E+02   1.64706612E+00   1.63227379E+00   2.20007401E+02  -7.49730072E+01   2.20000000E+02   2.29948616E+00   2.20987259E+02   1.63227379E+00   1.19625044E+01
             2518                3   2.20000000E+02   2.21633179E+02   2.21633179E+02   2.83796859E+00   4.47865009E-01   2.21633179E+02   2.21633179E+02   2.83796859E+00   4.47865009E-01   2.21185318E+02  -7.49729996E+01   2.19970779E+02   3.56158400E+00   2.20909561E+02   4.47865009E-01   1.25618496E+01
             2518                4   2.20000000E+02   2.21639053E+02   2.21639053E+02   2.00840831E+00   1.27154911E+00   2.21639053E+02   2.21639053E+02   2.00840831E+00   1.27154911E+00   2.20367508E+02  -7.49729996E+01   2.19997223E+02   2.89151120E+00   2.20755951E+02   1.27154911E+00   1.38987894E+01
             2519                1   2.20000000E+02   2.45317917E+02   2.45317917E+02   2.61520538E+01   2.44931641E+01   2.45317917E+02   2.45317917E+02   2.61520538E+01   2.44931641E+01   2.20824753E+02  -9.86543808E+01   2.19985931E+02   2.61725178E+01   2.45297455E+02   2.44931641E+01  -2.11761642E+00
             2519                2   2.20000000E+02   2.45320084E+02   2.45320084E+02   2.57814407E+01   2.48616161E+01   2.45320084E+02   2.45320084E+02   2.57814407E+01   2.48616161E+01   2.20458481E+02  -9.86543808E+01   2.19995682E+02   2.58110390E+01   2.45290482E+02   2.48616161E+01  -2.54909611E+00
             2519                3   2.20000000E+02   2.45319214E+02   2.45319214E+02   2.59567547E+01   2.46871738E+01   2.45319214E+02   2.45319214E+02   2.59567547E+01   2.46871738E+01   2.20632034E+02  -9.86543808E+01   2.19991760E+02   2.59665298E+01   2.45309433E+02   2.46871738E+01  -1.46481240E+00
             2519                4   2.20000000E+02   2.45320709E+02   2.45320709E+02   2.55896835E+01   2.50527306E+01   2.45320709E+02   2.45320709E+02   2.55896835E+01   2.50527306E+01   2.20267990E+02  -9.86543808E+01   2.19998520E+02   2.56060829E+01   2.45304321E+02   2.50527306E+01  -1.89794993E+00
             2520                1   2.20000000E+02   2.21107971E+02   2.21107971E+02  -4.22714114E-01   2.67130017E+00   2.21107971E+02   2.21107971E+02   2.67130017E+00  -4.22714114E-01   2.21530685E+02  -7.44521866E+01   2.19951035E+02   3.65447909E-01   2.20319809E+02   2.67130017E+00  -1.31901817E+01
             2520                2   2.20000000E+02   2.21111267E+02   2.21111267E+02  -1.68418333E-01   2.41370010E+00   2.21111267E+02   2.21111267E+02   2.41370010E+00  -1.68418333E-01   2.21279694E+02  -7.44521866E+01   2.19965912E+02   3.86431068E-01   2.20556427E+02   2.41370010E+00  -1.10665512E+01
             2520                3   2.20000000E+02   2.21117996E+02   2.21117996E+02   6.84883058E-01   1.55368423E+00   2.21117996E+02   2.21117996E+02   1.55368423E+00   6.84883058E-01   2.20433105E+02  -7.44521866E+01   2.19996140E+02   1.55666876E+00   2.20246201E+02   1.55368423E+00  -1.38351345E+01
             2520                4   2.20000000E+02   2.21118744E+02   2.21118744E+02   9.62737620E-01   1.27507806E+00   2.21118744E+02   2.21118744E+02   1.27507806E+00   9.62737620E-01   2.20156006E+02  -7.44521866E+01   2.19999496E+02   1.58503950E+00   2.20496445E+02   1.27507806E+00  -1.16882734E+01
             2521                1   2.20000000E+02   2.17208054E+02   2.17208054E+02   6.22562647E+00  -1.08180885E+01   2.17208054E+02   2.17208054E+02   6.22562647E+00  -1.08180885E+01   2.28026154E+02  -7.08718643E+01   2.18507233E+02   6.29870415E+00   2.17134979E+02  -1.08180885E+01   3.92596507E+00
             2521                2   2.20000000E+02   2.17227692E+02   2.17227692E+02   5.95899963E+00  -1.05710964E+01   2.17227692E+02   2.17227692E+02   5.95899963E+00  -1.05710964E+01   2.27798782E+02  -7.08718643E+01   2.18596237E+02   6.12171364E+00   2.17064972E+02  -1.05710964E+01   5.86097765E+00
             2521                3   2.20000000E+02   2.17127335E+02   2.17127335E+02   7.24870300E+00  -1.17604446E+01   2.17127335E+02   2.17127335E+02   7.24870300E+00  -1.17604446E+01   2.28887787E+02  -7.08718643E+01   2.18140854E+02   7.33867311E+00   2.17037369E+02  -1.17604446E+01   4.34440517E+00
             2521                4   2.20000000E+02   2.17150406E+02   2.17150406E+02   6.96692896E+00  -1.15017490E+01   2.17150406E+02   2.17150406E+02   6.96692896E+00  -1.15017490E+01   2.28652161E+02  -7.08718643E+01   2.18245682E+02   7.15728951E+00   2.16960052E+02  -1.15017490E+01   6.32250071E+00
             2522                1   2.20000000E+02   2.21841476E+02   2.21841476E+02   1.07379074E+01  -6.08863640E+00   2.21841476E+02   2.21841476E+02   1.07379074E+01  -6.08863640E+00   2.27930115E+02  -7.54969177E+01   2.18545212E+02   1.07551966E+01   2.21824188E+02  -6.08863640E+00  -1.91073358E+00
             2522                2   2.20000000E+02   2.21841782E+02   2.21841782E+02   1.07339735E+01  -6.08499622E+00   2.21841782E+02   2.21841782E+02   1.07339735E+01  -6.08499622E+00   2.27926788E+02  -7.54969254E+01   2.18546524E+02   1.07930431E+01   2.21782715E+02  -6.08499622E+00  -3.53086996E+00
             2522                3   2.20000000E+02   2.21903793E+02   2.21903793E+02   9.85026932E+00  -5.26329613E+00   2.21903793E+02   2.21903793E+02   9.85026932E+00  -5.26329613E+00   2.27167084E+02  -7.54969254E+01   2.18827423E+02   9.86966896E+00   2.21884384E+02  -5.26329613E+00  -2.02844501E+00
             2522                4   2.20000000E+02   2.21904129E+02   2.21904129E+02   9.84514236E+00  -5.25850773E+00   2.21904129E+02   2.21904129E+02   9.84514236E+00  -5.25850773E+00   2.27162628E+02  -7.54969177E+01   2.18828964E+02   9.90949249E+00   2.21839767E+02  -5.25850773E+00  -3.69371176E+00
             2523                1   2.20000000E+02   2.34598770E+02   2.34598770E+02   1.86986008E+01   1.07162189E+01   2.34598770E+02   2.34598770E+02   1.86986008E+01   1.07162189E+01   2.23882538E+02  -8.80045242E+01   2.19673813E+02   1.87467117E+01   2.34550644E+02   1.07162189E+01   3.22283435E+00
             2523                2   2.20000000E+02   2.34588745E+02   2.34588745E+02   1.89706669E+01   1.04541588E+01   2.34588745E+02   2.34588745E+02   1.89706669E+01   1.04541588E+01   2.24134598E+02  -8.80045242E+01   2.19628647E+02   1.89886990E+01   2.34570724E+02   1.04541588E+01   1.97141075E+00
             2523                3   2.20000000E+02   2.34617935E+02   2.34617935E+02   1.81203423E+01   1.12753057E+01   2.34617935E+02   2.34617935E+02   1.81203423E+01   1.12753057E+01   2.23342636E+02  -8.80045242E+01   2.19760208E+02   1.81530991E+01   2.34585175E+02   1.12753057E+01   2.66316104E+00
             2523                4   2.20000000E+02   2.34609528E+02   2.34609528E+02   1.83845596E+01   1.10194845E+01   2.34609528E+02   2.34609528E+02   1.83845596E+01   1.10194845E+01   2.23590057E+02  -8.80045242E+01   2.19722351E+02   1.83938713E+01   2.34600220E+02   1.10194845E+01   1.41918766E+00
             2524                1   2.20000000E+02   2.48925262E+02   2.48925262E+02   2.90314598E+01   2.88192425E+01   2.48925262E+02   2.48925262E+02   2.90314598E+01   2.88192425E+01   2.20106018E+02  -1.02258659E+02   2.19999756E+02   2.90317764E+01   2.48924942E+02   2.88192425E+01   2.67208129E-01
             2524                2   2.20000000E+02   2.48925278E+02   2.48925278E+02   2.90107536E+01   2.88399143E+01   2.48925278E+02   2.48925278E+02   2.90107536E+01   2.88399143E+01   2.20085373E+02  -1.02258644E+02   2.19999878E+02   2.90108013E+01   2.48925247E+02   2.88399143E+01  -9.54298675E-02
             2524                3   2.20000000E+02   2.48925293E+02   2.48925293E+02   2.88281002E+01   2.90225906E+01   2.48925293E+02   2.48925293E+02   2.90225906E+01   2.88281002E+01   2.20097183E+02  -1.02258659E+02   2.19999802E+02   2.88285389E+01   2.48924835E+02   2.90225906E+01   3.13085377E-01
             2524                4   2.20000000E+02   2.48925262E+02   2.48925262E+02   2.88076210E+01   2.90430889E+01   2.48925262E+02   2.48925262E+02   2.90430889E+01   2.88076210E+01   2.20117630E+02  -1.02258659E+02   2.19999710E+02   2.88076267E+01   2.48925247E+02   2.90430889E+01  -4.86715585E-02
             2525                1   2.20000000E+02   2.04461929E+02   2.04461929E+02   5.74356735E-01  -2.87159729E+01   2.04461929E+02   2.04461929E+02   5.74356735E-01  -2.87159729E+01   2.33177902E+02  -5.87734375E+01   2.15547775E+02   5.74419677E-01   2.04461868E+02  -2.87159729E+01  -1.10965610E-01
             2525                2   2.20000000E+02   2.04462021E+02   2.04462021E+02   5.73689342E-01  -2.87153950E+01   2.04462021E+02   2.04462021E+02   5.73689342E-01  -2.87153950E+01   2.33177414E+02  -5.87734375E+01   2.15548172E+02   6.10649109E-01   2.04425064E+02  -2.87153950E+01   2.74458385E+00
             2525                3   2.20000000E+02   2.04238113E+02   2.04238113E+02   2.26933098E+00  -3.01871204E+01   2.04238113E+02   2.04238113E+02   2.26933098E+00  -3.01871204E+01   2.34425232E+02  -5.87734413E+01   2.14514313E+02   2.26943421E+00   2.04238007E+02  -3.01871204E+01  -1.48108169E-01
             2525                4   2.20000000E+02   2.04238205E+02   2.04238205E+02   2.26863480E+00  -3.01865234E+01   2.04238205E+02   2.04238205E+02   2.26863480E+00  -3.01865234E+01   2.34424728E+02  -5.87734375E+01   2.14514755E+02   2.30634880E+00   2.04200485E+02  -3.01865234E+01   2.75971580E+00
             2526                1   2.20000000E+02   2.41693054E+02   2.41693054E+02   2.14069557E+01   2.19802761E+01   2.41693054E+02   2.41693054E+02   2.19802761E+01   2.14069557E+01   2.20286102E+02  -9.50267639E+01   2.19998306E+02   2.14349804E+01   2.41665024E+02   2.19802761E+01   2.48457623E+00
             2526                2   2.20000000E+02   2.41692352E+02   2.41692352E+02   2.21827087E+01   2.12052364E+01   2.41692352E+02   2.41692352E+02   2.21827087E+01   2.12052364E+01   2.20487122E+02  -9.50267639E+01   2.19995117E+02   2.22075863E+01   2.41667465E+02   2.12052364E+01   2.33682775E+00
             2526                3   2.20000000E+02   2.41692856E+02   2.41692856E+02   2.13417168E+01   2.20457039E+01   2.41692856E+02   2.41692856E+02   2.20457039E+01   2.13417168E+01   2.20351151E+02  -9.50267639E+01   2.19997452E+02   2.13471527E+01   2.41687424E+02   2.20457039E+01   1.09447479E+00
             2526                4   2.20000000E+02   2.41692627E+02   2.41692627E+02   2.21148663E+01   2.12727985E+01   2.41692627E+02   2.41692627E+02   2.21148663E+01   2.12727985E+01   2.20419830E+02  -9.50267639E+01   2.19996384E+02   2.21188316E+01   2.41688660E+02   2.12727985E+01   9.33550239E-01
             2527                1   2.20000000E+02   2.44940170E+02   2.44940170E+02   2.55175934E+01   2.43672523E+01   2.44940170E+02   2.44940170E+02   2.55175934E+01   2.43672523E+01   2.20572922E+02  -9.82750015E+01   2.19993240E+02   2.55416222E+01   2.44916138E+02   2.43672523E+01  -2.29621911E+00
             2527                2   2.20000000E+02   2.44941666E+02   2.44941666E+02   2.50004749E+01   2.48828831E+01   2.44941666E+02   2.44941666E+02   2.50004749E+01   2.48828831E+01   2.20058777E+02  -9.82750015E+01   2.19999924E+02   2.50308247E+01   2.44911301E+02   2.48828831E+01  -2.58365893E+00
             2527                3   2.20000000E+02   2.44940765E+02   2.44940765E+02   2.53877888E+01   2.44964581E+01   2.44940765E+02   2.44940765E+02   2.53877888E+01   2.44964581E+01   2.20444305E+02  -9.82750015E+01   2.19995926E+02   2.53963852E+01   2.44932159E+02   2.44964581E+01  -1.37442029E+00
             2527                4   2.20000000E+02   2.44941635E+02   2.44941635E+02   2.48739758E+01   2.50093822E+01   2.44941635E+02   2.44941635E+02   2.50093822E+01   2.48739758E+01   2.20067657E+02  -9.82749939E+01   2.19999924E+02   2.48866062E+01   2.44929016E+02   2.50093822E+01  -1.66708326E+00
             2528                1   2.20000000E+02   2.35637924E+02   2.35637924E+02   1.56625814E+01   1.56132851E+01   2.35637924E+02   2.35637924E+02   1.56625814E+01   1.56132851E+01   2.20024643E+02  -8.89712601E+01   2.19999985E+02   1.57973852E+01   2.35503128E+02   1.56132851E+01  -5.44369602E+00
             2528                2   2.20000015E+02   2.35634140E+02   2.35634140E+02   1.65551815E+01   1.47244978E+01   2.35634140E+02   2.35634140E+02   1.65551815E+01   1.47244978E+01   2.20909637E+02  -8.89712753E+01   2.19982864E+02   1.66775036E+01   2.35511810E+02   1.47244978E+01  -5.17528915E+00
             2528                3   2.20000000E+02   2.35637863E+02   2.35637863E+02   1.57662191E+01   1.55097294E+01   2.35637863E+02   2.35637863E+02   1.57662191E+01   1.55097294E+01   2.20128128E+02  -8.89712753E+01   2.19999664E+02   1.59921837E+01   2.35411896E+02   1.55097294E+01  -7.04506016E+00
             2528                4   2.20000000E+02   2.35633179E+02   2.35633179E+02   1.66639576E+01   1.46166792E+01   2.35633179E+02   2.35633179E+02   1.66639576E+01   1.46166792E+01   2.21016495E+02  -8.89712753E+01   2.19978561E+02   1.68749504E+01   2.35422180E+02   1.46166792E+01  -6.79391575E+00
             2529                1   2.20000000E+02   2.18505157E+02   2.18505157E+02  -3.99851513E+00   1.09736228E+00   2.18505157E+02   2.18505157E+02   1.09736228E+00  -3.99851513E+00   2.22503662E+02  -7.18680038E+01   2.19867142E+02  -3.13739562E+00   2.17644028E+02   1.09736228E+00  -1.38152781E+01
             2529                2   2.20000000E+02   2.18513489E+02   2.18513489E+02  -3.61258602E+00   7.03087330E-01   2.18513489E+02   2.18513489E+02   7.03087330E-01  -3.61258602E+00   2.22126083E+02  -7.18680038E+01   2.19904709E+02  -3.02905798E+00   2.17929962E+02   7.03087330E-01  -1.13700237E+01
             2529                3   2.20000000E+02   2.18526550E+02   2.18526550E+02  -2.79666376E+00  -1.25895441E-01   2.18526550E+02   2.18526550E+02  -1.25895441E-01  -2.79666376E+00   2.21323212E+02  -7.18679962E+01   2.19963516E+02  -1.81279504E+00   2.17542679E+02  -1.25895441E-01  -1.47236586E+01
             2529                4   2.20000000E+02   2.18530777E+02   2.18530777E+02  -2.38854718E+00  -5.38225055E-01   2.18530777E+02   2.18530777E+02  -5.38225055E-01  -2.38854718E+00   2.20919327E+02  -7.18680038E+01   2.19982483E+02  -1.70798457E+00   2.17850204E+02  -5.38225055E-01  -1.22428694E+01
             2530                1   2.20000000E+02   2.37077271E+02   2.37077271E+02   1.83721104E+01   1.58049107E+01   2.37077271E+02   2.37077271E+02   1.83721104E+01   1.58049107E+01   2.21272369E+02  -9.04180984E+01   2.19966293E+02   1.84958286E+01   2.36953552E+02   1.58049107E+01   5.20036173E+00
             2530                2   2.20000000E+02   2.37083267E+02   2.37083267E+02   1.76587982E+01   1.65122128E+01   2.37083267E+02   2.37083267E+02   1.76587982E+01   1.65122128E+01   2.20571060E+02  -9.04180908E+01   2.19993286E+02   1.78069839E+01   2.36935089E+02   1.65122128E+01   5.70017481E+00
             2530                3   2.20000000E+02   2.37074493E+02   2.37074493E+02   1.85933266E+01   1.55864677E+01   2.37074493E+02   2.37074493E+02   1.85933266E+01   1.55864677E+01   2.21488022E+02  -9.04180908E+01   2.19953781E+02   1.87859383E+01   2.36881882E+02   1.55864677E+01   6.48412657E+00
             2530                4   2.20000000E+02   2.37081970E+02   2.37081970E+02   1.78684177E+01   1.63038864E+01   2.37081970E+02   2.37081970E+02   1.78684177E+01   1.63038864E+01   2.20778091E+02  -9.04180908E+01   2.19987488E+02   1.80907021E+01   2.36859695E+02   1.63038864E+01   6.97692680E+00
             2531                1   2.20000000E+02   2.47002136E+02   2.47002136E+02   2.76654339E+01   2.63447685E+01   2.47002136E+02   2.47002136E+02   2.76654339E+01   2.63447685E+01   2.20657364E+02  -1.00337440E+02   2.19991089E+02   2.76669331E+01   2.47000626E+02   2.63447685E+01   5.74567437E-01
             2531                2   2.20000000E+02   2.47001770E+02   2.47001770E+02   2.77215881E+01   2.62889652E+01   2.47001770E+02   2.47001770E+02   2.77215881E+01   2.62889652E+01   2.20712799E+02  -1.00337440E+02   2.19989487E+02   2.77216721E+01   2.47001678E+02   2.62889652E+01   1.41416401E-01
             2531                3   2.20000000E+02   2.47003128E+02   2.47003128E+02   2.74707870E+01   2.65384140E+01   2.47003128E+02   2.47003128E+02   2.74707870E+01   2.65384140E+01   2.20464706E+02  -1.00337440E+02   2.19995544E+02   2.74718189E+01   2.47002090E+02   2.65384140E+01   4.75575656E-01
             2531                4   2.20000000E+02   2.47002869E+02   2.47002869E+02   2.75264034E+01   2.64830513E+01   2.47002869E+02   2.47002869E+02   2.75264034E+01   2.64830513E+01   2.20519806E+02  -1.00337440E+02   2.19994415E+02   2.75264072E+01   2.47002853E+02   2.64830513E+01   4.36374210E-02
             2532                1   2.20000000E+02   2.26777588E+02   2.26777588E+02   1.36558638E+01   4.90606308E-01   2.26777588E+02   2.26777588E+02   1.36558638E+01   4.90606308E-01   2.26286987E+02  -8.03080215E+01   2.19111099E+02   1.36778898E+01   2.26755569E+02   4.90606308E-01  -2.16638136E+00
             2532                2   2.20000000E+02   2.26769547E+02   2.26769547E+02   1.37929564E+01   3.61564308E-01   2.26769547E+02   2.26769547E+02   1.37929564E+01   3.61564308E-01   2.26407974E+02  -8.03080215E+01   2.19074692E+02   1.38495398E+01   2.26712967E+02   3.61564308E-01  -3.47077584E+00
             2532                3   2.20000000E+02   2.26816727E+02   2.26816727E+02   1.29471388E+01   1.16019785E+00   2.26816727E+02   2.26816727E+02   1.29471388E+01   1.16019785E+00   2.25656540E+02  -8.03080215E+01   2.19287888E+02   1.29824133E+01   2.26781464E+02   1.16019785E+00  -2.74617720E+00
             2532                4   2.20000000E+02   2.26809570E+02   2.26809570E+02   1.30828276E+01   1.03167760E+00   2.26809570E+02   2.26809570E+02   1.30828276E+01   1.03167760E+00   2.25777893E+02  -8.03080215E+01   2.19255539E+02   1.31611662E+01   2.26731232E+02   1.03167760E+00  -4.09099770E+00
             2533                1   2.20000000E+02   2.17059158E+02   2.17059158E+02   6.73884010E+00  -1.14866667E+01   2.17059158E+02   2.17059158E+02   6.73884010E+00  -1.14866667E+01   2.28545837E+02  -7.07704468E+01   2.18291824E+02   6.76808691E+00   2.17029922E+02  -1.14866667E+01   2.47977304E+00
             2533                2   2.20000000E+02   2.17075226E+02   2.17075226E+02   6.53516579E+00  -1.12990580E+01   2.17075226E+02   2.17075226E+02   6.53516579E+00  -1.12990580E+01   2.28374283E+02  -7.07704468E+01   2.18364777E+02   6.63329744E+00   2.16977097E+02  -1.12990580E+01   4.54441595E+00
             2533                3   2.20000000E+02   2.16965134E+02   2.16965134E+02   7.85474682E+00  -1.25085516E+01   2.16965134E+02   2.16965134E+02   7.85474682E+00  -1.25085516E+01   2.29473694E+02  -7.07704468E+01   2.17864578E+02   7.89323378E+00   2.16926651E+02  -1.25085516E+01   2.83666277E+00
             2533                4   2.20000000E+02   2.16984024E+02   2.16984024E+02   7.63987398E+00  -1.23125648E+01   2.16984024E+02   2.16984024E+02   7.63987398E+00  -1.23125648E+01   2.29296585E+02  -7.07704468E+01   2.17950470E+02   7.75624418E+00   2.16867661E+02  -1.23125648E+01   4.93428564E+00
             2534                1   2.20000000E+02   2.39205658E+02   2.39205658E+02   2.06058731E+01   1.78316574E+01   2.39205658E+02   2.39205658E+02   2.06058731E+01   1.78316574E+01   2.21373993E+02  -9.25477295E+01   2.19960617E+02   2.06876717E+01   2.39123840E+02   1.78316574E+01   4.22793055E+00
             2534                2   2.20000000E+02   2.39211456E+02   2.39211456E+02   2.00197430E+01   1.84119720E+01   2.39211456E+02   2.39211456E+02   2.00197430E+01   1.84119720E+01   2.20799484E+02  -9.25477295E+01   2.19986771E+02   2.01252174E+01   2.39105988E+02   1.84119720E+01   4.80700493E+00
             2534                3   2.20000015E+02   2.39202148E+02   2.39202148E+02   2.08620300E+01   1.75790062E+01   2.39202148E+02   2.39202148E+02   2.08620300E+01   1.75790062E+01   2.21623138E+02  -9.25477295E+01   2.19944870E+02   2.09891586E+01   2.39075012E+02   1.75790062E+01   5.26715279E+00
             2534                4   2.20000000E+02   2.39209335E+02   2.39209335E+02   2.02703686E+01   1.81634521E+01   2.39209335E+02   2.39209335E+02   2.02703686E+01   1.81634521E+01   2.21045883E+02  -9.25477219E+01   2.19977295E+02   2.04262123E+01   2.39053497E+02   1.81634521E+01   5.83911896E+00
             2535                1   2.20000000E+02   2.04096161E+02   2.04096161E+02   5.86636722E-01  -2.93320656E+01   2.04096161E+02   2.04096161E+02   5.86636722E-01  -2.93320656E+01   2.33428223E+02  -5.84502449E+01   2.15351639E+02   5.92542708E-01   2.04090256E+02  -2.93320656E+01  -1.09647977E+00
             2535                2   2.20000000E+02   2.04095139E+02   2.04095139E+02   5.94628751E-01  -2.93390331E+01   2.04095139E+02   2.04095139E+02   5.94628751E-01  -2.93390331E+01   2.33434174E+02  -5.84502449E+01   2.15346939E+02   6.11693084E-01   2.04078079E+02  -2.93390331E+01   1.86348093E+00
             2535                3   2.20000000E+02   2.03858154E+02   2.03858154E+02   2.35169005E+00  -3.08591080E+01   2.03858154E+02   2.03858154E+02   2.35169005E+00  -3.08591080E+01   2.34717255E+02  -5.84502449E+01   2.14251297E+02   2.35814667E+00   2.03851700E+02  -3.08591080E+01  -1.13994181E+00
             2535                4   2.20000000E+02   2.03856949E+02   2.03856949E+02   2.36024737E+00  -3.08664494E+01   2.03856949E+02   2.03856949E+02   2.36024737E+00  -3.08664494E+01   2.34723389E+02  -5.84502449E+01   2.14245697E+02   2.37771821E+00   2.03839478E+02  -3.08664494E+01   1.87605083E+00
             2536                1   2.20000000E+02   2.49351669E+02   2.49351669E+02   2.93340302E+01   2.93693104E+01   2.49351669E+02   2.49351669E+02   2.93693104E+01   2.93340302E+01   2.20017639E+02  -1.02685005E+02   2.19999985E+02   2.93341274E+01   2.49351578E+02   2.93693104E+01   1.42285302E-01
             2536                2   2.20000000E+02   2.49351669E+02   2.49351669E+02   2.93918896E+01   2.93114643E+01   2.49351669E+02   2.49351669E+02   2.93918896E+01   2.93114643E+01   2.20040207E+02  -1.02685005E+02   2.19999969E+02   2.93918896E+01   2.49351669E+02   2.93114643E+01   2.22816896E-02
             2536                3   2.20000000E+02   2.49351654E+02   2.49351654E+02   2.92807312E+01   2.94226379E+01   2.49351654E+02   2.49351654E+02   2.94226379E+01   2.92807312E+01   2.20070923E+02  -1.02685005E+02   2.19999878E+02   2.92807369E+01   2.49351639E+02   2.94226379E+01   3.94024327E-02
             2536                4   2.20000000E+02   2.49351669E+02   2.49351669E+02   2.93384266E+01   2.93649178E+01   2.49351669E+02   2.49351669E+02   2.93649178E+01   2.93384266E+01   2.20013245E+02  -1.02685005E+02   2.19999985E+02   2.93384571E+01   2.49351639E+02   2.93649178E+01  -8.05765763E-02
             2537                1   2.20000000E+02   2.48137604E+02   2.48137604E+02   2.85422039E+01   2.77352295E+01   2.48137604E+02   2.48137604E+02   2.85422039E+01   2.77352295E+01   2.20402374E+02  -1.01471680E+02   2.19996689E+02   2.85425091E+01   2.48137314E+02   2.77352295E+01  -2.56666213E-01
             2537                2   2.20000000E+02   2.48137878E+02   2.48137878E+02   2.84567852E+01   2.78203678E+01   2.48137878E+02   2.48137878E+02   2.84567852E+01   2.78203678E+01   2.20317520E+02  -1.01471680E+02   2.19997940E+02   2.84582195E+01   2.48136459E+02   2.78203678E+01  -5.60345769E-01
             2537                3   2.20000000E+02   2.48138016E+02   2.48138016E+02   2.84060764E+01   2.78709545E+01   2.48138016E+02   2.48138016E+02   2.84060764E+01   2.78709545E+01   2.20267059E+02  -1.01471680E+02   2.19998535E+02   2.84061203E+01   2.48137970E+02   2.78709545E+01  -1.06167667E-01
             2537                4   2.20000000E+02   2.48138184E+02   2.48138184E+02   2.83212204E+01   2.79556217E+01   2.48138184E+02   2.48138184E+02   2.83212204E+01   2.79556217E+01   2.20182571E+02  -1.01471680E+02   2.19999329E+02   2.83219910E+01   2.48137436E+02   2.79556217E+01  -4.09370422E-01
             2538                1   2.20000000E+02   2.48886276E+02   2.48886276E+02   2.90745144E+01   2.86985130E+01   2.48886276E+02   2.48886276E+02   2.90745144E+01   2.86985130E+01   2.20187759E+02  -1.02219765E+02   2.19999283E+02   2.90746441E+01   2.48886154E+02   2.86985130E+01  -1.65413991E-01
             2538                2   2.20000000E+02   2.48886398E+02   2.48886398E+02   2.89874992E+01   2.87854233E+01   2.48886398E+02   2.48886398E+02   2.89874992E+01   2.87854233E+01   2.20100983E+02  -1.02219780E+02   2.19999771E+02   2.89881630E+01   2.48885727E+02   2.87854233E+01  -3.82991433E-01
             2538                3   2.20000000E+02   2.48886398E+02   2.48886398E+02   2.89773407E+01   2.87955742E+01   2.48886398E+02   2.48886398E+02   2.89773407E+01   2.87955742E+01   2.20090820E+02  -1.02219765E+02   2.19999832E+02   2.89773369E+01   2.48886398E+02   2.87955742E+01  -1.12216817E-02
             2538                4   2.20000000E+02   2.48886429E+02   2.48886429E+02   2.88907299E+01   2.88821392E+01   2.48886429E+02   2.48886429E+02   2.88907299E+01   2.88821392E+01   2.20004288E+02  -1.02219765E+02   2.20000015E+02   2.88909721E+01   2.48886200E+02   2.88821392E+01  -2.28639409E-01
             2539                1   2.20000000E+02   2.16100906E+02   2.16100906E+02  -7.37329674E+00  -2.51953512E-01   2.16100906E+02   2.16100906E+02  -2.51953512E-01  -7.37329674E+00   2.23474213E+02  -6.94918900E+01   2.19740448E+02  -6.47294426E+00   2.15200562E+02  -2.51953512E-01  -1.41560774E+01
             2539                2   2.20000000E+02   2.16117142E+02   2.16117142E+02  -6.83907700E+00  -8.02393019E-01   2.16117142E+02   2.16117142E+02  -8.02393019E-01  -6.83907700E+00   2.22956207E+02  -6.94918900E+01   2.19813538E+02  -6.25142097E+00   2.15529480E+02  -8.02393019E-01  -1.14313869E+01
             2539                3   2.20000000E+02   2.16136612E+02   2.16136612E+02  -6.02708817E+00  -1.63387024E+00   2.16136612E+02   2.16136612E+02  -1.63387024E+00  -6.02708817E+00   2.22163712E+02  -6.94918900E+01   2.19901260E+02  -4.94625473E+00   2.15055786E+02  -1.63387024E+00  -1.54581032E+01
             2539                4   2.20000000E+02   2.16146927E+02   2.16146927E+02  -5.43498087E+00  -2.23627520E+00   2.16146927E+02   2.16146927E+02  -2.23627520E+00  -5.43498087E+00   2.21581909E+02  -6.94918900E+01   2.19947662E+02  -4.70340490E+00   2.15415344E+02  -2.23627520E+00  -1.27110147E+01
             2540                1   2.20000000E+02   2.00537064E+02   2.00537064E+02  -3.25500412E+01  -3.48675394E+00   2.00537064E+02   2.00537064E+02  -3.48675394E+00  -3.25500412E+01   2.33087112E+02  -5.48334236E+01   2.15617538E+02  -3.25485878E+01   2.00535614E+02  -3.48675394E+00   5.82602382E-01
             2540                2   2.20000000E+02   2.00043549E+02   2.00043549E+02  -3.56279869E+01   8.47181752E-02   2.00043549E+02   2.00043549E+02   8.47181752E-02  -3.56279869E+01   2.35671524E+02  -5.48334236E+01   2.13331985E+02  -3.53497620E+01   1.99765320E+02   8.47181752E-02  -8.09272861E+00
             2540                3   2.20000000E+02   1.99997803E+02   1.99997803E+02  -3.58818970E+01   3.84358883E-01   1.99997803E+02   1.99997803E+02   3.84358883E-01  -3.58818970E+01   2.35879700E+02  -5.48334198E+01   2.13118744E+02  -3.54679794E+01   1.99583893E+02   3.84358883E-01   9.87228680E+00
             2540                4   2.20000000E+02   1.99503067E+02   1.99503067E+02  -3.83904953E+01   3.38770008E+00   1.99503067E+02   1.99503067E+02   3.38770008E+00  -3.83904953E+01   2.37893555E+02  -5.48334198E+01   2.10796112E+02  -3.83854485E+01   1.99498016E+02   3.38770008E+00   1.09540796E+00
             2541                1   2.20000000E+02   2.31011642E+02   2.31011642E+02   1.66952705E+01   5.73754072E+00   2.31011642E+02   2.31011642E+02   1.66952705E+01   5.73754072E+00   2.25274094E+02  -8.44814835E+01   2.19384750E+02   1.67124557E+01   2.30994446E+02   5.73754072E+00  -1.91951811E+00
             2541                2   2.20000000E+02   2.31025513E+02   2.31025513E+02   1.64026203E+01   6.01631880E+00   2.31025513E+02   2.31025513E+02   1.64026203E+01   6.01631880E+00   2.25009186E+02  -8.44814835E+01   2.19447357E+02   1.64534378E+01   2.30974686E+02   6.01631880E+00  -3.30236864E+00
             2541                3   2.20000000E+02   2.31036057E+02   2.31036057E+02   1.61689587E+01   6.23941755E+00   2.31036057E+02   2.31036057E+02   1.61689587E+01   6.23941755E+00   2.24796646E+02  -8.44814758E+01   2.19494980E+02   1.61720295E+01   2.31032990E+02   6.23941755E+00  -8.11916947E-01
             2541                4   2.20000000E+02   2.31049103E+02   2.31049103E+02   1.58649273E+01   6.53041315E+00   2.31049103E+02   2.31049103E+02   1.58649273E+01   6.53041315E+00   2.24518692E+02  -8.44814835E+01   2.19553787E+02   1.58862333E+01   2.31027802E+02   6.53041315E+00  -2.14092898E+00
             2542                1   2.20000000E+02   2.45330399E+02   2.45330399E+02   2.62213058E+01   2.44501801E+01   2.45330399E+02   2.45330399E+02   2.62213058E+01   2.44501801E+01   2.20880219E+02  -9.86672974E+01   2.19983948E+02   2.62213154E+01   2.45330383E+02   2.44501801E+01   4.29521911E-02
             2542                2   2.20000000E+02   2.45330826E+02   2.45330826E+02   2.61657200E+01   2.45053329E+01   2.45330826E+02   2.45330826E+02   2.61657200E+01   2.45053329E+01   2.20825500E+02  -9.86672974E+01   2.19985901E+02   2.61676044E+01   2.45328949E+02   2.45053329E+01   6.42187834E-01
             2542                3   2.20000000E+02   2.45327866E+02   2.45327866E+02   2.64947376E+01   2.41792736E+01   2.45327866E+02   2.45327866E+02   2.64947376E+01   2.41792736E+01   2.21148590E+02  -9.86672897E+01   2.19972595E+02   2.64948311E+01   2.45327774E+02   2.41792736E+01   1.39735684E-01
             2542                4   2.20000000E+02   2.45328445E+02   2.45328445E+02   2.64383736E+01   2.42350693E+01   2.45328445E+02   2.45328445E+02   2.64383736E+01   2.42350693E+01   2.21093369E+02  -9.86672974E+01   2.19975159E+02   2.64408836E+01   2.45325928E+02   2.42350693E+01   7.41708219E-01
             2543                1   2.20000000E+02   2.46875916E+02   2.46875916E+02   2.76187134E+01   2.61405735E+01   2.46875916E+02   2.46875916E+02   2.76187134E+01   2.61405735E+01   2.20735336E+02  -1.00211731E+02   2.19988831E+02   2.76191406E+01   2.46875488E+02   2.61405735E+01  -3.06346893E-01
             2543                2   2.20000015E+02   2.46876480E+02   2.46876480E+02   2.75329800E+01   2.62257690E+01   2.46876480E+02   2.46876480E+02   2.75329800E+01   2.62257690E+01   2.20650711E+02  -1.00211739E+02   2.19991257E+02   2.75357246E+01   2.46873718E+02   2.62257690E+01  -7.76539624E-01
             2543                3   2.20000000E+02   2.46877136E+02   2.46877136E+02   2.74067326E+01   2.63513451E+01   2.46877136E+02   2.46877136E+02   2.74067326E+01   2.63513451E+01   2.20525803E+02  -1.00211739E+02   2.19994293E+02   2.74068375E+01   2.46877029E+02   2.63513451E+01  -1.56873256E-01
             2543                4   2.20000000E+02   2.46877518E+02   2.46877518E+02   2.73218861E+01   2.64358120E+01   2.46877518E+02   2.46877518E+02   2.73218861E+01   2.64358120E+01   2.20441696E+02  -1.00211739E+02   2.19995987E+02   2.73236675E+01   2.46875732E+02   2.64358120E+01  -6.25716984E-01
             2544                1   2.20000000E+02   2.10864380E+02   2.10864380E+02   3.85544705E+00  -2.01566525E+01   2.10864380E+02   2.10864380E+02   3.85544705E+00  -2.01566525E+01   2.31021042E+02  -6.48543930E+01   2.17022446E+02   3.85814881E+00   2.10861679E+02  -2.01566525E+01  -7.48601496E-01
             2544                2   2.20000000E+02   2.10866882E+02   2.10866882E+02   3.83138561E+00  -2.01350937E+01   2.10866882E+02   2.10866882E+02   3.83138561E+00  -2.01350937E+01   2.31001984E+02  -6.48543930E+01   2.17033890E+02   3.84634233E+00   2.10851929E+02  -2.01350937E+01   1.75973642E+00
             2544                3   2.20000000E+02   2.10708649E+02   2.10708649E+02   5.27773905E+00  -2.14232178E+01   2.10708649E+02   2.10708649E+02   5.27773905E+00  -2.14232178E+01   2.32131866E+02  -6.48543930E+01   2.16309555E+02   5.28035212E+00   2.10706039E+02  -2.14232178E+01  -7.32342482E-01
             2544                4   2.20000000E+02   2.10711594E+02   2.10711594E+02   5.25208759E+00  -2.14005146E+01   2.10711594E+02   2.10711594E+02   5.25208759E+00  -2.14005146E+01   2.32112106E+02  -6.48543930E+01   2.16323059E+02   5.26828432E+00   2.10695404E+02  -2.14005146E+01   1.82390714E+00
             2545                1   2.20000000E+02   2.24321533E+02   2.24321533E+02   3.64462090E+00   5.00476456E+00   2.24321533E+02   2.24321533E+02   5.00476456E+00   3.64462090E+00   2.20676910E+02  -7.76569748E+01   2.19990540E+02   4.08385372E+00   2.23882309E+02   5.00476456E+00  -9.83535290E+00
             2545                2   2.20000000E+02   2.24322571E+02   2.24322571E+02   4.81047821E+00   3.83788490E+00   2.24322571E+02   2.24322571E+02   4.81047821E+00   3.83788490E+00   2.20484680E+02  -7.76569748E+01   2.19995148E+02   5.26065207E+00   2.23872391E+02   3.83788490E+00  -9.93054104E+00
             2545                3   2.20000000E+02   2.24321121E+02   2.24321121E+02   3.57986426E+00   5.06994200E+00   2.24321121E+02   2.24321121E+02   5.06994200E+00   3.57986426E+00   2.20741257E+02  -7.76569748E+01   2.19988647E+02   4.22850657E+00   2.23672485E+02   5.06994200E+00  -1.19482231E+01
             2545                4   2.20000000E+02   2.24322891E+02   2.24322891E+02   4.73344612E+00   3.91460967E+00   2.24322891E+02   2.24322891E+02   4.73344612E+00   3.91460967E+00   2.20408279E+02  -7.76569824E+01   2.19996567E+02   5.39928770E+00   2.23657043E+02   3.91460967E+00  -1.20734987E+01
             2546                1   2.20000000E+02   2.18880676E+02   2.18880676E+02   2.56698799E+00  -4.62906790E+00   2.18880676E+02   2.18880676E+02   2.56698799E+00  -4.62906790E+00   2.23509735E+02  -7.22728653E+01   2.19734970E+02   2.99278712E+00   2.18454880E+02  -4.62906790E+00  -9.58769608E+00
             2546                2   2.20000000E+02   2.18865036E+02   2.18865036E+02   3.02466750E+00  -5.07110310E+00   2.18865036E+02   2.18865036E+02   3.02466750E+00  -5.07110310E+00   2.23936142E+02  -7.22728653E+01   2.19664490E+02   3.38086081E+00   2.18508850E+02  -5.07110310E+00  -8.76091862E+00
             2546                3   2.20000000E+02   2.18866867E+02   2.18866867E+02   2.97355485E+00  -5.02182674E+00   2.18866867E+02   2.18866867E+02   2.97355485E+00  -5.02182674E+00   2.23888702E+02  -7.22728653E+01   2.19672745E+02   3.47108626E+00   2.18369339E+02  -5.02182674E+00  -1.03520927E+01
             2546                4   2.20000000E+02   2.18849533E+02   2.18849533E+02   3.43369961E+00  -5.46463013E+00   2.18849533E+02   2.18849533E+02   3.43369961E+00  -5.46463013E+00   2.24314163E+02  -7.22728653E+01   2.19594574E+02   3.85667825E+00   2.18426559E+02  -5.46463013E+00  -9.53606415E+00
             2547                1   2.20000000E+02   2.37658997E+02   2.37658997E+02   1.83062992E+01   1.70173817E+01   2.37658997E+02   2.37658997E+02   1.83062992E+01   1.70173817E+01   2.20641617E+02  -9.09942322E+01   2.19991486E+02   1.83889885E+01   2.37576309E+02   1.70173817E+01  -4.25819302E+00
             2547                2   2.20000000E+02   2.37660522E+02   2.37660522E+02   1.73756542E+01   1.79465008E+01   2.37660522E+02   2.37660522E+02   1.79465008E+01   1.73756542E+01   2.20284866E+02  -9.09942245E+01   2.19998352E+02   1.74630299E+01   2.37573151E+02   1.79465008E+01  -4.38626003E+00
             2547                3   2.20000000E+02   2.37659317E+02   2.37659317E+02   1.82501564E+01   1.70732079E+01   2.37659317E+02   2.37659317E+02   1.82501564E+01   1.70732079E+01   2.20586105E+02  -9.09942245E+01   2.19992920E+02   1.82801361E+01   2.37629333E+02   1.70732079E+01  -2.56457782E+00
             2547                4   2.20000000E+02   2.37660370E+02   2.37660370E+02   1.73221474E+01   1.80001583E+01   2.37660370E+02   2.37660370E+02   1.80001583E+01   1.73221474E+01   2.20338226E+02  -9.09942245E+01   2.19997650E+02   1.73555355E+01   2.37626984E+02   1.80001583E+01  -2.71189904E+00
             2548                1   2.20000000E+02   2.36701965E+02   2.36701965E+02   1.72456379E+01   1.61622772E+01   2.36701965E+02   2.36701965E+02   1.72456379E+01   1.61622772E+01   2.20539688E+02  -9.00366211E+01   2.19994019E+02   1.74028988E+01   2.36544708E+02   1.61622772E+01  -5.87248802E+00
             2548                2   2.20000000E+02   2.36695770E+02   2.36695770E+02   1.79935570E+01   1.54205456E+01   2.36695770E+02   2.36695770E+02   1.79935570E+01   1.54205456E+01   2.21275223E+02  -9.00366211E+01   2.19966171E+02   1.81282730E+01   2.36561066E+02   1.54205456E+01  -5.42613602E+00
             2548                3   2.20000000E+02   2.36700851E+02   2.36700851E+02   1.74355412E+01   1.59734726E+01   2.36700851E+02   2.36700851E+02   1.74355412E+01   1.59734726E+01   2.20727386E+02  -9.00366211E+01   2.19989075E+02   1.76716785E+01   2.36464722E+02   1.59734726E+01  -7.19171238E+00
             2548                4   2.20000000E+02   2.36693329E+02   2.36693329E+02   1.81889648E+01   1.52275953E+01   2.36693329E+02   2.36693329E+02   1.81889648E+01   1.52275953E+01   2.21465729E+02  -9.00366287E+01   2.19955139E+02   1.83981247E+01   2.36484161E+02   1.52275953E+01  -6.75725126E+00
             2549                1   2.20000000E+02   2.21906250E+02   2.21906250E+02   9.16188717E+00  -4.69437647E+00   2.21906250E+02   2.21906250E+02   9.16188717E+00  -4.69437647E+00   2.26600616E+02  -7.54579163E+01   2.19015015E+02   9.23788071E+00   2.21830246E+02  -4.69437647E+00   4.02021790E+00
             2549                2   2.20000000E+02   2.21934937E+02   2.21934937E+02   8.67644501E+00  -4.23764467E+00   2.21934937E+02   2.21934937E+02   8.67644501E+00  -4.23764467E+00   2.26172592E+02  -7.54579163E+01   2.19144775E+02   8.83885765E+00   2.21772537E+02  -4.23764467E+00   5.88287497E+00
             2549                3   2.20000000E+02   2.21848648E+02   2.21848648E+02   1.00501642E+01  -5.52506638E+00   2.21848648E+02   2.21848648E+02   1.00501642E+01  -5.52506638E+00   2.27373718E+02  -7.54579163E+01   2.18754395E+02   1.01654024E+01   2.21733414E+02  -5.52506638E+00   4.93908358E+00
             2549                4   2.20000000E+02   2.21883270E+02   2.21883270E+02   9.52850437E+00  -5.03801441E+00   2.21883270E+02   2.21883270E+02   9.52850437E+00  -5.03801441E+00   2.26921280E+02  -7.54579239E+01   2.18911072E+02   9.75110722E+00   2.21660660E+02  -5.03801441E+00   6.87186670E+00
             2550                1   2.20000000E+02   2.04117126E+02   2.04117126E+02   5.81698895E-01  -2.92940292E+01   2.04117126E+02   2.04117126E+02   5.81698895E-01  -2.92940292E+01   2.33411148E+02  -5.84682617E+01   2.15365204E+02   5.85311174E-01   2.04113510E+02  -2.92940292E+01   8.57533574E-01
             2550                2   2.20000000E+02   2.03884766E+02   2.03884766E+02   2.30878520E+00  -3.07887669E+01   2.03884766E+02   2.03884766E+02   2.30878520E+00  -3.07887669E+01   2.34673538E+02  -5.84682617E+01   2.14291199E+02   2.31282377E+00   2.03880737E+02  -3.07887669E+01   9.01893020E-01
             2550                3   2.20000000E+02   2.04116089E+02   2.04116089E+02   5.89826822E-01  -2.93011131E+01   2.04116089E+02   2.04116089E+02   5.89826822E-01  -2.93011131E+01   2.33417206E+02  -5.84682655E+01   2.15360413E+02   6.10285044E-01   2.04095627E+02  -2.93011131E+01  -2.04070520E+00
             2550                4   2.20000000E+02   2.03883560E+02   2.03883560E+02   2.31746483E+00  -3.07962246E+01   2.03883560E+02   2.03883560E+02   2.31746483E+00  -3.07962246E+01   2.34679779E+02  -5.84682655E+01   2.14285522E+02   2.33832407E+00   2.03862701E+02  -3.07962246E+01  -2.05008388E+00
             2551                1   2.20000000E+02   2.49338547E+02   2.49338547E+02   2.92996063E+01   2.93775215E+01   2.49338547E+02   2.49338547E+02   2.93775215E+01   2.92996063E+01   2.20038940E+02  -1.02671898E+02   2.19999969E+02   2.92997074E+01   2.49338455E+02   2.93775215E+01  -1.48110256E-01
             2551                2   2.20000000E+02   2.49338547E+02   2.49338547E+02   2.92776337E+01   2.93995094E+01   2.49338547E+02   2.49338547E+02   2.93995094E+01   2.92776337E+01   2.20060913E+02  -1.02671898E+02   2.19999924E+02   2.92776299E+01   2.49338547E+02   2.93995094E+01   7.09038367E-03
             2551                3   2.20000000E+02   2.49338547E+02   2.49338547E+02   2.93868580E+01   2.92902699E+01   2.49338547E+02   2.49338547E+02   2.93868580E+01   2.92902699E+01   2.20048279E+02  -1.02671898E+02   2.19999939E+02   2.93869076E+01   2.49338501E+02   2.92902699E+01  -9.86787081E-02
             2551                4   2.20000000E+02   2.49338547E+02   2.49338547E+02   2.93647842E+01   2.93123379E+01   2.49338547E+02   2.49338547E+02   2.93647842E+01   2.93123379E+01   2.20026215E+02  -1.02671898E+02   2.19999985E+02   2.93648014E+01   2.49338547E+02   2.93123379E+01   5.66689037E-02
             2552                1   2.20000000E+02   2.47526840E+02   2.47526840E+02   2.80015469E+01   2.70551624E+01   2.47526840E+02   2.47526840E+02   2.80015469E+01   2.70551624E+01   2.20471680E+02  -1.00861183E+02   2.19995392E+02   2.80054817E+01   2.47522888E+02   2.70551624E+01  -9.29863870E-01
             2552                2   2.20000000E+02   2.47527573E+02   2.47527573E+02   2.77709503E+01   2.72850056E+01   2.47527573E+02   2.47527573E+02   2.77709503E+01   2.72850056E+01   2.20242569E+02  -1.00861176E+02   2.19998810E+02   2.77781773E+01   2.47520355E+02   2.72850056E+01  -1.26003337E+00
             2552                3   2.20000000E+02   2.47527359E+02   2.47527359E+02   2.78530674E+01   2.72030945E+01   2.47527359E+02   2.47527359E+02   2.78530674E+01   2.72030945E+01   2.20324265E+02  -1.00861176E+02   2.19997849E+02   2.78543167E+01   2.47526123E+02   2.72030945E+01  -5.22377968E-01
             2552                4   2.20000000E+02   2.47527802E+02   2.47527802E+02   2.76241779E+01   2.74315529E+01   2.47527802E+02   2.47527802E+02   2.76241779E+01   2.74315529E+01   2.20096252E+02  -1.00861176E+02   2.19999802E+02   2.76274853E+01   2.47524490E+02   2.74315529E+01  -8.52941394E-01
             2553                1   2.20000000E+02   2.13199738E+02   2.13199738E+02  -1.81703320E+01   6.68012476E+00   2.13199738E+02   2.13199738E+02   6.68012476E+00  -1.81703320E+01   2.31370071E+02  -6.72365112E+01   2.16808640E+02  -1.77041035E+01   2.12733505E+02   6.68012476E+00   1.03756685E+01
             2553                2   2.20000000E+02   2.13125916E+02   2.13125916E+02  -1.87674809E+01   7.35109472E+00   2.13125916E+02   2.13125916E+02   7.35109472E+00  -1.87674809E+01   2.31893387E+02  -6.72365036E+01   2.16470673E+02  -1.81233540E+01   2.12481781E+02   7.35109472E+00   1.22046900E+01
             2553                3   2.20000000E+02   2.13299759E+02   2.13299759E+02  -1.73051090E+01   5.71487761E+00   2.13299759E+02   2.13299759E+02   5.71487761E+00  -1.73051090E+01   2.30604858E+02  -6.72365036E+01   2.17265640E+02  -1.67588787E+01   2.12753525E+02   5.71487761E+00   1.12100229E+01
             2553                4   2.20000000E+02   2.13225494E+02   2.13225494E+02  -1.79540615E+01   6.43808031E+00   2.13225494E+02   2.13225494E+02   6.43808031E+00  -1.79540615E+01   2.31179565E+02  -6.72365036E+01   2.16926483E+02  -1.72170525E+01   2.12488495E+02   6.43808031E+00   1.30321646E+01
             2554                1   2.20000000E+02   2.24861954E+02   2.24861954E+02   9.61404705E+00   3.99411529E-01   2.24861954E+02   2.24861954E+02   9.61404705E+00   3.99411529E-01   2.24462540E+02  -7.82918015E+01   2.19565186E+02   9.92891312E+00   2.24547089E+02   3.99411529E-01  -8.22644043E+00
             2554                2   2.20000000E+02   2.24855270E+02   2.24855270E+02   9.77438831E+00   2.45770991E-01   2.24855270E+02   2.24855270E+02   9.77438831E+00   2.45770991E-01   2.24609497E+02  -7.82918091E+01   2.19535004E+02   1.00497990E+01   2.24579849E+02   2.45770991E-01  -7.69161034E+00
             2554                3   2.20000000E+02   2.24849564E+02   2.24849564E+02   9.90690422E+00   1.18948944E-01   2.24849564E+02   2.24849564E+02   9.90690422E+00   1.18948944E-01   2.24730621E+02  -7.82918015E+01   2.19509308E+02   1.02308483E+01   2.24525620E+02   1.18948944E-01  -8.33815575E+00
             2554                4   2.20000000E+02   2.24842117E+02   2.24842117E+02   1.00751963E+01  -4.19012271E-02   2.24842117E+02   2.24842117E+02   1.00751963E+01  -4.19012271E-02   2.24884018E+02  -7.82918015E+01   2.19475693E+02   1.03574438E+01   2.24559875E+02  -4.19012271E-02  -7.78051138E+00
             2555                1   2.20000000E+02   2.25798309E+02   2.25798309E+02   5.07818556E+00   6.52558517E+00   2.25798309E+02   2.25798309E+02   6.52558517E+00   5.07818556E+00   2.20720123E+02  -7.91340256E+01   2.19989273E+02   5.30197906E+00   2.25574509E+02   6.52558517E+00  -7.02476645E+00
             2555                2   2.20000000E+02   2.25799286E+02   2.25799286E+02   6.35678053E+00   5.24600744E+00   2.25799286E+02   2.25799286E+02   6.35678053E+00   5.24600744E+00   2.20553284E+02  -7.91340256E+01   2.19993683E+02   6.58866549E+00   2.25567398E+02   5.24600744E+00  -7.12968588E+00
             2555                3   2.20000000E+02   2.25797745E+02   2.25797745E+02   4.99728632E+00   6.60704422E+00   2.25797745E+02   2.25797745E+02   6.60704422E+00   4.99728632E+00   2.20800461E+02  -7.91340256E+01   2.19986740E+02   5.39576340E+00   2.25399261E+02   6.60704422E+00  -9.37155151E+00
             2555                4   2.20000000E+02   2.25799698E+02   2.25799698E+02   6.27094173E+00   5.33144903E+00   2.25799698E+02   2.25799698E+02   6.27094173E+00   5.33144903E+00   2.20468246E+02  -7.91340256E+01   2.19995483E+02   6.68406153E+00   2.25386566E+02   5.33144903E+00  -9.51431465E+00
             2556                1   2.20000000E+02   2.13434097E+02   2.13434097E+02  -1.09655209E+01  -1.88510072E+00   2.13434097E+02   2.13434097E+02  -1.88510072E+00  -1.09655209E+01   2.24399628E+02  -6.68611603E+01   2.19577789E+02  -1.00686302E+01   2.12537216E+02  -1.88510072E+00  -1.41582708E+01
             2556                2   2.20000000E+02   2.13460327E+02   2.13460327E+02  -1.02915993E+01  -2.58524895E+00   2.13460327E+02   2.13460327E+02  -2.58524895E+00  -1.02915993E+01   2.23751923E+02  -6.68611603E+01   2.19696014E+02  -9.71993637E+00   2.12888672E+02  -2.58524895E+00  -1.12952633E+01
             2556                3   2.20000000E+02   2.13481857E+02   2.13481857E+02  -9.62880611E+00  -3.26957703E+00   2.13481857E+02   2.13481857E+02  -3.26957703E+00  -9.62880611E+00   2.23110672E+02  -6.68611603E+01   2.19793060E+02  -8.51541233E+00   2.12368469E+02  -3.26957703E+00  -1.57216625E+01
             2556                4   2.20000000E+02   2.13500153E+02   2.13500153E+02  -8.92510128E+00  -3.99157906E+00   2.13500153E+02   2.13500153E+02  -3.99157906E+00  -8.92510128E+00   2.22425262E+02  -6.68611603E+01   2.19875473E+02  -8.18610001E+00   2.12761154E+02  -3.99157906E+00  -1.27995014E+01
             2557                1   2.20000000E+02   2.45732132E+02   2.45732132E+02   2.61093521E+01   2.53568726E+01   2.45732132E+02   2.45732132E+02   2.61093521E+01   2.53568726E+01   2.20375259E+02  -9.90661240E+01   2.19997116E+02   2.61204338E+01   2.45721069E+02   2.53568726E+01  -1.55973828E+00
             2557                2   2.20000000E+02   2.45732697E+02   2.45732697E+02   2.55907917E+01   2.58748856E+01   2.45732697E+02   2.45732697E+02   2.58748856E+01   2.55907917E+01   2.20141907E+02  -9.90661240E+01   2.19999588E+02   2.56039734E+01   2.45719513E+02   2.58748856E+01  -1.70347345E+00
             2557                3   2.20000000E+02   2.45732361E+02   2.45732361E+02   2.60441952E+01   2.54218273E+01   2.45732361E+02   2.45732361E+02   2.60441952E+01   2.54218273E+01   2.20310532E+02  -9.90661240E+01   2.19998032E+02   2.60460072E+01   2.45730545E+02   2.54218273E+01  -6.30560756E-01
             2557                4   2.20000000E+02   2.45732605E+02   2.45732605E+02   2.55273113E+01   2.59384613E+01   2.45732605E+02   2.45732605E+02   2.59384613E+01   2.55273113E+01   2.20205292E+02  -9.90661240E+01   2.19999161E+02   2.55300789E+01   2.45729843E+02   2.59384613E+01  -7.80013382E-01
             2558                1   2.20000000E+02   2.20712906E+02   2.20712906E+02  -2.51271725E+00   4.08705616E+00   2.20712906E+02   2.20712906E+02   4.08705616E+00  -2.51271725E+00   2.23225632E+02  -7.40957489E+01   2.19777115E+02  -1.98014379E+00   2.20180344E+02   4.08705616E+00  -1.08903360E+01
             2558                2   2.20000000E+02   2.20735580E+02   2.20735580E+02  -1.65376246E+00   3.20544267E+00   2.20735580E+02   2.20735580E+02   3.20544267E+00  -1.65376246E+00   2.22389343E+02  -7.40957565E+01   2.19879196E+02  -1.01287067E+00   2.20094681E+02   3.20544267E+00  -1.19213428E+01
             2558                3   2.20000000E+02   2.20698685E+02   2.20698685E+02  -2.94988346E+00   4.53845835E+00   2.20698685E+02   2.20698685E+02   4.53845835E+00  -2.94988346E+00   2.23648560E+02  -7.40957489E+01   2.19712982E+02  -2.23584056E+00   2.19984634E+02   4.53845835E+00  -1.26168518E+01
             2558                4   2.20000000E+02   2.20725372E+02   2.20725372E+02  -2.07416868E+00   3.63606763E+00   2.20725372E+02   2.20725372E+02   3.63606763E+00  -2.07416868E+00   2.22799530E+02  -7.40957565E+01   2.19833176E+02  -1.22777045E+00   2.19878967E+02   3.63606763E+00  -1.37062511E+01
             2559                1   2.20000000E+02   2.48369568E+02   2.48369568E+02   2.86182613E+01   2.81217098E+01   2.48369568E+02   2.48369568E+02   2.86182613E+01   2.81217098E+01   2.20247849E+02  -1.01703178E+02   2.19998749E+02   2.86201687E+01   2.48367661E+02   2.81217098E+01  -6.46531820E-01
             2559                2   2.20000000E+02   2.48369843E+02   2.48369843E+02   2.83870296E+01   2.83526630E+01   2.48369843E+02   2.48369843E+02   2.83870296E+01   2.83526630E+01   2.20017166E+02  -1.01703178E+02   2.20000000E+02   2.83900566E+01   2.48366821E+02   2.83526630E+01  -8.15425396E-01
             2559                3   2.20000000E+02   2.48369720E+02   2.48369720E+02   2.85424881E+01   2.81973419E+01   2.48369720E+02   2.48369720E+02   2.85424881E+01   2.81973419E+01   2.20172379E+02  -1.01703186E+02   2.19999374E+02   2.85427418E+01   2.48369461E+02   2.81973419E+01  -2.35393867E-01
             2559                4   2.20000000E+02   2.48369812E+02   2.48369812E+02   2.83121281E+01   2.84275780E+01   2.48369812E+02   2.48369812E+02   2.84275780E+01   2.83121281E+01   2.20057693E+02  -1.01703178E+02   2.19999939E+02   2.83128796E+01   2.48369080E+02   2.84275780E+01  -4.05242473E-01
             2560                1   2.20000000E+02   2.30190536E+02   2.30190536E+02   1.24965143E+01   7.95488071E+00   2.30190536E+02   2.30190536E+02   1.24965143E+01   7.95488071E+00   2.22235657E+02  -8.35473099E+01   2.19894501E+02   1.28074560E+01   2.29879608E+02   7.95488071E+00  -8.22143459E+00
             2560                2   2.20000000E+02   2.30177277E+02   2.30177277E+02   1.30737324E+01   7.39093781E+00   2.30177277E+02   2.30177277E+02   1.30737324E+01   7.39093781E+00   2.22786331E+02  -8.35473099E+01   2.19834763E+02   1.33429956E+01   2.29908005E+02   7.39093781E+00  -7.64113331E+00
             2560                3   2.20000000E+02   2.30183762E+02   2.30183762E+02   1.28071299E+01   7.65104723E+00   2.30183762E+02   2.30183762E+02   1.28071299E+01   7.65104723E+00   2.22532715E+02  -8.35473099E+01   2.19863983E+02   1.31839876E+01   2.29806900E+02   7.65104723E+00  -9.04315186E+00
             2560                4   2.20000000E+02   2.30169479E+02   2.30169479E+02   1.33649712E+01   7.10749674E+00   2.30169479E+02   2.30169479E+02   1.33649712E+01   7.10749674E+00   2.23061981E+02  -8.35473175E+01   2.19799637E+02   1.36981602E+01   2.29836288E+02   7.10749674E+00  -8.49276161E+00
             2561                1   2.20000000E+02   2.10928696E+02   2.10928696E+02   3.87278295E+00  -2.00586033E+01   2.10928696E+02   2.10928696E+02   3.87278295E+00  -2.00586033E+01   2.30987305E+02  -6.49142914E+01   2.17042648E+02   3.89345241E+00   2.10908035E+02  -2.00586033E+01  -2.06841922E+00
             2561                2   2.20000000E+02   2.10926117E+02   2.10926117E+02   3.89765787E+00  -2.00808926E+01   2.10926117E+02   2.10926117E+02   3.89765787E+00  -2.00808926E+01   2.31007004E+02  -6.49142990E+01   2.17030838E+02   3.89870906E+00   2.10925064E+02  -2.00808926E+01   4.67179745E-01
             2561                3   2.20000000E+02   2.10771469E+02   2.10771469E+02   5.31232309E+00  -2.13409023E+01   2.10771469E+02   2.10771469E+02   5.31232309E+00  -2.13409023E+01   2.32112366E+02  -6.49142990E+01   2.16322891E+02   5.33402014E+00   2.10749771E+02  -2.13409023E+01  -2.11100078E+00
             2561                4   2.20000000E+02   2.10768448E+02   2.10768448E+02   5.33849764E+00  -2.13640594E+01   2.10768448E+02   2.10768448E+02   5.33849764E+00  -2.13640594E+01   2.32132507E+02  -6.49142990E+01   2.16309082E+02   5.33951712E+00   2.10767426E+02  -2.13640594E+01   4.59023476E-01
             2562                1   2.20000000E+02   2.04615341E+02   2.04615341E+02   5.77403307E-01  -2.84623375E+01   2.04615341E+02   2.04615341E+02   5.77403307E-01  -2.84623375E+01   2.33077682E+02  -5.89101372E+01   2.15624756E+02   5.77435732E-01   2.04615311E+02  -2.84623375E+01  -8.45455006E-02
             2562                2   2.20000000E+02   2.04392242E+02   2.04392242E+02   2.27977586E+00  -2.99415894E+01   2.04392242E+02   2.04392242E+02   2.27977586E+00  -2.99415894E+01   2.34333832E+02  -5.89101410E+01   2.14594955E+02   2.27978134E+00   2.04392227E+02  -2.99415894E+01  -4.31178212E-02
             2562                3   2.20000000E+02   2.04615265E+02   2.04615265E+02   5.78141630E-01  -2.84629803E+01   2.04615265E+02   2.04615265E+02   5.78141630E-01  -2.84629803E+01   2.33078247E+02  -5.89101410E+01   2.15624329E+02   6.20995760E-01   2.04572403E+02  -2.84629803E+01  -2.95690846E+00
             2562                4   2.20000000E+02   2.04392120E+02   2.04392120E+02   2.28056669E+00  -2.99422798E+01   2.04392120E+02   2.04392120E+02   2.28056669E+00  -2.99422798E+01   2.34334396E+02  -5.89101372E+01   2.14594452E+02   2.32417965E+00   2.04348511E+02  -2.99422798E+01  -2.96840286E+00
             2563                1   2.20000000E+02   2.48734085E+02   2.48734085E+02   2.88614292E+01   2.86069813E+01   2.48734085E+02   2.48734085E+02   2.88614292E+01   2.86069813E+01   2.20127106E+02  -1.02067505E+02   2.19999649E+02   2.88617649E+01   2.48733749E+02   2.86069813E+01  -2.74319440E-01
             2563                2   2.20000000E+02   2.48734116E+02   2.48734116E+02   2.86288586E+01   2.88395214E+01   2.48734116E+02   2.48734116E+02   2.88395214E+01   2.86288586E+01   2.20105255E+02  -1.02067497E+02   2.19999786E+02   2.86295471E+01   2.48733429E+02   2.88395214E+01  -3.89101267E-01
             2563                3   2.20000000E+02   2.48734131E+02   2.48734131E+02   2.88098087E+01   2.86585426E+01   2.48734131E+02   2.48734131E+02   2.88098087E+01   2.86585426E+01   2.20075592E+02  -1.02067497E+02   2.19999908E+02   2.88099022E+01   2.48734055E+02   2.86585426E+01   1.40309229E-01
             2563                4   2.20000000E+02   2.48734055E+02   2.48734055E+02   2.85778408E+01   2.88905945E+01   2.48734055E+02   2.48734055E+02   2.88905945E+01   2.85778408E+01   2.20156204E+02  -1.02067497E+02   2.19999512E+02   2.85778484E+01   2.48734055E+02   2.88905945E+01   2.44461857E-02
             2564                1   2.20000000E+02   2.24772186E+02   2.24772186E+02   9.59656143E+00   2.45987743E-01   2.24772186E+02   2.24772186E+02   9.59656143E+00   2.45987743E-01   2.24526199E+02  -7.82049103E+01   2.19552231E+02   9.78842926E+00   2.24580307E+02   2.45987743E-01   6.42262173E+00
             2564                2   2.20000000E+02   2.24802704E+02   2.24802704E+02   8.79829884E+00   1.01372993E+00   2.24802704E+02   2.24802704E+02   8.79829884E+00   1.01372993E+00   2.23788971E+02  -7.82049103E+01   2.19689804E+02   9.11279583E+00   2.24488205E+02   1.01372993E+00   8.23609543E+00
             2564                3   2.20000000E+02   2.24742538E+02   2.24742538E+02   1.02629948E+01  -3.90809894E-01   2.24742538E+02   2.24742538E+02   1.02629948E+01  -3.90809894E-01   2.25133362E+02  -7.82049103E+01   2.19418488E+02   1.05921841E+01   2.24413361E+02  -3.90809894E-01   8.39612007E+00
             2564                4   2.20000000E+02   2.24778564E+02   2.24778564E+02   9.44113541E+00   3.95031810E-01   2.24778564E+02   2.24778564E+02   9.44113541E+00   3.95031810E-01   2.24383530E+02  -7.82049103E+01   2.19580963E+02   9.92395496E+00   2.24295746E+02   3.95031810E-01   1.01850338E+01
             2565                1   2.20000000E+02   2.45364441E+02   2.45364441E+02   2.61946659E+01   2.45435028E+01   2.45364441E+02   2.45364441E+02   2.61946659E+01   2.45435028E+01   2.20820938E+02  -9.87008667E+01   2.19986069E+02   2.61976223E+01   2.45361481E+02   2.45435028E+01  -8.05207610E-01
             2565                2   2.20000000E+02   2.45363770E+02   2.45363770E+02   2.62790184E+01   2.44598122E+01   2.45363770E+02   2.45363770E+02   2.62790184E+01   2.44598122E+01   2.20903961E+02  -9.87008667E+01   2.19983078E+02   2.62792816E+01   2.45363510E+02   2.44598122E+01  -2.39724860E-01
             2565                3   2.20000000E+02   2.45362213E+02   2.45362213E+02   2.64513855E+01   2.42889900E+01   2.45362213E+02   2.45362213E+02   2.64513855E+01   2.42889900E+01   2.21073227E+02  -9.87008667E+01   2.19976089E+02   2.64555511E+01   2.45358063E+02   2.42889900E+01  -9.53987598E-01
             2565                4   2.20000000E+02   2.45361359E+02   2.45361359E+02   2.65367775E+01   2.42044773E+01   2.45361359E+02   2.45361359E+02   2.65367775E+01   2.42044773E+01   2.21156876E+02  -9.87008667E+01   2.19972198E+02   2.65374584E+01   2.45360672E+02   2.42044773E+01  -3.86802018E-01
             2566                1   2.20000000E+02   2.42923813E+02   2.42923813E+02   2.43499870E+01   2.15248508E+01   2.42923813E+02   2.42923813E+02   2.43499870E+01   2.15248508E+01   2.21398972E+02  -9.62662125E+01   2.19959183E+02   2.43557472E+01   2.42918045E+02   2.15248508E+01   1.12240744E+00
             2566                2   2.20000000E+02   2.42926071E+02   2.42926071E+02   2.41605110E+01   2.17120743E+01   2.42926071E+02   2.42926071E+02   2.41605110E+01   2.17120743E+01   2.21213989E+02  -9.62662125E+01   2.19969345E+02   2.41760635E+01   2.42910507E+02   2.17120743E+01   1.84493637E+00
             2566                3   2.20000000E+02   2.42919052E+02   2.42919052E+02   2.46836357E+01   2.11959534E+01   2.42919052E+02   2.42919052E+02   2.46836357E+01   2.11959534E+01   2.21723099E+02  -9.62662125E+01   2.19937790E+02   2.46932983E+01   2.42909393E+02   2.11959534E+01   1.45214844E+00
             2566                4   2.20000000E+02   2.42921921E+02   2.42921921E+02   2.44909821E+01   2.13857403E+01   2.42921921E+02   2.42921921E+02   2.44909821E+01   2.13857403E+01   2.21536179E+02  -9.62662125E+01   2.19950684E+02   2.45126972E+01   2.42900208E+02   2.13857403E+01   2.17773533E+00
             2567                1   2.20000000E+02   2.11104721E+02   2.11104721E+02  -1.44717779E+01  -2.85878134E+00   2.11104721E+02   2.11104721E+02  -2.85878134E+00  -1.44717779E+01   2.25576508E+02  -6.45913925E+01   2.19308807E+02  -1.36036825E+01   2.10236633E+02  -2.85878134E+00  -1.39666767E+01
             2567                2   2.20000000E+02   2.11147552E+02   2.11147552E+02  -1.36164951E+01  -3.75688887E+00   2.11147552E+02   2.11147552E+02  -3.75688887E+00  -1.36164951E+01   2.24764038E+02  -6.45913925E+01   2.19502075E+02  -1.30960970E+01   2.10627151E+02  -3.75688887E+00  -1.08025570E+01
             2567                3   2.20000000E+02   2.11172058E+02   2.11172058E+02  -1.30479698E+01  -4.34992552E+00   2.11172058E+02   2.11172058E+02  -4.34992552E+00  -1.30479698E+01   2.24220016E+02  -6.45913849E+01   2.19612640E+02  -1.18835421E+01   2.10007629E+02  -4.34992552E+00  -1.61161861E+01
             2567                4   2.20000000E+02   2.11204651E+02   2.11204651E+02  -1.21429100E+01  -5.28756189E+00   2.11204651E+02   2.11204651E+02  -5.28756189E+00  -1.21429100E+01   2.23347549E+02  -6.45913925E+01   2.19759491E+02  -1.13969774E+01   2.10458710E+02  -5.28756189E+00  -1.28859167E+01
             2568                1   2.20000000E+02   2.36725342E+02   2.36725342E+02   1.75475864E+01   1.59122086E+01   2.36725342E+02   2.36725342E+02   1.75475864E+01   1.59122086E+01   2.20813141E+02  -9.00617142E+01   2.19986328E+02   1.76886044E+01   2.36584335E+02   1.59122086E+01  -5.55760479E+00
             2568                2   2.20000000E+02   2.36728333E+02   2.36728333E+02   1.66262321E+01   1.68305702E+01   2.36728333E+02   2.36728333E+02   1.68305702E+01   1.66262321E+01   2.20102112E+02  -9.00617142E+01   2.19999786E+02   1.67780209E+01   2.36576553E+02   1.68305702E+01  -5.77796888E+00
             2568                3   2.20000000E+02   2.36726013E+02   2.36726013E+02   1.74512520E+01   1.60078735E+01   2.36726013E+02   2.36726013E+02   1.74512520E+01   1.60078735E+01   2.20718140E+02  -9.00617065E+01   2.19989365E+02   1.75202351E+01   2.36657028E+02   1.60078735E+01  -3.88855529E+00
             2568                4   2.20000000E+02   2.36728210E+02   2.36728210E+02   1.65343304E+01   1.69226093E+01   2.36728210E+02   2.36728210E+02   1.69226093E+01   1.65343304E+01   2.20193878E+02  -9.00617142E+01   2.19999222E+02   1.66117172E+01   2.36650818E+02   1.69226093E+01  -4.12745285E+00
             2569                1   2.20000000E+02   2.08964111E+02   2.08964111E+02  -1.58121214E+01  -5.92634344E+00   2.08964111E+02   2.08964111E+02  -5.92634344E+00  -1.58121214E+01   2.24776230E+02  -6.24085503E+01   2.19499420E+02  -1.49991350E+01   2.08151123E+02  -5.92634344E+00  -1.34937086E+01
             2569                2   2.20000000E+02   2.08995514E+02   2.08995514E+02  -1.50717344E+01  -6.69813824E+00   2.08995514E+02   2.08995514E+02  -6.69813824E+00  -1.50717344E+01   2.24067245E+02  -6.24085503E+01   2.19641022E+02  -1.45979099E+01   2.08521698E+02  -6.69813824E+00  -1.02928495E+01
             2569                3   2.20000000E+02   2.09022842E+02   2.09022842E+02  -1.42929068E+01  -7.50428057E+00   2.09022842E+02   2.09022842E+02  -7.50428057E+00  -1.42929068E+01   2.23315750E+02  -6.24085503E+01   2.19764160E+02  -1.32506580E+01   2.07980591E+02  -7.50428057E+00  -1.52205324E+01
             2569                4   2.20000000E+02   2.09045197E+02   2.09045197E+02  -1.34793406E+01  -8.34021568E+00   2.09045197E+02   2.09045197E+02  -8.34021568E+00  -1.34793406E+01   2.22524536E+02  -6.24085503E+01   2.19864883E+02  -1.28322411E+01   2.08398102E+02  -8.34021568E+00  -1.19823189E+01
             2570                1   2.20000000E+02   2.21122772E+02   2.21122772E+02   7.24914885E+00  -4.53031683E+00   2.21122772E+02   2.21122772E+02   7.24914885E+00  -4.53031683E+00   2.25653091E+02  -7.46138687E+01   2.19288788E+02   7.58173847E+00   2.20790176E+02  -4.53031683E+00  -8.42746258E+00
             2570                2   2.20000000E+02   2.21142090E+02   2.21142090E+02   6.86738396E+00  -4.16786957E+00   2.21142090E+02   2.21142090E+02   6.86738396E+00  -4.16786957E+00   2.25309967E+02  -7.46138687E+01   2.19375992E+02   7.27945042E+00   2.20730026E+02  -4.16786957E+00  -9.38751125E+00
             2570                3   2.20000000E+02   2.21149597E+02   2.21149597E+02   6.71196651E+00  -4.01996517E+00   2.21149597E+02   2.21149597E+02   6.71196651E+00  -4.01996517E+00   2.25169556E+02  -7.46138687E+01   2.19409897E+02   6.99936390E+00   2.20862198E+02  -4.01996517E+00  -7.84507656E+00
             2570                4   2.20000000E+02   2.21167206E+02   2.21167206E+02   6.32944584E+00  -3.65504694E+00   2.21167206E+02   2.21167206E+02   6.32944584E+00  -3.65504694E+00   2.24822266E+02  -7.46138687E+01   2.19489365E+02   6.69256258E+00   2.20804092E+02  -3.65504694E+00  -8.82496834E+00
             2571                1   2.20000000E+02   2.16812698E+02   2.16812698E+02   7.03379679E+00  -1.21517677E+01   2.16812698E+02   2.16812698E+02   7.03379679E+00  -1.21517677E+01   2.28964462E+02  -7.05649109E+01   2.18105957E+02   7.05348969E+00   2.16792999E+02  -1.21517677E+01  -2.03283167E+00
             2571                2   2.20000000E+02   2.16811264E+02   2.16811264E+02   7.05087900E+00  -1.21674309E+01   2.16811264E+02   2.16811264E+02   7.05087900E+00  -1.21674309E+01   2.28978683E+02  -7.05649033E+01   2.18099457E+02   7.05092525E+00   2.16811218E+02  -1.21674309E+01   9.10914019E-02
             2571                3   2.20000000E+02   2.16709717E+02   2.16709717E+02   8.19783688E+00  -1.32128334E+01   2.16709717E+02   2.16709717E+02   8.19783688E+00  -1.32128334E+01   2.29922546E+02  -7.05649033E+01   2.17637482E+02   8.21763325E+00   2.16689911E+02  -1.32128334E+01  -2.03174734E+00
             2571                4   2.20000000E+02   2.16708099E+02   2.16708099E+02   8.21529388E+00  -1.32286615E+01   2.16708099E+02   2.16708099E+02   8.21529388E+00  -1.32286615E+01   2.29936752E+02  -7.05649033E+01   2.17630096E+02   8.21534252E+00   2.16708038E+02  -1.32286615E+01   1.05802529E-01
             2572                1   2.20000000E+02   2.33984131E+02   2.33984131E+02   1.80108891E+01   1.01671686E+01   2.33984131E+02   2.33984131E+02   1.80108891E+01   1.01671686E+01   2.23816971E+02  -8.73873978E+01   2.19685059E+02   1.80743446E+01   2.33920685E+02   1.01671686E+01  -3.70134640E+00
             2572                2   2.20000000E+02   2.33989502E+02   2.33989502E+02   1.78548031E+01   1.03178978E+01   2.33989502E+02   2.33989502E+02   1.78548031E+01   1.03178978E+01   2.23671600E+02  -8.73873978E+01   2.19709229E+02   1.79517918E+01   2.33892502E+02   1.03178978E+01  -4.57760906E+00
             2572                3   2.20000000E+02   2.33998383E+02   2.33998383E+02   1.75812912E+01   1.05825081E+01   2.33998383E+02   2.33998383E+02   1.75812912E+01   1.05825081E+01   2.23415878E+02  -8.73873978E+01   2.19749298E+02   1.76405830E+01   2.33939102E+02   1.05825081E+01  -3.58153772E+00
             2572                4   2.20000000E+02   2.34003021E+02   2.34003021E+02   1.74302864E+01   1.07288923E+01   2.34003021E+02   2.34003021E+02   1.74302864E+01   1.07288923E+01   2.23274124E+02  -8.73873978E+01   2.19770157E+02   1.75212803E+01   2.33912018E+02   1.07288923E+01  -4.43846083E+00
             2573                1   2.20000000E+02   2.34366074E+02   2.34366074E+02   1.50195122E+01   1.37184305E+01   2.34366074E+02   2.34366074E+02   1.50195122E+01   1.37184305E+01   2.20647644E+02  -8.77013474E+01   2.19991318E+02   1.51284151E+01   2.34257172E+02   1.37184305E+01  -4.88633251E+00
             2573                2   2.19999985E+02   2.34367172E+02   2.34367172E+02   1.39427290E+01   1.47941170E+01   2.34367172E+02   2.34367172E+02   1.47941170E+01   1.39427290E+01   2.20424454E+02  -8.77013474E+01   2.19996262E+02   1.40547276E+01   2.34255173E+02   1.47941170E+01  -4.96748495E+00
             2573                3   2.20000000E+02   2.34366287E+02   2.34366287E+02   1.49858284E+01   1.37519197E+01   2.34366287E+02   2.34366287E+02   1.49858284E+01   1.37519197E+01   2.20614365E+02  -8.77013474E+01   2.19992218E+02   1.50244427E+01   2.34327667E+02   1.37519197E+01  -2.91033936E+00
             2573                4   2.20000000E+02   2.34367065E+02   2.34367065E+02   1.39109240E+01   1.48260441E+01   2.34367065E+02   2.34367065E+02   1.48260441E+01   1.39109240E+01   2.20456131E+02  -8.77013474E+01   2.19995712E+02   1.39522400E+01   2.34325745E+02   1.48260441E+01  -3.01773524E+00
             2574                1   2.20000000E+02   2.05454102E+02   2.05454102E+02   5.52138150E-01  -2.70406704E+01   2.05454102E+02   2.05454102E+02   5.52138150E-01  -2.70406704E+01   2.32494766E+02  -5.96551933E+01   2.16055542E+02   6.20600879E-01   2.05385635E+02  -2.70406704E+01  -3.74491644E+00
             2574                2   2.20000000E+02   2.05453827E+02   2.05453827E+02   5.54444015E-01  -2.70427055E+01   2.05453827E+02   2.05453827E+02   5.54444015E-01  -2.70427055E+01   2.32496536E+02  -5.96551857E+01   2.16054306E+02   5.60240626E-01   2.05448029E+02  -2.70427055E+01  -1.08991349E+00
             2574                3   2.20000000E+02   2.05260086E+02   2.05260086E+02   2.10875225E+00  -2.84032593E+01   2.05260086E+02   2.05260086E+02   2.10875225E+00  -2.84032593E+01   2.33663345E+02  -5.96551933E+01   2.15162415E+02   2.17803717E+00   2.05190796E+02  -2.84032593E+01  -3.75113702E+00
             2574                4   2.20000000E+02   2.05259766E+02   2.05259766E+02   2.11117339E+00  -2.84053688E+01   2.05259766E+02   2.05259766E+02   2.11117339E+00  -2.84053688E+01   2.33665131E+02  -5.96551933E+01   2.15160950E+02   2.11661005E+00   2.05254333E+02  -2.84053688E+01  -1.05067515E+00
             2575                1   2.20000000E+02   2.47690948E+02   2.47690948E+02   2.75072670E+01   2.78750858E+01   2.47690948E+02   2.47690948E+02   2.78750858E+01   2.75072670E+01   2.20183685E+02  -1.01024437E+02   2.19999313E+02   2.75086803E+01   2.47689545E+02   2.78750858E+01  -5.56780875E-01
             2575                2   2.20000000E+02   2.47690918E+02   2.47690918E+02   2.74877644E+01   2.78946381E+01   2.47690918E+02   2.47690918E+02   2.78946381E+01   2.74877644E+01   2.20203156E+02  -1.01024437E+02   2.19999161E+02   2.74878159E+01   2.47690857E+02   2.78946381E+01   1.14310667E-01
             2575                3   2.20000000E+02   2.47690933E+02   2.47690933E+02   2.78839607E+01   2.74984188E+01   2.47690933E+02   2.47690933E+02   2.78839607E+01   2.74984188E+01   2.20192505E+02  -1.01024437E+02   2.19999237E+02   2.78851566E+01   2.47689728E+02   2.74984188E+01  -5.13811827E-01
             2575                4   2.20000000E+02   2.47690964E+02   2.47690964E+02   2.78640575E+01   2.75182819E+01   2.47690964E+02   2.47690964E+02   2.78640575E+01   2.75182819E+01   2.20172684E+02  -1.01024437E+02   2.19999405E+02   2.78641777E+01   2.47690857E+02   2.75182819E+01   1.60354570E-01
             2576                1   2.20000000E+02   2.48475616E+02   2.48475616E+02   2.85169353E+01   2.84343433E+01   2.48475616E+02   2.48475616E+02   2.85169353E+01   2.84343433E+01   2.20041275E+02  -1.01808968E+02   2.19999954E+02   2.85194664E+01   2.48473099E+02   2.84343433E+01   7.45701075E-01
             2576                2   2.20000015E+02   2.48475388E+02   2.48475388E+02   2.87187386E+01   2.82328053E+01   2.48475388E+02   2.48475388E+02   2.87187386E+01   2.82328053E+01   2.20242584E+02  -1.01808983E+02   2.19998779E+02   2.87200203E+01   2.48474091E+02   2.82328053E+01   5.31381726E-01
             2576                3   2.20000000E+02   2.48475616E+02   2.48475616E+02   2.84218388E+01   2.85294380E+01   2.48475616E+02   2.48475616E+02   2.85294380E+01   2.84218388E+01   2.20053787E+02  -1.01808968E+02   2.19999954E+02   2.84225311E+01   2.48474945E+02   2.85294380E+01   3.87927145E-01
             2576                4   2.20000000E+02   2.48475525E+02   2.48475525E+02   2.86226749E+01   2.83286915E+01   2.48475525E+02   2.48475525E+02   2.86226749E+01   2.83286915E+01   2.20146835E+02  -1.01808968E+02   2.19999557E+02   2.86228161E+01   2.48475403E+02   2.83286915E+01   1.73043847E-01
             2577                1   2.20000000E+02   2.43424576E+02   2.43424576E+02   2.48158722E+01   2.20591564E+01   2.43424576E+02   2.43424576E+02   2.48158722E+01   2.20591564E+01   2.21365417E+02  -9.67665329E+01   2.19961151E+02   2.48158932E+01   2.43424545E+02   2.20591564E+01   6.92479089E-02
             2577                2   2.20000000E+02   2.43425232E+02   2.43425232E+02   2.47612934E+01   2.21130753E+01   2.43425232E+02   2.43425232E+02   2.47612934E+01   2.21130753E+01   2.21312149E+02  -9.67665329E+01   2.19964127E+02   2.47640095E+01   2.43422501E+02   2.21130753E+01   7.71548927E-01
             2577                3   2.20000000E+02   2.43420044E+02   2.43420044E+02   2.51408367E+01   2.17387142E+01   2.43420044E+02   2.43420044E+02   2.51408367E+01   2.17387142E+01   2.21681335E+02  -9.67665329E+01   2.19940811E+02   2.51409550E+01   2.43419922E+02   2.17387142E+01   1.64137304E-01
             2577                4   2.20000000E+02   2.43420883E+02   2.43420883E+02   2.50852528E+01   2.17934532E+01   2.43420883E+02   2.43420883E+02   2.50852528E+01   2.17934532E+01   2.21627426E+02  -9.67665329E+01   2.19944580E+02   2.50887299E+01   2.43417404E+02   2.17934532E+01   8.71218145E-01
             2578                1   2.20000000E+02   2.24428574E+02   2.24428574E+02   8.92711258E+00   1.90320864E-01   2.24428574E+02   2.24428574E+02   8.92711258E+00   1.90320864E-01   2.24238251E+02  -7.78486710E+01   2.19609161E+02   9.33491707E+00   2.24020767E+02   1.90320864E-01  -9.36567402E+00
             2578                2   2.20000000E+02   2.24436371E+02   2.24436371E+02   8.72222328E+00   3.87413800E-01   2.24436371E+02   2.24436371E+02   8.72222328E+00   3.87413800E-01   2.24048965E+02  -7.78486710E+01   2.19644333E+02   9.14084816E+00   2.24017746E+02   3.87413800E-01  -9.49364185E+00
             2578                3   2.20000000E+02   2.24433762E+02   2.24433762E+02   8.79164982E+00   3.20582449E-01   2.24433762E+02   2.24433762E+02   8.79164982E+00   3.20582449E-01   2.24113190E+02  -7.78486710E+01   2.19632614E+02   9.17157364E+00   2.24053848E+02   3.20582449E-01  -9.04336739E+00
             2578                4   2.20000000E+02   2.24441254E+02   2.24441254E+02   8.58886337E+00   5.15887141E-01   2.24441254E+02   2.24441254E+02   8.58886337E+00   5.15887141E-01   2.23925369E+02  -7.78486710E+01   2.19666367E+02   8.97922993E+00   2.24050888E+02   5.15887141E-01  -9.17113590E+00
             2579                1   2.20000000E+02   2.16583694E+02   2.16583694E+02  -9.19089413E+00   2.85307169E+00   2.16583694E+02   2.16583694E+02   2.85307169E+00  -9.19089413E+00   2.25774597E+02  -7.00819626E+01   2.19256424E+02  -8.45788479E+00   2.15850693E+02   2.85307169E+00   1.28435736E+01
             2579                2   2.20000000E+02   2.16574860E+02   2.16574860E+02  -9.34567261E+00   3.01669574E+00   2.16574860E+02   2.16574860E+02   3.01669574E+00  -9.34567261E+00   2.25920532E+02  -7.00819626E+01   2.19216476E+02  -8.37832928E+00   2.15607513E+02   3.01669574E+00   1.47515316E+01
             2579                3   2.20000000E+02   2.16627823E+02   2.16627823E+02  -8.34517097E+00   1.96321452E+00   2.16627823E+02   2.16627823E+02   1.96321452E+00  -8.34517097E+00   2.24972992E+02  -7.00819550E+01   2.19455658E+02  -7.64572954E+00   2.15928391E+02   1.96321452E+00   1.25245571E+01
             2579                4   2.20000000E+02   2.16620636E+02   2.16620636E+02  -8.49273205E+00   2.11797094E+00   2.16620636E+02   2.16620636E+02   2.11797094E+00  -8.49273205E+00   2.25113358E+02  -7.00819550E+01   2.19423187E+02  -7.56077099E+00   2.15688675E+02   2.11797094E+00   1.44543152E+01
             2580                1   2.20000000E+02   2.15020203E+02   2.15020203E+02   2.22739625E+00  -1.15403185E+01   2.15020203E+02   2.15020203E+02   2.22739625E+00  -1.15403185E+01   2.26560532E+02  -6.85690994E+01   2.19027603E+02   2.41749644E+00   2.14830109E+02  -1.15403185E+01   6.35733080E+00
             2580                2   2.20000000E+02   2.15035370E+02   2.15035370E+02   1.97351360E+00  -1.13015909E+01   2.15035370E+02   2.15035370E+02   1.97351360E+00  -1.13015909E+01   2.26336960E+02  -6.85690994E+01   2.19096146E+02   2.25246716E+00   2.14756409E+02  -1.13015909E+01   7.70438576E+00
             2580                3   2.20000000E+02   2.14975281E+02   2.14975281E+02   2.93253636E+00  -1.22005472E+01   2.14975281E+02   2.14975281E+02   2.93253636E+00  -1.22005472E+01   2.27175827E+02  -6.85690918E+01   2.18824387E+02   3.14802837E+00   2.14759796E+02  -1.22005472E+01   6.75621700E+00
             2580                4   2.20000000E+02   2.14992401E+02   2.14992401E+02   2.67151523E+00  -1.19566288E+01   2.14992401E+02   2.14992401E+02   2.67151523E+00  -1.19566288E+01   2.26949020E+02  -6.85690918E+01   2.18901810E+02   2.98171973E+00   2.14682190E+02  -1.19566288E+01   8.10966873E+00
             2581                1   2.20000000E+02   2.06168350E+02   2.06168350E+02  -1.96341152E+01  -7.52937603E+00   2.06168350E+02   2.06168350E+02  -7.52937603E+00  -1.96341152E+01   2.25802475E+02  -5.96682892E+01   2.19248871E+02  -1.88319073E+01   2.05366150E+02  -7.52937603E+00  -1.34349060E+01
             2581                2   2.20000000E+02   2.06217682E+02   2.06217682E+02  -1.86844997E+01  -8.52833462E+00   2.06217682E+02   2.06217682E+02  -8.52833462E+00  -1.86844997E+01   2.24902191E+02  -5.96682854E+01   2.19471619E+02  -1.82500572E+01   2.05783249E+02  -8.52833462E+00  -9.87509727E+00
             2581                3   2.20000000E+02   2.06247406E+02   2.06247406E+02  -1.80090981E+01  -9.23344707E+00   2.06247406E+02   2.06247406E+02  -9.23344707E+00  -1.80090981E+01   2.24256500E+02  -5.96682892E+01   2.19605667E+02  -1.69106197E+01   2.05148926E+02  -9.23344707E+00  -1.56567993E+01
             2581                4   2.20000000E+02   2.06283859E+02   2.06283859E+02  -1.69922466E+01  -1.02867336E+01   2.06283859E+02   2.06283859E+02  -1.02867336E+01  -1.69922466E+01   2.23276108E+02  -5.96682930E+01   2.19769897E+02  -1.63432369E+01   2.05634842E+02  -1.02867336E+01  -1.20203323E+01
             2582                1   2.20000000E+02   2.43892563E+02   2.43892563E+02   2.47426319E+01   2.30522480E+01   2.43892563E+02   2.43892563E+02   2.47426319E+01   2.30522480E+01   2.20840317E+02  -9.72291489E+01   2.19985397E+02   2.47843628E+01   2.43850845E+02   2.30522480E+01  -3.02356863E+00
             2582                2   2.20000000E+02   2.43895294E+02   2.43895294E+02   2.42336082E+01   2.35585537E+01   2.43895294E+02   2.43895294E+02   2.42336082E+01   2.35585537E+01   2.20336746E+02  -9.72291565E+01   2.19997650E+02   2.42858372E+01   2.43843063E+02   2.35585537E+01  -3.38689280E+00
             2582                3   2.20000000E+02   2.43893707E+02   2.43893707E+02   2.45783978E+01   2.32153511E+01   2.43893707E+02   2.43893707E+02   2.45783978E+01   2.32153511E+01   2.20678360E+02  -9.72291565E+01   2.19990494E+02   2.45989246E+01   2.43873184E+02   2.32153511E+01  -2.12155437E+00
             2582                4   2.20000000E+02   2.43895676E+02   2.43895676E+02   2.40734711E+01   2.37183037E+01   2.43895676E+02   2.43895676E+02   2.40734711E+01   2.37183037E+01   2.20177368E+02  -9.72291489E+01   2.19999374E+02   2.41016769E+01   2.43867477E+02   2.37183037E+01  -2.48953629E+00
             2583                1   2.20000000E+02   2.22027405E+02   2.22027405E+02   1.03382957E+00   3.03464341E+00   2.22027405E+02   2.22027405E+02   3.03464341E+00   1.03382957E+00   2.20993576E+02  -7.53652878E+01   2.19979523E+02   1.28183770E+00   2.21779388E+02   3.03464341E+00  -7.39921141E+00
             2583                2   2.20000000E+02   2.22031281E+02   2.22031281E+02   2.41788077E+00   1.64671814E+00   2.22031281E+02   2.22031281E+02   2.41788077E+00   1.64671814E+00   2.20384552E+02  -7.53652878E+01   2.19996948E+02   2.68561625E+00   2.21763535E+02   1.64671814E+00  -7.66342688E+00
             2583                3   2.20000000E+02   2.22025848E+02   2.22025848E+02   8.76341522E-01   3.19367886E+00   2.22025848E+02   2.22025848E+02   3.19367886E+00   8.76341522E-01   2.21149506E+02  -7.53652878E+01   2.19972534E+02   1.32604837E+00   2.21576141E+02   3.19367886E+00  -9.96245575E+00
             2583                4   2.20000015E+02   2.22031754E+02   2.22031754E+02   2.24960613E+00   1.81452882E+00   2.22031754E+02   2.22031754E+02   2.24960613E+00   1.81452882E+00   2.20217224E+02  -7.53652954E+01   2.19999039E+02   2.73066354E+00   2.21550690E+02   1.81452882E+00  -1.02711830E+01
             2584                1   2.20000000E+02   2.20799255E+02   2.20799255E+02   1.37811288E-01   1.46673763E+00   2.20799255E+02   2.20799255E+02   1.46673763E+00   1.37811288E-01   2.20661453E+02  -7.41346054E+01   2.19990967E+02   4.77496117E-01   2.20459579E+02   1.46673763E+00   8.65097332E+00
             2584                2   2.20000000E+02   2.20795670E+02   2.20795670E+02  -3.06224614E-01   1.91437709E+00   2.20795670E+02   2.20795670E+02   1.91437709E+00  -3.06224614E-01   2.21101883E+02  -7.41346054E+01   2.19974762E+02   1.74368098E-02   2.20472000E+02   1.91437709E+00   8.45329952E+00
             2584                3   2.20000000E+02   2.20798584E+02   2.20798584E+02   3.33586745E-02   1.57187021E+00   2.20798584E+02   2.20798584E+02   1.57187021E+00   3.33586745E-02   2.20765228E+02  -7.41346054E+01   2.19987900E+02   4.42449689E-01   2.20389496E+02   1.57187021E+00   9.49444199E+00
             2584                4   2.20000000E+02   2.20794601E+02   2.20794601E+02  -4.07124132E-01   2.01633668E+00   2.20794601E+02   2.20794601E+02   2.01633668E+00  -4.07124132E-01   2.21201736E+02  -7.41346054E+01   2.19969971E+02  -1.60150249E-02   2.20403503E+02   2.01633668E+00   9.29298496E+00
             2585                1   2.20000000E+02   2.17001740E+02   2.17001740E+02   6.89648199E+00  -1.17110386E+01   2.17001740E+02   2.17001740E+02   6.89648199E+00  -1.17110386E+01   2.28712784E+02  -7.07290573E+01   2.18219040E+02   6.95567989E+00   2.16942551E+02  -1.17110386E+01  -3.52603173E+00
             2585                2   2.20000000E+02   2.16993256E+02   2.16993256E+02   7.00023890E+00  -1.18063040E+01   2.16993256E+02   2.16993256E+02   7.00023890E+00  -1.18063040E+01   2.28799561E+02  -7.07290649E+01   2.18180496E+02   7.00945950E+00   2.16984039E+02  -1.18063040E+01  -1.39152610E+00
             2585                3   2.20000000E+02   2.16902344E+02   2.16902344E+02   8.05216599E+00  -1.27673092E+01   2.16902344E+02   2.16902344E+02   8.05216599E+00  -1.27673092E+01   2.29669662E+02  -7.07290726E+01   2.17767105E+02   8.11695480E+00   2.16837555E+02  -1.27673092E+01  -3.67801499E+00
             2585                4   2.20000000E+02   2.16892456E+02   2.16892456E+02   8.16070652E+00  -1.28659658E+01   2.16892456E+02   2.16892456E+02   8.16070652E+00  -1.28659658E+01   2.29758423E+02  -7.07290649E+01   2.17722107E+02   8.17175293E+00   2.16881409E+02  -1.28659658E+01  -1.51844251E+00
             2586                1   2.18928802E+02   1.99508545E+02   1.99508545E+02  -3.22174911E+01  -3.85937548E+00   1.99508545E+02   1.99508545E+02  -3.85937548E+00  -3.22174911E+01   2.31726028E+02  -5.44772224E+01   2.14738419E+02  -3.22111664E+01   1.99502213E+02  -3.85937548E+00  -1.21073198E+00
             2586                2   2.19280792E+02   1.99424393E+02   1.99424393E+02  -3.44511185E+01  -1.54161048E+00   1.99424393E+02   1.99424393E+02  -1.54161048E+00  -3.44511185E+01   2.33875519E+02  -5.44772224E+01   2.13618698E+02  -3.42791710E+01   1.99252457E+02  -1.54161048E+00  -6.33903837E+00
             2586                3   2.19359558E+02   1.99435684E+02   1.99435684E+02  -3.47299614E+01  -1.27405787E+00   1.99435684E+02   1.99435684E+02  -1.27405787E+00  -3.47299614E+01   2.34165634E+02  -5.44772186E+01   2.13506287E+02  -3.46932297E+01   1.99398956E+02  -1.27405787E+00   2.93219614E+00
             2586                4   2.19619888E+02   1.99271515E+02   1.99271515E+02  -3.67239532E+01   8.84102643E-01   1.99271515E+02   1.99271515E+02   8.84102643E-01  -3.67239532E+01   2.35995468E+02  -5.44772224E+01   2.12193237E+02  -3.67039146E+01   1.99251480E+02   8.84102643E-01  -2.17432332E+00
             2587                1   2.20000000E+02   2.07130798E+02   2.07130798E+02  -1.81174908E+01  -7.21554995E+00   2.07130798E+02   2.07130798E+02  -7.21554995E+00  -1.81174908E+01   2.25248291E+02  -6.05992546E+01   2.19391006E+02  -1.73914146E+01   2.06404724E+02  -7.21554995E+00  -1.27678986E+01
             2587                2   2.20000000E+02   2.07050598E+02   2.07050598E+02  -1.95065479E+01  -5.74628258E+00   2.07050598E+02   2.07050598E+02  -5.74628258E+00  -1.95065479E+01   2.26557144E+02  -6.05992584E+01   2.19028656E+02  -1.82493629E+01   2.05793411E+02  -5.74628258E+00  -1.68298721E+01
             2587                3   2.20000000E+02   2.07019547E+02   2.07019547E+02  -1.99700069E+01  -5.25177622E+00   2.07019547E+02   2.07019547E+02  -5.25177622E+00  -1.99700069E+01   2.26989563E+02  -6.05992584E+01   2.18888199E+02  -1.95911560E+01   2.06640701E+02  -5.25177622E+00  -9.26562786E+00
             2587                4   2.20000000E+02   2.06926834E+02   2.06926834E+02  -2.11965790E+01  -3.93250155E+00   2.06926834E+02   2.06926834E+02  -3.93250155E+00  -2.11965790E+01   2.28123413E+02  -6.05992546E+01   2.18468185E+02  -2.04131260E+01   2.06143387E+02  -3.93250155E+00  -1.33457470E+01
             2588                1   2.20000015E+02   2.06712692E+02   2.06712692E+02   5.27679443E-01  -2.48936596E+01   2.06712692E+02   2.06712692E+02   5.27679443E-01  -2.48936596E+01   2.31606354E+02  -6.07822380E+01   2.16658676E+02   6.25868201E-01   2.06614502E+02  -2.48936596E+01  -4.49841452E+00
             2588                2   2.20000000E+02   2.06710388E+02   2.06710388E+02   5.48630476E-01  -2.49123116E+01   2.06710388E+02   2.06710388E+02   5.48630476E-01  -2.49123116E+01   2.31622696E+02  -6.07822380E+01   2.16648132E+02   5.68054855E-01   2.06690964E+02  -2.49123116E+01  -2.00101161E+00
             2588                3   2.20000000E+02   2.06546432E+02   2.06546432E+02   1.96904647E+00  -2.61687622E+01   2.06546432E+02   2.06546432E+02   1.96904647E+00  -2.61687622E+01   2.32715195E+02  -6.07822380E+01   2.15896027E+02   2.06922340E+00   2.06446243E+02  -2.61687622E+01  -4.52604342E+00
             2588                4   2.20000000E+02   2.06543747E+02   2.06543747E+02   1.99118769E+00  -2.61882305E+01   2.06543747E+02   2.06543747E+02   1.99118769E+00  -2.61882305E+01   2.32731964E+02  -6.07822304E+01   2.15883713E+02   2.01051497E+00   2.06524414E+02  -2.61882305E+01  -1.98814654E+00
             2589                1   2.20000000E+02   2.42988190E+02   2.42988190E+02   2.35963726E+01   2.23849945E+01   2.42988190E+02   2.42988190E+02   2.35963726E+01   2.23849945E+01   2.20603195E+02  -9.63231812E+01   2.19992508E+02   2.36367683E+01   2.42947784E+02   2.23849945E+01  -2.97685385E+00
             2589                2   2.20000000E+02   2.42989838E+02   2.42989838E+02   2.29402809E+01   2.30394211E+01   2.42989838E+02   2.42989838E+02   2.30394211E+01   2.29402809E+01   2.20049545E+02  -9.63231812E+01   2.19999954E+02   2.29867210E+01   2.42943405E+02   2.30394211E+01  -3.19626021E+00
             2589                3   2.20000000E+02   2.42988678E+02   2.42988678E+02   2.34975529E+01   2.24833126E+01   2.42988678E+02   2.42988678E+02   2.34975529E+01   2.24833126E+01   2.20505371E+02  -9.63231812E+01   2.19994751E+02   2.35123138E+01   2.42973923E+02   2.24833126E+01  -1.79992771E+00
             2589                4   2.20000000E+02   2.42989746E+02   2.42989746E+02   2.28446884E+01   2.31351089E+01   2.42989746E+02   2.42989746E+02   2.31351089E+01   2.28446884E+01   2.20145065E+02  -9.63231812E+01   2.19999557E+02   2.28633747E+01   2.42971054E+02   2.31351089E+01  -2.02840614E+00
             2590                1   2.20000000E+02   2.46073380E+02   2.46073380E+02   2.58234158E+01   2.63241806E+01   2.46073380E+02   2.46073380E+02   2.63241806E+01   2.58234158E+01   2.20249954E+02  -9.94069901E+01   2.19998718E+02   2.58262615E+01   2.46070526E+02   2.63241806E+01  -7.92027295E-01
             2590                2   2.20000000E+02   2.46073257E+02   2.46073257E+02   2.57777901E+01   2.63699245E+01   2.46073257E+02   2.46073257E+02   2.63699245E+01   2.57777901E+01   2.20295456E+02  -9.94069901E+01   2.19998184E+02   2.57778702E+01   2.46073166E+02   2.63699245E+01   1.38363138E-01
             2590                3   2.20000000E+02   2.46073318E+02   2.46073318E+02   2.63447361E+01   2.58029156E+01   2.46073318E+02   2.46073318E+02   2.63447361E+01   2.58029156E+01   2.20270416E+02  -9.94069901E+01   2.19998489E+02   2.63469009E+01   2.46071152E+02   2.58029156E+01  -6.91016614E-01
             2590                4   2.20000000E+02   2.46073410E+02   2.46073410E+02   2.62978916E+01   2.58496456E+01   2.46073410E+02   2.46073410E+02   2.62978916E+01   2.58496456E+01   2.20223770E+02  -9.94069824E+01   2.19998993E+02   2.62981663E+01   2.46073151E+02   2.58496456E+01   2.45249957E-01
             2591                1   2.20000000E+02   2.42352356E+02   2.42352356E+02   2.28511600E+01   2.18569374E+01   2.42352356E+02   2.42352356E+02   2.28511600E+01   2.18569374E+01   2.20495422E+02  -9.56868210E+01   2.19994949E+02   2.29010239E+01   2.42302505E+02   2.18569374E+01  -3.30769396E+00
             2591                2   2.20000000E+02   2.42349014E+02   2.42349014E+02   2.33482170E+01   2.13632412E+01   2.42349014E+02   2.42349014E+02   2.33482170E+01   2.13632412E+01   2.20985779E+02  -9.56868286E+01   2.19979843E+02   2.33839283E+01   2.42313309E+02   2.13632412E+01  -2.79626608E+00
             2591                3   2.20000000E+02   2.42351135E+02   2.42351135E+02   2.30766964E+01   2.16326618E+01   2.42351135E+02   2.42351135E+02   2.30766964E+01   2.16326618E+01   2.20718460E+02  -9.56868286E+01   2.19989334E+02   2.31566696E+01   2.42271149E+02   2.16326618E+01  -4.18702316E+00
             2591                4   2.20000000E+02   2.42346695E+02   2.42346695E+02   2.35795135E+01   2.11342678E+01   2.42346695E+02   2.42346695E+02   2.35795135E+01   2.11342678E+01   2.21212433E+02  -9.56868286E+01   2.19969406E+02   2.36413994E+01   2.42284805E+02   2.11342678E+01  -3.67910290E+00
             2592                1   2.20000000E+02   2.41880280E+02   2.41880280E+02   2.27453575E+01   2.10253067E+01   2.41880280E+02   2.41880280E+02   2.27453575E+01   2.10253067E+01   2.20854980E+02  -9.52169800E+01   2.19984863E+02   2.28142376E+01   2.41811401E+02   2.10253067E+01  -3.88452053E+00
             2592                2   2.20000000E+02   2.41883438E+02   2.41883438E+02   2.20953217E+01   2.16721821E+01   2.41883438E+02   2.41883438E+02   2.20953217E+01   2.16721821E+01   2.20211258E+02  -9.52169800E+01   2.19999084E+02   2.21768951E+01   2.41801865E+02   2.16721821E+01  -4.23348761E+00
             2592                3   2.20000000E+02   2.41881393E+02   2.41881393E+02   2.25879612E+01   2.11815815E+01   2.41881393E+02   2.41881393E+02   2.25879612E+01   2.11815815E+01   2.20699814E+02  -9.52169800E+01   2.19989899E+02   2.26218529E+01   2.41847519E+02   2.11815815E+01  -2.72583079E+00
             2592                4   2.20000000E+02   2.41883636E+02   2.41883636E+02   2.19429626E+01   2.18243561E+01   2.41883636E+02   2.41883636E+02   2.19429626E+01   2.18243561E+01   2.20059280E+02  -9.52169800E+01   2.19999939E+02   2.19861870E+01   2.41840408E+02   2.18243561E+01  -3.08312345E+00
             2593                1   2.20000000E+02   2.27986679E+02   2.27986679E+02   1.16936426E+01   4.45824051E+00   2.27986679E+02   2.27986679E+02   1.16936426E+01   4.45824051E+00   2.23528442E+02  -8.13795242E+01   2.19732056E+02   1.20229359E+01   2.27657394E+02   4.45824051E+00  -8.43297100E+00
             2593                2   2.20000000E+02   2.27985229E+02   2.27985229E+02   1.17384243E+01   4.41491270E+00   2.27985229E+02   2.27985229E+02   1.17384243E+01   4.41491270E+00   2.23570312E+02  -8.13795242E+01   2.19725479E+02   1.20488195E+01   2.27674835E+02   4.41491270E+00  -8.18683624E+00
             2593                3   2.20000000E+02   2.27983017E+02   2.27983017E+02   1.18054867E+01   4.35007381E+00   2.27983017E+02   2.27983017E+02   1.18054867E+01   4.35007381E+00   2.23632935E+02  -8.13795242E+01   2.19715500E+02   1.21503897E+01   2.27638107E+02   4.35007381E+00  -8.62795258E+00
             2593                4   2.20000000E+02   2.27981552E+02   2.27981552E+02   1.18490477E+01   4.30797243E+00   2.27981552E+02   2.27981552E+02   1.18490477E+01   4.30797243E+00   2.23673584E+02  -8.13795242E+01   2.19708923E+02   1.21743612E+01   2.27656235E+02   4.30797243E+00  -8.37885189E+00
             2594                1   2.20000000E+02   2.03244675E+02   2.03244675E+02  -2.35796185E+01  -9.22835445E+00   2.03244675E+02   2.03244675E+02  -9.22835445E+00  -2.35796185E+01   2.26824295E+02  -5.68122368E+01   2.18943130E+02  -2.28100300E+01   2.02475082E+02  -9.22835445E+00  -1.31897449E+01
             2594                2   2.20000000E+02   2.03310730E+02   2.03310730E+02  -2.25178967E+01  -1.03561392E+01   2.03310730E+02   2.03310730E+02  -1.03561392E+01  -2.25178967E+01   2.25828629E+02  -5.68122292E+01   2.19241776E+02  -2.21344852E+01   2.02927322E+02  -1.03561392E+01  -9.29715633E+00
             2594                3   2.20000000E+02   2.03347595E+02   2.03347595E+02  -2.18289051E+01  -1.10820026E+01   2.03347595E+02   2.03347595E+02  -1.10820026E+01  -2.18289051E+01   2.25176498E+02  -5.68122292E+01   2.19408249E+02  -2.07098942E+01   2.02228592E+02  -1.10820026E+01  -1.58341827E+01
             2594                4   2.20000000E+02   2.03400696E+02   2.03400696E+02  -2.06291790E+01  -1.23348303E+01   2.03400696E+02   2.03400696E+02  -1.23348303E+01  -2.06291790E+01   2.24029877E+02  -5.68122292E+01   2.19647781E+02  -1.99926281E+01   2.02764145E+02  -1.23348303E+01  -1.19247904E+01
             2595                1   2.20000000E+02   2.43646286E+02   2.43646286E+02   2.40934296E+01   2.32018623E+01   2.43646286E+02   2.43646286E+02   2.40934296E+01   2.32018623E+01   2.20444427E+02  -9.69805298E+01   2.19995926E+02   2.41114521E+01   2.43628265E+02   2.32018623E+01  -1.98895860E+00
             2595                2   2.20000000E+02   2.43646973E+02   2.43646973E+02   2.34295425E+01   2.38650627E+01   2.43646973E+02   2.43646973E+02   2.38650627E+01   2.34295425E+01   2.20217422E+02  -9.69805222E+01   2.19999039E+02   2.34505863E+01   2.43625931E+02   2.38650627E+01  -2.15253949E+00
             2595                3   2.20000000E+02   2.43646576E+02   2.43646576E+02   2.40187607E+01   2.32762642E+01   2.43646576E+02   2.43646576E+02   2.40187607E+01   2.32762642E+01   2.20370316E+02  -9.69805374E+01   2.19997162E+02   2.40216217E+01   2.43643707E+02   2.32762642E+01  -7.93722749E-01
             2595                4   2.20000000E+02   2.43646805E+02   2.43646805E+02   2.33573132E+01   2.39374542E+01   2.43646805E+02   2.43646805E+02   2.39374542E+01   2.33573132E+01   2.20289490E+02  -9.69805298E+01   2.19998260E+02   2.33615627E+01   2.43642563E+02   2.39374542E+01  -9.66802061E-01
             2596                1   2.19999985E+02   2.22343262E+02   2.22343262E+02   1.03288536E+01  -4.85558653E+00   2.22343262E+02   2.22343262E+02   1.03288536E+01  -4.85558653E+00   2.27198853E+02  -7.59388428E+01   2.18816360E+02   1.03531256E+01   2.22319000E+02  -4.85558653E+00  -2.26801705E+00
             2596                2   2.20000000E+02   2.22349411E+02   2.22349411E+02   1.02366095E+01  -4.76946783E+00   2.22349411E+02   2.22349411E+02   1.02366095E+01  -4.76946783E+00   2.27118866E+02  -7.59388504E+01   2.18844116E+02   1.02372608E+01   2.22348755E+02  -4.76946783E+00  -3.71160537E-01
             2596                3   2.20000000E+02   2.22272507E+02   2.22272507E+02   1.13264303E+01  -5.78239393E+00   2.22272507E+02   2.22272507E+02   1.13264303E+01  -5.78239393E+00   2.28054901E+02  -7.59388504E+01   2.18495743E+02   1.13449554E+01   2.22253983E+02  -5.78239393E+00  -1.97671854E+00
             2596                4   2.20000000E+02   2.22280029E+02   2.22280029E+02   1.12256622E+01  -5.68914175E+00   2.22280029E+02   2.22280029E+02   1.12256622E+01  -5.68914175E+00   2.27969177E+02  -7.59388504E+01   2.18529846E+02   1.12256594E+01   2.22280029E+02  -5.68914175E+00  -4.29008761E-03
             2597                1   2.20000000E+02   2.22586472E+02   2.22586472E+02   3.15188980E+00   2.02537489E+00   2.22586472E+02   2.22586472E+02   3.15188980E+00   2.02537489E+00   2.20561096E+02  -7.59212418E+01   2.19993500E+02   3.34875107E+00   2.22389603E+02   2.02537489E+00  -6.56964588E+00
             2597                2   2.20000000E+02   2.22584183E+02   2.22584183E+02   1.68384159E+00   3.49570560E+00   2.22584183E+02   2.22584183E+02   3.49570560E+00   1.68384159E+00   2.20900345E+02  -7.59212418E+01   2.19983200E+02   1.86778486E+00   2.22400238E+02   3.49570560E+00  -6.37171888E+00
             2597                3   2.20000000E+02   2.22585907E+02   2.22585907E+02   3.25415254E+00   1.92367053E+00   2.22585907E+02   2.22585907E+02   3.25415254E+00   1.92367053E+00   2.20662231E+02  -7.59212418E+01   2.19990952E+02   3.31987739E+00   2.22520187E+02   1.92367053E+00  -3.79600120E+00
             2597                4   2.20000000E+02   2.22584930E+02   2.22584930E+02   1.77915776E+00   3.39964008E+00   2.22584930E+02   2.22584930E+02   3.39964008E+00   1.77915776E+00   2.20805771E+02  -7.59212418E+01   2.19986588E+02   1.83948255E+00   2.22524612E+02   3.39964008E+00  -3.64901662E+00
             2598                1   2.20000000E+02   2.12228058E+02   2.12228058E+02   3.15749264E+00  -1.72757282E+01   2.12228058E+02   2.12228058E+02   3.15749264E+00  -1.72757282E+01   2.29503784E+02  -6.60366058E+01   2.17849792E+02   3.30314660E+00   2.12082397E+02  -1.72757282E+01  -5.51640081E+00
             2598                2   2.20000000E+02   2.12214828E+02   2.12214828E+02   3.30493999E+00  -1.74099541E+01   2.12214828E+02   2.12214828E+02   3.30493999E+00  -1.74099541E+01   2.29624786E+02  -6.60366058E+01   2.17789658E+02   3.36080217E+00   2.12158966E+02  -1.74099541E+01  -3.41592169E+00
             2598                3   2.20000000E+02   2.12119797E+02   2.12119797E+02   4.31350946E+00  -1.83234882E+01   2.12119797E+02   2.12119797E+02   4.31350946E+00  -1.83234882E+01   2.30443283E+02  -6.60366058E+01   2.17356644E+02   4.47179699E+00   2.11961502E+02  -1.83234882E+01  -5.73315859E+00
             2598                4   2.20000000E+02   2.12104477E+02   2.12104477E+02   4.46852684E+00  -1.84631939E+01   2.12104477E+02   2.12104477E+02   4.46852684E+00  -1.84631939E+01   2.30567657E+02  -6.60365982E+01   2.17286743E+02   4.53090477E+00   2.12042099E+02  -1.84631939E+01  -3.59816527E+00
             2599                1   2.20000000E+02   2.21657639E+02   2.21657639E+02  -1.79886556E+00   5.28528500E+00   2.21657639E+02   2.21657639E+02   5.28528500E+00  -1.79886556E+00   2.23456512E+02  -7.50480194E+01   2.19743149E+02  -1.37115562E+00   2.21229935E+02   5.28528500E+00  -9.76687336E+00
             2599                2   2.20000000E+02   2.21677505E+02   2.21677505E+02  -1.12687886E+00   4.59345102E+00   2.21677505E+02   2.21677505E+02   4.59345102E+00  -1.12687886E+00   2.22804382E+02  -7.50480270E+01   2.19832581E+02  -6.27705216E-01   2.21178329E+02   4.59345102E+00  -1.05342245E+01
             2599                3   2.20000000E+02   2.21645844E+02   2.21645844E+02  -2.14237666E+00   5.64060259E+00   2.21645844E+02   2.21645844E+02   5.64060259E+00  -2.14237666E+00   2.23788223E+02  -7.50480270E+01   2.19689926E+02  -1.58895504E+00   2.21092422E+02   5.64060259E+00  -1.11149511E+01
             2599                4   2.20000000E+02   2.21667419E+02   2.21667419E+02  -1.48622143E+00   4.96286726E+00   2.21667419E+02   2.21667419E+02   4.96286726E+00  -1.48622143E+00   2.23153641E+02  -7.50480194E+01   2.19787186E+02  -8.51330698E-01   2.21032532E+02   4.96286726E+00  -1.18858929E+01
             2600                1   2.20000000E+02   2.44045914E+02   2.44045914E+02   2.37193794E+01   2.43738976E+01   2.44045914E+02   2.44045914E+02   2.43738976E+01   2.37193794E+01   2.20326523E+02  -9.73797302E+01   2.19997803E+02   2.37234650E+01   2.44041824E+02   2.43738976E+01  -9.48731780E-01
             2600                2   2.20000000E+02   2.44045868E+02   2.44045868E+02   2.37029800E+01   2.43903522E+01   2.44045868E+02   2.44045868E+02   2.43903522E+01   2.37029800E+01   2.20342880E+02  -9.73797302E+01   2.19997574E+02   2.37032356E+01   2.44045593E+02   2.43903522E+01   2.39306495E-01
             2600                3   2.20000000E+02   2.44045883E+02   2.44045883E+02   2.43825836E+01   2.37107220E+01   2.44045883E+02   2.44045883E+02   2.43825836E+01   2.37107220E+01   2.20335159E+02  -9.73797302E+01   2.19997681E+02   2.43863964E+01   2.44042068E+02   2.37107220E+01  -9.15346324E-01
             2600                4   2.20000000E+02   2.44045929E+02   2.44045929E+02   2.43656044E+01   2.37276440E+01   2.44045929E+02   2.44045929E+02   2.43656044E+01   2.37276440E+01   2.20318283E+02  -9.73797226E+01   2.19997925E+02   2.43659725E+01   2.44045563E+02   2.37276440E+01   2.82395154E-01
             2601                1   2.20000000E+02   2.08230164E+02   2.08230164E+02   5.06881952E-01  -2.22737999E+01   2.08230164E+02   2.08230164E+02   5.06881952E-01  -2.22737999E+01   2.30503967E+02  -6.21544151E+01   2.17322693E+02   5.49331605E-01   2.08187714E+02  -2.22737999E+01  -2.96917439E+00
             2601                2   2.20000000E+02   2.08106262E+02   2.08106262E+02   1.70359755E+00  -2.33466091E+01   2.08106262E+02   2.08106262E+02   1.70359755E+00  -2.33466091E+01   2.31452866E+02  -6.21544189E+01   2.16756577E+02   1.74640083E+00   2.08063461E+02  -2.33466091E+01  -2.97194862E+00
             2601                3   2.20000000E+02   2.08232849E+02   2.08232849E+02   4.79690462E-01  -2.22492867E+01   2.08232849E+02   2.08232849E+02   4.79690462E-01  -2.22492867E+01   2.30482132E+02  -6.21544189E+01   2.17334930E+02   6.04180217E-01   2.08108353E+02  -2.22492867E+01  -5.08419609E+00
             2601                4   2.20000000E+02   2.08109329E+02   2.08109329E+02   1.67508936E+00  -2.33211784E+01   2.08109329E+02   2.08109329E+02   1.67508936E+00  -2.33211784E+01   2.31430511E+02  -6.21544151E+01   2.16770676E+02   1.80196893E+00   2.07982452E+02  -2.33211784E+01  -5.11631870E+00
             2602                1   2.20000000E+02   2.25137604E+02   2.25137604E+02   4.42355394E+00   5.85867214E+00   2.25137604E+02   2.25137604E+02   5.85867214E+00   4.42355394E+00   2.20714050E+02  -7.84732742E+01   2.19989471E+02   4.75516033E+00   2.24806000E+02   5.85867214E+00  -8.54865837E+00
             2602                2   2.20000000E+02   2.25138885E+02   2.25138885E+02   5.62347651E+00   4.65746689E+00   2.25138885E+02   2.25138885E+02   5.62347651E+00   4.65746689E+00   2.20481415E+02  -7.84732742E+01   2.19995224E+02   5.96610069E+00   2.24796265E+02   4.65746689E+00  -8.66560078E+00
             2602                3   2.20000000E+02   2.25137024E+02   2.25137024E+02   4.33892870E+00   5.94389200E+00   2.25137024E+02   2.25137024E+02   5.94389200E+00   4.33892870E+00   2.20798096E+02  -7.84732819E+01   2.19986832E+02   4.86323071E+00   2.24612717E+02   5.94389200E+00  -1.07466774E+01
             2602                4   2.20000000E+02   2.25139252E+02   2.25139252E+02   5.53156185E+00   4.74902534E+00   2.25139252E+02   2.25139252E+02   5.53156185E+00   4.74902534E+00   2.20390213E+02  -7.84732742E+01   2.19996857E+02   6.07355976E+00   2.24597244E+02   4.74902534E+00  -1.08965006E+01
             2603                1   2.20000000E+02   2.21669601E+02   2.21669601E+02   2.48049092E+00   8.67549777E-01   2.21669601E+02   2.21669601E+02   2.48049092E+00   8.67549777E-01   2.20802048E+02  -7.50058823E+01   2.19986710E+02   3.03046227E+00   2.21119629E+02   8.67549777E-01  -1.09655819E+01
             2603                2   2.20000000E+02   2.21661743E+02   2.21661743E+02   3.21884990E+00   1.37029782E-01   2.21661743E+02   2.21661743E+02   3.21884990E+00   1.37029782E-01   2.21524719E+02  -7.50058746E+01   2.19951431E+02   3.86030936E+00   2.21020294E+02   1.37029782E-01  -1.18198996E+01
             2603                3   2.20000000E+02   2.21671051E+02   2.21671051E+02   2.24469852E+00   1.10186875E+00   2.21671051E+02   2.21671051E+02   2.24469852E+00   1.10186875E+00   2.20569183E+02  -7.50058746E+01   2.19993332E+02   2.96335554E+00   2.20952408E+02   1.10186875E+00  -1.25369167E+01
             2603                4   2.20000000E+02   2.21664536E+02   2.21664536E+02   3.00342655E+00   3.49667966E-01   2.21664536E+02   2.21664536E+02   3.00342655E+00   3.49667966E-01   2.21314880E+02  -7.50058823E+01   2.19963974E+02   3.83267069E+00   2.20835297E+02   3.49667966E-01  -1.34400940E+01
             2604                1   2.20000000E+02   2.12351273E+02   2.12351273E+02  -2.11386299E+01   8.93541622E+00   2.12351273E+02   2.12351273E+02   8.93541622E+00  -2.11386299E+01   2.33489914E+02  -6.67160187E+01   2.15302490E+02  -2.07914448E+01   2.12004089E+02   8.93541622E+00  -8.99690533E+00
             2604                2   2.20000000E+02   2.11981857E+02   2.11981857E+02  -2.34300957E+01   1.15963135E+01   2.11981857E+02   2.11981857E+02   1.15963135E+01  -2.34300957E+01   2.35411957E+02  -6.67160263E+01   2.13591385E+02  -2.21075497E+01   2.10659302E+02   1.15963135E+01  -1.75953236E+01
             2604                3   2.20000000E+02   2.11900192E+02   2.11900192E+02  -2.38899994E+01   1.21378775E+01   2.11900192E+02   2.11900192E+02   1.21378775E+01  -2.38899994E+01   2.35790192E+02  -6.67160263E+01   2.13210999E+02  -2.38899860E+01   2.11900177E+02   1.21378775E+01  -5.92044555E-02
             2604                4   2.20000000E+02   2.11571548E+02   2.11571548E+02  -2.56112499E+01   1.41877584E+01   2.11571548E+02   2.11571548E+02   1.41877584E+01  -2.56112499E+01   2.37182800E+02  -6.67160187E+01   2.11672272E+02  -2.52666721E+01   2.11226974E+02   1.41877584E+01  -9.03370667E+00
             2605                1   2.20000000E+02   2.40484070E+02   2.40484070E+02   2.11300945E+01   1.98437080E+01   2.40484070E+02   2.40484070E+02   2.11300945E+01   1.98437080E+01   2.20640366E+02  -9.38192978E+01   2.19991531E+02   2.11896629E+01   2.40424515E+02   1.98437080E+01  -3.61417937E+00
             2605                2   2.20000000E+02   2.40485855E+02   2.40485855E+02   2.03313198E+01   2.06407127E+01   2.40485855E+02   2.40485855E+02   2.06407127E+01   2.03313198E+01   2.20154526E+02  -9.38192978E+01   2.19999496E+02   2.03978138E+01   2.40419357E+02   2.06407127E+01  -3.82545590E+00
             2605                3   2.20000000E+02   2.40484589E+02   2.40484589E+02   2.10350666E+01   1.99382248E+01   2.40484589E+02   2.40484589E+02   2.10350666E+01   1.99382248E+01   2.20546356E+02  -9.38192978E+01   2.19993851E+02   2.10565739E+01   2.40463089E+02   1.99382248E+01  -2.17234135E+00
             2605                4   2.20000000E+02   2.40485687E+02   2.40485687E+02   2.02400455E+01   2.07321491E+01   2.40485687E+02   2.40485687E+02   2.07321491E+01   2.02400455E+01   2.20245651E+02  -9.38192978E+01   2.19998779E+02   2.02661495E+01   2.40459595E+02   2.07321491E+01  -2.39739728E+00
             2606                1   2.20000000E+02   2.27197220E+02   2.27197220E+02   9.75526905E+00   4.72542524E+00   2.27197220E+02   2.27197220E+02   9.75526905E+00   4.72542524E+00   2.22471786E+02  -8.05593033E+01   2.19870575E+02   1.01249456E+01   2.26827545E+02   4.72542524E+00   8.95796299E+00
             2606                2   2.20000000E+02   2.27183868E+02   2.27183868E+02   1.02903004E+01   4.20374823E+00   2.27183868E+02   2.27183868E+02   1.02903004E+01   4.20374823E+00   2.22980118E+02  -8.05593033E+01   2.19810440E+02   1.08492174E+01   2.26624954E+02   4.20374823E+00   1.09960032E+01
             2606                3   2.20000000E+02   2.27174759E+02   2.27174759E+02   1.06079435E+01   3.89522648E+00   2.27174759E+02   2.27174759E+02   1.06079435E+01   3.89522648E+00   2.23279526E+02  -8.05593109E+01   2.19769379E+02   1.08521814E+01   2.26930511E+02   3.89522648E+00   7.26881313E+00
             2606                4   2.20000000E+02   2.27156052E+02   2.27156052E+02   1.11825237E+01   3.33935165E+00   2.27156052E+02   2.27156052E+02   1.11825237E+01   3.33935165E+00   2.23816696E+02  -8.05593109E+01   2.19685104E+02   1.15837040E+01   2.26754868E+02   3.33935165E+00   9.29971504E+00
             2607                1   2.20000000E+02   2.04640625E+02   2.04640625E+02  -2.46048908E+01  -4.77067900E+00   2.04640625E+02   2.04640625E+02  -4.77067900E+00  -2.46048908E+01   2.29245514E+02  -5.84216881E+01   2.17974838E+02  -2.38777599E+01   2.03913498E+02  -4.77067900E+00  -1.28904047E+01
             2607                2   2.20000000E+02   2.04760330E+02   2.04760330E+02  -2.32378979E+01  -6.25737619E+00   2.04760330E+02   2.04760330E+02  -6.25737619E+00  -2.32378979E+01   2.27998230E+02  -5.84216881E+01   2.18518341E+02  -2.29206638E+01   2.04443100E+02  -6.25737619E+00  -8.49863815E+00
             2607                3   2.20000000E+02   2.04785706E+02   2.04785706E+02  -2.29161148E+01  -6.60451412E+00   2.04785706E+02   2.04785706E+02  -6.60451412E+00  -2.29161148E+01   2.27701813E+02  -5.84216919E+01   2.18633286E+02  -2.17081146E+01   2.03577698E+02  -6.60451412E+00  -1.65410004E+01
             2607                4   2.20000000E+02   2.04891449E+02   2.04891449E+02  -2.13928947E+01  -8.23348808E+00   2.04891449E+02   2.04891449E+02  -8.23348808E+00  -2.13928947E+01   2.26284332E+02  -5.84216881E+01   2.19111893E+02  -2.07412815E+01   2.04239838E+02  -8.23348808E+00  -1.21253376E+01
             2608                1   2.20000000E+02   2.41186996E+02   2.41186996E+02   2.16794548E+01   2.06978340E+01   2.41186996E+02   2.41186996E+02   2.16794548E+01   2.06978340E+01   2.20489166E+02  -9.45214310E+01   2.19995056E+02   2.17065716E+01   2.41159882E+02   2.06978340E+01  -2.43965578E+00
             2608                2   2.20000000E+02   2.41187653E+02   2.41187653E+02   2.08778706E+01   2.14987640E+01   2.41187653E+02   2.41187653E+02   2.14987640E+01   2.08778706E+01   2.20309784E+02  -9.45214233E+01   2.19998032E+02   2.09071770E+01   2.41158340E+02   2.14987640E+01  -2.54096270E+00
             2608                3   2.20000000E+02   2.41187210E+02   2.41187210E+02   2.16329231E+01   2.07441673E+01   2.41187210E+02   2.41187210E+02   2.16329231E+01   2.07441673E+01   2.20443039E+02  -9.45214310E+01   2.19995972E+02   2.16373596E+01   2.41182770E+02   2.07441673E+01  -9.86908257E-01
             2608                4   2.20000000E+02   2.41187515E+02   2.41187515E+02   2.08331985E+01   2.15435638E+01   2.41187515E+02   2.41187515E+02   2.15435638E+01   2.08331985E+01   2.20354324E+02  -9.45214233E+01   2.19997437E+02   2.08387184E+01   2.41182007E+02   2.15435638E+01  -1.10240948E+00
             2609                1   2.20000000E+02   2.34914307E+02   2.34914307E+02   1.54987688E+01   1.43344536E+01   2.34914307E+02   2.34914307E+02   1.54987688E+01   1.43344536E+01   2.20579849E+02  -8.82491760E+01   2.19993057E+02   1.55486116E+01   2.34864456E+02   1.43344536E+01  -3.30672741E+00
             2609                2   2.20000000E+02   2.34914688E+02   2.34914688E+02   1.44132366E+01   1.54195957E+01   2.34914688E+02   2.34914688E+02   1.54195957E+01   1.44132366E+01   2.20501450E+02  -8.82491760E+01   2.19994812E+02   1.44635754E+01   2.34864349E+02   1.54195957E+01  -3.33132267E+00
             2609                3   2.20000000E+02   2.34914368E+02   2.34914368E+02   1.54872456E+01   1.43459158E+01   2.34914368E+02   2.34914368E+02   1.54872456E+01   1.43459158E+01   2.20568451E+02  -8.82491760E+01   2.19993347E+02   1.54950695E+01   2.34906540E+02   1.43459158E+01  -1.31042039E+00
             2609                4   2.20000000E+02   2.34914642E+02   2.34914642E+02   1.44024019E+01   1.54304771E+01   2.34914642E+02   2.34914642E+02   1.54304771E+01   1.44024019E+01   2.20512238E+02  -8.82491760E+01   2.19994598E+02   1.44108133E+01   2.34906235E+02   1.54304771E+01  -1.36181533E+00
             2610                1   2.20000000E+02   2.21746307E+02   2.21746307E+02  -8.39213753E+00   1.35254726E+01   2.21746307E+02   2.21746307E+02   1.35254726E+01  -8.39213753E+00   2.30138443E+02  -7.56265488E+01   2.17523376E+02  -8.08590221E+00   2.21440079E+02   1.35254726E+01  -8.38937950E+00
             2610                2   2.20000000E+02   2.21860397E+02   2.21860397E+02  -7.24115372E+00   1.22603979E+01   2.21860397E+02   2.21860397E+02   1.22603979E+01  -7.24115372E+00   2.29101562E+02  -7.56265488E+01   2.18042648E+02  -6.68695402E+00   2.21306198E+02   1.22603979E+01  -1.12544069E+01
             2610                3   2.20000000E+02   2.21633453E+02   2.21633453E+02  -9.41102791E+00   1.46572218E+01   2.21633453E+02   2.21633453E+02   1.46572218E+01  -9.41102791E+00   2.31044479E+02  -7.56265488E+01   2.17008362E+02  -8.88019180E+00   2.21102615E+02   1.46572218E+01  -1.10619144E+01
             2610                4   2.20000000E+02   2.21757324E+02   2.21757324E+02  -8.28698349E+00   1.34093056E+01   2.21757324E+02   2.21757324E+02   1.34093056E+01  -8.28698349E+00   2.30044296E+02  -7.56265488E+01   2.17573547E+02  -7.42623234E+00   2.20896576E+02   1.34093056E+01  -1.40452261E+01
             2611                1   2.20000000E+02   2.26671509E+02   2.26671509E+02   1.32095995E+01   6.69815361E-01   2.26671509E+02   2.26671509E+02   1.32095995E+01   6.69815361E-01   2.26001694E+02  -8.01836395E+01   2.19193756E+02   1.32115288E+01   2.26669571E+02   6.69815361E-01   6.42292559E-01
             2611                2   2.20000000E+02   2.26696808E+02   2.26696808E+02   1.27365971E+01   1.11751723E+00   2.26696808E+02   2.26696808E+02   1.27365971E+01   1.11751723E+00   2.25579300E+02  -8.01836472E+01   2.19308060E+02   1.27594376E+01   2.26673965E+02   1.11751723E+00   2.21090841E+00
             2611                3   2.20000000E+02   2.26627411E+02   2.26627411E+02   1.39615593E+01  -3.80632766E-02   2.26627411E+02   2.26627411E+02   1.39615593E+01  -3.80632766E-02   2.26665482E+02  -8.01836319E+01   2.18994461E+02   1.39801350E+01   2.26608841E+02  -3.80632766E-02   1.98738372E+00
             2611                4   2.20000000E+02   2.26655334E+02   2.26655334E+02   1.34949036E+01   4.00672466E-01   2.26655334E+02   2.26655334E+02   1.34949036E+01   4.00672466E-01   2.26254669E+02  -8.01836319E+01   2.19120697E+02   1.35516577E+01   2.26598587E+02   4.00672466E-01   3.47750139E+00
             2612                1   2.20000000E+02   2.13151627E+02   2.13151627E+02   2.86871171E+00  -1.54232988E+01   2.13151627E+02   2.13151627E+02   2.86871171E+00  -1.54232988E+01   2.28574921E+02  -6.68656845E+01   2.18279266E+02   3.06782889E+00   2.12952515E+02  -1.54232988E+01  -6.46765375E+00
             2612                2   2.20000000E+02   2.13136398E+02   2.13136398E+02   3.05728149E+00  -1.55966301E+01   2.13136398E+02   2.13136398E+02   3.05728149E+00  -1.55966301E+01   2.28733032E+02  -6.68656845E+01   2.18210098E+02   3.15542483E+00   2.13038254E+02  -1.55966301E+01  -4.53965759E+00
             2612                3   2.20000000E+02   2.13063522E+02   2.13063522E+02   3.91446686E+00  -1.63809490E+01   2.13063522E+02   2.13063522E+02   3.91446686E+00  -1.63809490E+01   2.29444473E+02  -6.68656845E+01   2.17878906E+02   4.13217211E+00   2.12845825E+02  -1.63809490E+01  -6.74428177E+00
             2612                4   2.20000000E+02   2.13045990E+02   2.13045990E+02   4.11092520E+00  -1.65598698E+01   2.13045990E+02   2.13045990E+02   4.11092520E+00  -1.65598698E+01   2.29605865E+02  -6.68656845E+01   2.17799133E+02   4.22115517E+00   2.12935760E+02  -1.65598698E+01  -4.79790688E+00
             2613                1   2.20000000E+02   2.23018555E+02   2.23018555E+02   2.62962031E+00   3.40956855E+00   2.23018555E+02   2.23018555E+02   3.40956855E+00   2.62962031E+00   2.20388931E+02  -7.63525772E+01   2.19996902E+02   3.20490718E+00   2.22443268E+02   3.40956855E+00  -1.12452908E+01
             2613                2   2.20000000E+02   2.23017334E+02   2.23017334E+02   3.66766214E+00   2.37273932E+00   2.23017334E+02   2.23017334E+02   3.66766214E+00   2.37273932E+00   2.20644592E+02  -7.63525772E+01   2.19991409E+02   4.30277872E+00   2.22382217E+02   2.37273932E+00  -1.17859898E+01
             2613                3   2.20000000E+02   2.23017868E+02   2.23017868E+02   2.46940660E+00   3.57047248E+00   2.23017868E+02   2.23017868E+02   3.57047248E+00   2.46940660E+00   2.20548462E+02  -7.63525772E+01   2.19993805E+02   3.25263333E+00   2.22234634E+02   3.57047248E+00  -1.31197348E+01
             2613                4   2.20000000E+02   2.23018341E+02   2.23018341E+02   3.46478415E+00   2.57461143E+00   2.23018341E+02   2.23018341E+02   3.46478415E+00   2.57461143E+00   2.20443726E+02  -7.63525772E+01   2.19995941E+02   4.31864882E+00   2.22164474E+02   2.57461143E+00  -1.36652851E+01
             2614                1   2.20000000E+02   2.21725189E+02   2.21725189E+02   8.40536535E-01   2.62065101E+00   2.21725189E+02   2.21725189E+02   2.62065101E+00   8.40536535E-01   2.20884644E+02  -7.50621262E+01   2.19983780E+02   1.54216838E+00   2.21023544E+02   2.62065101E+00   1.24293575E+01
             2614                2   2.20000000E+02   2.21727005E+02   2.21727005E+02   1.10345578E+00   2.35590863E+00   2.21727005E+02   2.21727005E+02   2.35590863E+00   1.10345578E+00   2.20623550E+02  -7.50621262E+01   2.19991974E+02   2.06731939E+00   2.20763138E+02   2.35590863E+00   1.45506868E+01
             2614                3   2.20000000E+02   2.21728790E+02   2.21728790E+02   1.75196445E+00   1.70561206E+00   2.21728790E+02   2.21728790E+02   1.75196445E+00   1.70561206E+00   2.20023178E+02  -7.50621262E+01   2.20000000E+02   2.32233238E+00   2.21158432E+02   1.70561206E+00   1.11866512E+01
             2614                4   2.20000000E+02   2.21728333E+02   2.21728333E+02   2.04514933E+00   1.41288149E+00   2.21728333E+02   2.21728333E+02   2.04514933E+00   1.41288149E+00   2.20315445E+02  -7.50621262E+01   2.19997955E+02   2.85527372E+00   2.20918213E+02   1.41288149E+00   1.33159189E+01
             2615                1   2.20000000E+02   2.41496994E+02   2.41496994E+02   2.19118481E+01   2.10844707E+01   2.41496994E+02   2.41496994E+02   2.19118481E+01   2.10844707E+01   2.20412521E+02  -9.48311081E+01   2.19996506E+02   2.19173222E+01   2.41491516E+02   2.10844707E+01  -1.09694147E+00
             2615                2   2.20000000E+02   2.41497055E+02   2.41497055E+02   2.11023102E+01   2.18939362E+01   2.41497055E+02   2.41497055E+02   2.18939362E+01   2.11023102E+01   2.20394745E+02  -9.48310928E+01   2.19996811E+02   2.11085510E+01   2.41490814E+02   2.18939362E+01  -1.17281628E+00
             2615                3   2.20000000E+02   2.41497116E+02   2.41497116E+02   2.18742752E+01   2.11219082E+01   2.41497116E+02   2.41497116E+02   2.18742752E+01   2.11219082E+01   2.20375214E+02  -9.48311081E+01   2.19997086E+02   2.18749027E+01   2.41496490E+02   2.11219082E+01   3.72807771E-01
             2615                4   2.20000000E+02   2.41496918E+02   2.41496918E+02   2.10662270E+01   2.19301529E+01   2.41496918E+02   2.41496918E+02   2.19301529E+01   2.10662270E+01   2.20430679E+02  -9.48310928E+01   2.19996185E+02   2.10665913E+01   2.41496552E+02   2.19301529E+01   2.82380044E-01
             2616                1   2.20000000E+02   2.10109970E+02   2.10109970E+02   4.79832798E-01  -1.89685650E+01   2.10109970E+02   2.10109970E+02   4.79832798E-01  -1.89685650E+01   2.29078537E+02  -6.38737450E+01   2.18053375E+02   5.46734989E-01   2.10043060E+02  -1.89685650E+01  -3.74443626E+00
             2616                2   2.20000000E+02   2.10017899E+02   2.10017899E+02   1.51366854E+00  -1.99103413E+01   2.10017899E+02   2.10017899E+02   1.51366854E+00  -1.99103413E+01   2.29928238E+02  -6.38737450E+01   2.17634521E+02   1.58314192E+00   2.09948425E+02  -1.99103413E+01  -3.80543709E+00
             2616                3   2.20000000E+02   2.10115112E+02   2.10115112E+02   4.18895930E-01  -1.89127865E+01   2.10115112E+02   2.10115112E+02   4.18895930E-01  -1.89127865E+01   2.29027908E+02  -6.38737450E+01   2.18076813E+02   5.69485426E-01   2.09964523E+02  -1.89127865E+01  -5.61747456E+00
             2616                4   2.20000000E+02   2.10023804E+02   2.10023804E+02   1.45008171E+00  -1.98526669E+01   2.10023804E+02   2.10023804E+02   1.45008171E+00  -1.98526669E+01   2.29876480E+02  -6.38737450E+01   2.17661438E+02   1.60606313E+00   2.09867828E+02  -1.98526669E+01  -5.70170546E+00
             2617                1   2.20000000E+02   2.40564606E+02   2.40564606E+02   2.09310570E+01   2.02000065E+01   2.40564606E+02   2.40564606E+02   2.09310570E+01   2.02000065E+01   2.20364609E+02  -9.38985596E+01   2.19997269E+02   2.10061646E+01   2.40489517E+02   2.02000065E+01  -4.06066895E+00
             2617                2   2.20000000E+02   2.40560745E+02   2.40560745E+02   2.15603485E+01   1.95745964E+01   2.40560745E+02   2.40560745E+02   2.15603485E+01   1.95745964E+01   2.20986145E+02  -9.38985596E+01   2.19979843E+02   2.16207542E+01   2.40500336E+02   1.95745964E+01  -3.63674235E+00
             2617                3   2.20000000E+02   2.40563873E+02   2.40563873E+02   2.11138306E+01   2.00180016E+01   2.40563873E+02   2.40563873E+02   2.11138306E+01   2.00180016E+01   2.20545868E+02  -9.38985672E+01   2.19993835E+02   2.12360554E+01   2.40441635E+02   2.00180016E+01  -5.17768049E+00
             2617                4   2.20000000E+02   2.40558899E+02   2.40558899E+02   2.17491760E+01   1.93876286E+01   2.40558899E+02   2.40558899E+02   2.17491760E+01   1.93876286E+01   2.21171265E+02  -9.38985672E+01   2.19971466E+02   2.18528156E+01   2.40455246E+02   1.93876286E+01  -4.76109076E+00
             2618                1   2.20000000E+02   2.22323196E+02   2.22323196E+02   2.73731565E+00   1.91140771E+00   2.22323196E+02   2.22323196E+02   2.73731565E+00   1.91140771E+00   2.20411789E+02  -7.56573105E+01   2.19996506E+02   3.06872034E+00   2.21991791E+02   1.91140771E+00  -8.52426720E+00
             2618                2   2.20000000E+02   2.22319199E+02   2.22319199E+02   1.30039012E+00   3.35233879E+00   2.22319199E+02   2.22319199E+02   3.35233879E+00   1.30039012E+00   2.21018799E+02  -7.56573105E+01   2.19978470E+02   1.61038065E+00   2.22009201E+02   3.35233879E+00  -8.27151394E+00
             2618                3   2.20000000E+02   2.22322617E+02   2.22322617E+02   2.87305403E+00   1.77625215E+00   2.22322617E+02   2.22322617E+02   2.87305403E+00   1.77625215E+00   2.20546356E+02  -7.56573029E+01   2.19993866E+02   3.02661514E+00   2.22169052E+02   1.77625215E+00  -5.80297470E+00
             2618                4   2.20000000E+02   2.22320297E+02   2.22320297E+02   1.42706525E+00   3.22454691E+00   2.22320297E+02   2.22320297E+02   3.22454691E+00   1.42706525E+00   2.20893234E+02  -7.56573029E+01   2.19983475E+02   1.56907892E+00   2.22178284E+02   3.22454691E+00  -5.59903288E+00
             2619                1   2.20000000E+02   2.02887268E+02   2.02887268E+02  -2.74906044E+01  -5.00833988E+00   2.02887268E+02   2.02887268E+02  -5.00833988E+00  -2.74906044E+01   2.30377884E+02  -5.67961082E+01   2.17392990E+02  -2.68552685E+01   2.02251938E+02  -5.00833988E+00  -1.20815277E+01
             2619                2   2.20000000E+02   2.03042786E+02   2.03042786E+02  -2.59326458E+01  -6.72181606E+00   2.03042786E+02   2.03042786E+02  -6.72181606E+00  -2.59326458E+01   2.28975433E+02  -5.67961082E+01   2.18100922E+02  -2.56950874E+01   2.02805222E+02  -6.72181606E+00  -7.37154150E+00
             2619                3   2.20000000E+02   2.03059830E+02   2.03059830E+02  -2.57446079E+01  -6.92689466E+00   2.03059830E+02   2.03059830E+02  -6.92689466E+00  -2.57446079E+01   2.28804428E+02  -5.67961082E+01   2.18178329E+02  -2.45630341E+01   2.01878250E+02  -6.92689466E+00  -1.63997974E+01
             2619                4   2.20000000E+02   2.03197449E+02   2.03197449E+02  -2.40414219E+01  -8.76768684E+00   2.03197449E+02   2.03197449E+02  -8.76768684E+00  -2.40414219E+01   2.27238861E+02  -5.67961121E+01   2.18802353E+02  -2.34496632E+01   2.02605682E+02  -8.76768684E+00  -1.15810518E+01
             2620                1   2.20000000E+02   2.17463257E+02   2.17463257E+02   5.13189268E+00  -9.47717190E+00   2.17463257E+02   2.17463257E+02   5.13189268E+00  -9.47717190E+00   2.26940430E+02  -7.10393295E+01   2.18904678E+02   5.38280487E+00   2.17212341E+02  -9.47717190E+00  -7.29487085E+00
             2620                2   2.20000000E+02   2.17444855E+02   2.17444855E+02   5.41282940E+00  -9.73970985E+00   2.17444855E+02   2.17444855E+02   5.41282940E+00  -9.73970985E+00   2.27184555E+02  -7.10393219E+01   2.18821365E+02   5.56705332E+00   2.17290634E+02  -9.73970985E+00  -5.71623421E+00
             2620                3   2.20000000E+02   2.17407013E+02   2.17407013E+02   5.96151686E+00  -1.02505598E+01   2.17407013E+02   2.17407013E+02   5.96151686E+00  -1.02505598E+01   2.27657578E+02  -7.10393219E+01   2.18649994E+02   6.24243641E+00   2.17126099E+02  -1.02505598E+01  -7.70189905E+00
             2620                4   2.20000000E+02   2.17385773E+02   2.17385773E+02   6.25485420E+00  -1.05226440E+01   2.17385773E+02   2.17385773E+02   6.25485420E+00  -1.05226440E+01   2.27908417E+02  -7.10393295E+01   2.18553711E+02   6.43094635E+00   2.17209671E+02  -1.05226440E+01  -6.09500933E+00
             2621                1   2.20000000E+02   2.12649673E+02   2.12649673E+02  -9.05538177E+00  -5.60470247E+00   2.12649673E+02   2.12649673E+02  -5.60470247E+00  -9.05538177E+00   2.21705048E+02  -6.59965286E+01   2.19939102E+02  -8.42255783E+00   2.12016846E+02  -5.60470247E+00   1.18278913E+01
             2621                2   2.20000000E+02   2.12615219E+02   2.12615219E+02  -1.05612679E+01  -4.06437826E+00   2.12615219E+02   2.12615219E+02  -4.06437826E+00  -1.05612679E+01   2.23176483E+02  -6.59965286E+01   2.19784012E+02  -1.00376825E+01   2.12091644E+02  -4.06437826E+00   1.07970467E+01
             2621                3   2.20000000E+02   2.12639084E+02   2.12639084E+02  -9.62795639E+00  -5.02154636E+00   2.12639084E+02   2.12639084E+02  -5.02154636E+00  -9.62795639E+00   2.22267029E+02  -6.59965286E+01   2.19891464E+02  -8.64298630E+00   2.11654114E+02  -5.02154636E+00   1.47633095E+01
             2621                4   2.20000000E+02   2.12598312E+02   2.12598312E+02  -1.10823612E+01  -3.52635622E+00   2.12598312E+02   2.12598312E+02  -3.52635622E+00  -1.10823612E+01   2.23680664E+02  -6.59965286E+01   2.19707764E+02  -1.02411213E+01   2.11757065E+02  -3.52635622E+00   1.36916714E+01
             2622                1   2.20000000E+02   2.20595810E+02   2.20595810E+02   1.15213943E+00   4.36870568E-02   2.20595810E+02   2.20595810E+02   1.15213943E+00   4.36870568E-02   2.20552124E+02  -7.39305496E+01   2.19993713E+02   1.87984395E+00   2.19868118E+02   4.36870568E-02  -1.26158276E+01
             2622                2   2.20000000E+02   2.20597153E+02   2.20597153E+02   4.75171387E-01   7.19337225E-01   2.20597153E+02   2.20597153E+02   7.19337225E-01   4.75171387E-01   2.20121979E+02  -7.39305496E+01   2.19999710E+02   1.16653073E+00   2.19905792E+02   7.19337225E-01  -1.23169079E+01
             2622                3   2.20000000E+02   2.20595154E+02   2.20595154E+02   1.27091825E+00  -7.44207725E-02   2.20595154E+02   2.20595154E+02   1.27091825E+00  -7.44207725E-02   2.20669571E+02  -7.39305496E+01   2.19990738E+02   1.85178781E+00   2.20014282E+02  -7.44207725E-02  -1.12721844E+01
             2622                4   2.20000000E+02   2.20597214E+02   2.20597214E+02   5.75083971E-01   6.19359612E-01   2.20597214E+02   2.20597214E+02   6.19359612E-01   5.75083971E-01   2.20022141E+02  -7.39305496E+01   2.20000000E+02   1.12417185E+00   2.20048126E+02   6.19359612E-01  -1.09777460E+01
             2623                1   2.20000000E+02   2.28701797E+02   2.28701797E+02   1.12819948E+01   6.20932102E+00   2.28701797E+02   2.28701797E+02   1.12819948E+01   6.20932102E+00   2.22492477E+02  -8.20643692E+01   2.19868362E+02   1.17530994E+01   2.28230698E+02   6.20932102E+00  -1.01096535E+01
             2623                2   2.20000000E+02   2.28715210E+02   2.28715210E+02   1.06052694E+01   6.87263727E+00   2.28715210E+02   2.28715210E+02   1.06052694E+01   6.87263727E+00   2.21842575E+02  -8.20643692E+01   2.19928741E+02   1.11036386E+01   2.28216843E+02   6.87263727E+00  -1.04139700E+01
             2623                3   2.20000000E+02   2.28706039E+02   2.28706039E+02   1.10889950E+01   6.39808273E+00   2.28706039E+02   2.28706039E+02   1.10889950E+01   6.39808273E+00   2.22307953E+02  -8.20643692E+01   2.19887436E+02   1.14556923E+01   2.28339340E+02   6.39808273E+00  -8.92548275E+00
             2623                4   2.20000000E+02   2.28718155E+02   2.28718155E+02   1.04214973E+01   7.05347538E+00   2.28718155E+02   2.28718155E+02   1.04214973E+01   7.05347538E+00   2.21664673E+02  -8.20643768E+01   2.19941971E+02   1.08130264E+01   2.28326614E+02   7.05347538E+00  -9.23676777E+00
             2624                1   2.20000000E+02   2.03192627E+02   2.03192627E+02  -3.36759109E+01   5.26008701E+00   2.03192627E+02   2.03192627E+02   5.26008701E+00  -3.36759109E+01   2.36868530E+02  -5.82589302E+01   2.12039398E+02  -3.36537476E+01   2.03170456E+02   5.26008701E+00   2.29117346E+00
             2624                2   2.20000000E+02   2.03667496E+02   2.03667496E+02  -3.10464287E+01   2.15572309E+00   2.03667496E+02   2.03667496E+02   2.15572309E+00  -3.10464287E+01   2.34713913E+02  -5.82589264E+01   2.14254364E+02  -3.08854332E+01   2.03506500E+02   2.15572309E+00  -6.14498568E+00
             2624                3   2.20000000E+02   2.02726685E+02   2.02726685E+02  -3.58868752E+01   7.93698025E+00   2.02726685E+02   2.02726685E+02   7.93698025E+00  -3.58868752E+01   2.38613571E+02  -5.82589302E+01   2.09839722E+02  -3.57255745E+01   2.02565384E+02   7.93698025E+00  -6.20189762E+00
             2624                4   2.20000000E+02   2.03182922E+02   2.03182922E+02  -3.37250862E+01   5.31894875E+00   2.03182922E+02   2.03182922E+02   5.31894875E+00  -3.37250862E+01   2.36908020E+02  -5.82589302E+01   2.11993912E+02  -3.28222618E+01   2.02280106E+02   5.31894875E+00  -1.45969391E+01
             2625                1   2.20000000E+02   2.38562973E+02   2.38562973E+02   1.80918465E+01   1.90371380E+01   2.38562973E+02   2.38562973E+02   1.90371380E+01   1.80918465E+01   2.20471130E+02  -9.18973160E+01   2.19995407E+02   1.80997982E+01   2.38555008E+02   1.90371380E+01  -1.32421649E+00
             2625                2   2.20000000E+02   2.38562927E+02   2.38562927E+02   1.80844364E+01   1.90445805E+01   2.38562927E+02   2.38562927E+02   1.90445805E+01   1.80844364E+01   2.20478500E+02  -9.18973160E+01   2.19995270E+02   1.80851440E+01   2.38562225E+02   1.90445805E+01   3.95238549E-01
             2625                3   2.20000000E+02   2.38562927E+02   2.38562927E+02   1.90435162E+01   1.80854893E+01   2.38562927E+02   2.38562927E+02   1.90435162E+01   1.80854893E+01   2.20477448E+02  -9.18973083E+01   2.19995331E+02   1.90514050E+01   2.38555054E+02   1.80854893E+01  -1.31548548E+00
             2625                4   2.20000000E+02   2.38562973E+02   2.38562973E+02   1.90357246E+01   1.80932522E+01   2.38562973E+02   2.38562973E+02   1.90357246E+01   1.80932522E+01   2.20469711E+02  -9.18973160E+01   2.19995438E+02   1.90365467E+01   2.38562149E+02   1.80932522E+01   4.24374759E-01
             2626                1   2.20000000E+02   2.12129913E+02   2.12129913E+02   3.33151370E-01  -1.52452374E+01   2.12129913E+02   2.12129913E+02   3.33151370E-01  -1.52452374E+01   2.27375137E+02  -6.57392731E+01   2.18753906E+02   4.99625176E-01   2.11963440E+02  -1.52452374E+01  -5.93544388E+00
             2626                2   2.20000000E+02   2.12122833E+02   2.12122833E+02   4.35606033E-01  -1.53406200E+01   2.12122833E+02   2.12122833E+02   4.35606033E-01  -1.53406200E+01   2.27463455E+02  -6.57392731E+01   2.18721909E+02   5.32589555E-01   2.12025848E+02  -1.53406200E+01  -4.53006029E+00
             2626                3   2.20000000E+02   2.12076248E+02   2.12076248E+02   1.08253360E+00  -1.59409618E+01   2.12076248E+02   2.12076248E+02   1.08253360E+00  -1.59409618E+01   2.28017212E+02  -6.57392731E+01   2.18510788E+02   1.25846577E+00   2.11900314E+02  -1.59409618E+01  -6.09017611E+00
             2626                4   2.20000000E+02   2.12068314E+02   2.12068314E+02   1.18832862E+00  -1.60388203E+01   2.12068314E+02   2.12068314E+02   1.18832862E+00  -1.60388203E+01   2.28107132E+02  -6.57392731E+01   2.18474762E+02   1.29187477E+00   2.11964767E+02  -1.60388203E+01  -4.67162657E+00
             2627                1   2.20000000E+02   2.47253754E+02   2.47253754E+02   2.75764484E+01   2.69324760E+01   2.47253754E+02   2.47253754E+02   2.75764484E+01   2.69324760E+01   2.20321274E+02  -1.00587555E+02   2.19997894E+02   2.75818329E+01   2.47248367E+02   2.69324760E+01  -1.08758283E+00
             2627                2   2.20000000E+02   2.47254211E+02   2.47254211E+02   2.71999454E+01   2.73085136E+01   2.47254211E+02   2.47254211E+02   2.73085136E+01   2.71999454E+01   2.20054276E+02  -1.00587555E+02   2.19999954E+02   2.72074814E+01   2.47246689E+02   2.73085136E+01  -1.28701401E+00
             2627                3   2.20000000E+02   2.47253983E+02   2.47253983E+02   2.74865322E+01   2.70221729E+01   2.47253983E+02   2.47253983E+02   2.74865322E+01   2.70221729E+01   2.20231812E+02  -1.00587563E+02   2.19998871E+02   2.74873142E+01   2.47253189E+02   2.70221729E+01  -4.16288108E-01
             2627                4   2.20000000E+02   2.47254135E+02   2.47254135E+02   2.71117115E+01   2.73968353E+01   2.47254135E+02   2.47254135E+02   2.73968353E+01   2.71117115E+01   2.20142426E+02  -1.00587563E+02   2.19999573E+02   2.71134472E+01   2.47252396E+02   2.73968353E+01  -6.18514657E-01
             2628                1   2.20000000E+02   2.18116272E+02   2.18116272E+02  -1.38635230E+00  -2.37775350E+00   2.18116272E+02   2.18116272E+02  -1.38635230E+00  -2.37775350E+00   2.20494019E+02  -7.14507217E+01   2.19994965E+02  -1.15603197E+00   2.17885956E+02  -2.37775350E+00  -7.10646868E+00
             2628                2   2.20000000E+02   2.18111725E+02   2.18111725E+02  -2.99726391E+00  -7.62282729E-01   2.18111725E+02   2.18111725E+02  -7.62282729E-01  -2.99726391E+00   2.21108978E+02  -7.14507217E+01   2.19974472E+02  -2.78910351E+00   2.17903564E+02  -7.62282729E-01  -6.78098583E+00
             2628                3   2.20000000E+02   2.18115402E+02   2.18115402E+02  -1.22069550E+00  -2.54253960E+00   2.18115402E+02   2.18115402E+02  -1.22069550E+00  -2.54253960E+00   2.20657944E+02  -7.14507217E+01   2.19991074E+02  -1.14664984E+00   2.18041367E+02  -2.54253960E+00  -4.02925253E+00
             2628                4   2.20000000E+02   2.18113159E+02   2.18113159E+02  -2.84409094E+00  -9.16899621E-01   2.18113159E+02   2.18113159E+02  -9.16899621E-01  -2.84409094E+00   2.20957260E+02  -7.14507217E+01   2.19980988E+02  -2.77989912E+00   2.18048965E+02  -9.16899621E-01  -3.76577759E+00
             2629                1   2.20000000E+02   2.35204224E+02   2.35204224E+02   1.69120426E+01   1.35352993E+01   2.35204224E+02   2.35204224E+02   1.69120426E+01   1.35352993E+01   2.21668930E+02  -8.85505295E+01   2.19941666E+02   1.70768566E+01   2.35039413E+02   1.35352993E+01   5.99590206E+00
             2629                2   2.20000000E+02   2.35212738E+02   2.35212738E+02   1.62101002E+01   1.42287436E+01   2.35212738E+02   2.35212738E+02   1.62101002E+01   1.42287436E+01   2.20983994E+02  -8.85505295E+01   2.19979919E+02   1.64132671E+01   2.35009567E+02   1.42287436E+01   6.66731644E+00
             2629                3   2.20000000E+02   2.35199615E+02   2.35199615E+02   1.71921082E+01   1.32598448E+01   2.35199615E+02   2.35199615E+02   1.71921082E+01   1.32598448E+01   2.21939774E+02  -8.85505295E+01   2.19920898E+02   1.74345551E+01   2.34957169E+02   1.32598448E+01   7.26611662E+00
             2629                4   2.20000000E+02   2.35209946E+02   2.35209946E+02   1.64831352E+01   1.39584894E+01   2.35209946E+02   2.35209946E+02   1.64831352E+01   1.39584894E+01   2.21251465E+02  -8.85505295E+01   2.19967407E+02   1.67707672E+01   2.34922318E+02   1.39584894E+01   7.92655659E+00
             2630                1   2.20000000E+02   2.01166168E+02   2.01166168E+02  -3.05138092E+01  -4.91400623E+00   2.01166168E+02   2.01166168E+02  -4.91400623E+00  -3.05138092E+01   2.31679977E+02  -5.52461205E+01   2.16611053E+02  -2.99620399E+01   2.00614395E+02  -4.91400623E+00  -1.12929420E+01
             2630                2   2.20000000E+02   2.01360168E+02   2.01360168E+02  -2.88266163E+01  -6.79519892E+00   2.01360168E+02   2.01360168E+02  -6.79519892E+00  -2.88266163E+01   2.30186783E+02  -5.52461205E+01   2.17497345E+02  -2.86756649E+01   2.01209213E+02  -6.79519892E+00  -5.89285517E+00
             2630                3   2.20000000E+02   2.01381378E+02   2.01381378E+02  -2.86242027E+01  -7.01882887E+00   2.01381378E+02   2.01381378E+02  -7.01882887E+00  -2.86242027E+01   2.30005585E+02  -5.52461128E+01   2.17593994E+02  -2.74600639E+01   2.00217239E+02  -7.01882887E+00  -1.63218422E+01
             2630                4   2.20000000E+02   2.01561722E+02   2.01561722E+02  -2.66946926E+01  -9.12867355E+00   2.01561722E+02   2.01561722E+02  -9.12867355E+00  -2.66946926E+01   2.28256424E+02  -5.52461205E+01   2.18413849E+02  -2.61705093E+01   2.01037537E+02  -9.12867355E+00  -1.09258852E+01
             2631                1   2.20000000E+02   2.41845505E+02   2.41845505E+02   2.29415970E+01   2.07655773E+01   2.41845505E+02   2.41845505E+02   2.29415970E+01   2.07655773E+01   2.21079941E+02  -9.51842270E+01   2.19975815E+02   2.29849815E+01   2.41802139E+02   2.07655773E+01  -3.08125520E+00
             2631                2   2.20000000E+02   2.41841568E+02   2.41841568E+02   2.32891388E+01   2.04220047E+01   2.41841568E+02   2.41841568E+02   2.32891388E+01   2.04220047E+01   2.21419571E+02  -9.51842346E+01   2.19957962E+02   2.33152485E+01   2.41815445E+02   2.04220047E+01  -2.38892078E+00
             2631                3   2.20000000E+02   2.41841995E+02   2.41841995E+02   2.32553883E+01   2.04553127E+01   2.41841995E+02   2.41841995E+02   2.32553883E+01   2.04553127E+01   2.21386673E+02  -9.51842346E+01   2.19959900E+02   2.33177242E+01   2.41779663E+02   2.04553127E+01  -3.69060206E+00
             2631                4   2.20000000E+02   2.41836975E+02   2.41836975E+02   2.36085873E+01   2.01071434E+01   2.41836975E+02   2.41836975E+02   2.36085873E+01   2.01071434E+01   2.21729828E+02  -9.51842346E+01   2.19937271E+02   2.36497555E+01   2.41795792E+02   2.01071434E+01  -2.99715066E+00
             2632                1   2.20000000E+02   2.33633591E+02   2.33633591E+02   1.43780899E+01   1.28965750E+01   2.33633591E+02   2.33633591E+02   1.43780899E+01   1.28965750E+01   2.20737030E+02  -8.69694214E+01   2.19988785E+02   1.45625000E+01   2.33449188E+02   1.28965750E+01  -6.35600853E+00
             2632                2   2.20000000E+02   2.33635666E+02   2.33635666E+02   1.33336649E+01   1.39389210E+01   2.33635666E+02   2.33635666E+02   1.39389210E+01   1.33336649E+01   2.20302002E+02  -8.69694214E+01   2.19998108E+02   1.35232868E+01   2.33446045E+02   1.39389210E+01  -6.46048021E+00
             2632                3   2.20000000E+02   2.33633865E+02   2.33633865E+02   1.43374043E+01   1.29369993E+01   2.33633865E+02   2.33633865E+02   1.43374043E+01   1.29369993E+01   2.20696869E+02  -8.69694214E+01   2.19989975E+02   1.44275160E+01   2.33543747E+02   1.29369993E+01  -4.44456005E+00
             2632                4   2.20000000E+02   2.33635559E+02   2.33635559E+02   1.32952080E+01   1.39774942E+01   2.33635559E+02   2.33635559E+02   1.39774942E+01   1.32952080E+01   2.20340347E+02  -8.69694214E+01   2.19997620E+02   1.33901806E+01   2.33540588E+02   1.39774942E+01  -4.57358599E+00
             2633                1   2.20000000E+02   2.21188507E+02   2.21188507E+02   1.19653833E+00   1.18045652E+00   2.21188507E+02   2.21188507E+02   1.19653833E+00   1.18045652E+00   2.20008041E+02  -7.45218277E+01   2.20000015E+02   2.12276268E+00   2.20262283E+02   1.18045652E+00  -1.42443943E+01
             2633                2   2.20000000E+02   2.21186554E+02   2.21186554E+02   5.34193397E-01   1.84475410E+00   2.21186554E+02   2.21186554E+02   1.84475410E+00   5.34193397E-01   2.20652359E+02  -7.45218353E+01   2.19991226E+02   1.29669654E+00   2.20424057E+02   1.84475410E+00  -1.29485788E+01
             2633                3   2.20000000E+02   2.21187454E+02   2.21187454E+02   1.66897476E+00   7.09075749E-01   2.21187454E+02   2.21187454E+02   1.66897476E+00   7.09075749E-01   2.20478378E+02  -7.45218353E+01   2.19995285E+02   2.37646174E+00   2.20479965E+02   7.09075749E-01  -1.24421301E+01
             2633                4   2.20000000E+02   2.21188293E+02   2.21188293E+02   9.73341703E-01   1.40387642E+00   2.21188293E+02   2.21188293E+02   1.40387642E+00   9.73341703E-01   2.20214951E+02  -7.45218353E+01   2.19999054E+02   1.53705645E+00   2.20624573E+02   1.40387642E+00  -1.11275425E+01
             2634                1   2.20000000E+02   2.00285431E+02   2.00285431E+02  -2.43369579E+01  -1.47807474E+01   2.00285431E+02   2.00285431E+02  -1.47807474E+01  -2.43369579E+01   2.24622391E+02  -5.37225761E+01   2.19532288E+02  -2.40169868E+01   1.99965454E+02  -1.47807474E+01  -8.47178745E+00
             2634                2   2.20000000E+02   2.00354584E+02   2.00354584E+02  -2.23545132E+01  -1.68323498E+01   2.00354584E+02   2.00354584E+02  -1.68323498E+01  -2.23545132E+01   2.22709106E+02  -5.37225761E+01   2.19843994E+02  -2.18431549E+01   1.99843231E+02  -1.68323498E+01  -1.06593904E+01
             2634                3   2.20000000E+02   2.00237427E+02   2.00237427E+02  -2.53124924E+01  -1.37572174E+01   2.00237427E+02   2.00237427E+02  -1.37572174E+01  -2.53124924E+01   2.25549927E+02  -5.37225761E+01   2.19315674E+02  -2.46219788E+01   1.99546921E+02  -1.37572174E+01  -1.24606771E+01
             2634                4   2.20000000E+02   2.00321259E+02   2.00321259E+02  -2.34435711E+01  -1.57099695E+01   2.00321259E+02   2.00321259E+02  -1.57099695E+01  -2.34435711E+01   2.23764832E+02  -5.37225685E+01   2.19693863E+02  -2.24725018E+01   1.99350189E+02  -1.57099695E+01  -1.47087641E+01
             2635                1   2.20000000E+02   2.17911179E+02   2.17911179E+02   4.48477221E+00  -8.12039948E+00   2.17911179E+02   2.17911179E+02   4.48477221E+00  -8.12039948E+00   2.26031570E+02  -7.14251785E+01   2.19185318E+02   4.80793476E+00   2.17588013E+02  -8.12039948E+00  -8.29865074E+00
             2635                2   2.20000000E+02   2.17892654E+02   2.17892654E+02   4.80916071E+00  -8.42626095E+00   2.17892654E+02   2.17892654E+02   4.80916071E+00  -8.42626095E+00   2.26318909E+02  -7.14251862E+01   2.19101562E+02   5.03355551E+00   2.17668259E+02  -8.42626095E+00  -6.91116571E+00
             2635                3   2.20000000E+02   2.17868729E+02   2.17868729E+02   5.20705318E+00  -8.80021763E+00   2.17868729E+02   2.17868729E+02   5.20705318E+00  -8.80021763E+00   2.26668945E+02  -7.14251862E+01   2.18993347E+02   5.57041264E+00   2.17505356E+02  -8.80021763E+00  -8.78305435E+00
             2635                4   2.20000000E+02   2.17847946E+02   2.17847946E+02   5.53597307E+00  -9.10837364E+00   2.17847946E+02   2.17847946E+02   5.53597307E+00  -9.10837364E+00   2.26956329E+02  -7.14251862E+01   2.18899368E+02   5.79483604E+00   2.17589096E+02  -9.10837364E+00  -7.40888166E+00
             2636                1   2.20000000E+02   2.40597443E+02   2.40597443E+02   2.15404282E+01   1.96664333E+01   2.40597443E+02   2.40597443E+02   2.15404282E+01   1.96664333E+01   2.20931015E+02  -9.39347763E+01   2.19982040E+02   2.16152534E+01   2.40522629E+02   1.96664333E+01  -4.04776907E+00
             2636                2   2.20000000E+02   2.40592377E+02   2.40592377E+02   2.20175209E+01   1.91944122E+01   2.40592377E+02   2.40592377E+02   2.20175209E+01   1.91944122E+01   2.21397964E+02  -9.39347763E+01   2.19959213E+02   2.20720501E+01   2.40537842E+02   1.91944122E+01  -3.45197201E+00
             2636                3   2.20000000E+02   2.40594849E+02   2.40594849E+02   2.18076134E+01   1.94018326E+01   2.40594849E+02   2.40594849E+02   2.18076134E+01   1.94018326E+01   2.21193024E+02  -9.39347610E+01   2.19970413E+02   2.19168148E+01   2.40485657E+02   1.94018326E+01  -4.88658810E+00
             2636                4   2.20000000E+02   2.40588547E+02   2.40588547E+02   2.22918015E+01   1.89239597E+01   2.40588547E+02   2.40588547E+02   2.22918015E+01   1.89239597E+01   2.21664581E+02  -9.39347610E+01   2.19941986E+02   2.23762379E+01   2.40504105E+02   1.89239597E+01  -4.29241323E+00
             2637                1   2.20000000E+02   2.14373169E+02   2.14373169E+02   2.48040676E-01  -1.10651522E+01   2.14373169E+02   2.14373169E+02   2.48040676E-01  -1.10651522E+01   2.25438324E+02  -6.78520203E+01   2.19344116E+02   4.29068863E-01   2.14192154E+02  -1.10651522E+01  -6.22321653E+00
             2637                2   2.20000000E+02   2.14366196E+02   2.14366196E+02   3.85387272E-01  -1.11955261E+01   2.14366196E+02   2.14366196E+02   3.85387272E-01  -1.11955261E+01   2.25561722E+02  -6.78520203E+01   2.19312622E+02   5.09833157E-01   2.14241760E+02  -1.11955261E+01  -5.15869713E+00
             2637                3   2.20000000E+02   2.14344452E+02   2.14344452E+02   7.95305967E-01  -1.15836878E+01   2.14344452E+02   2.14344452E+02   7.95305967E-01  -1.15836878E+01   2.25928131E+02  -6.78520203E+01   2.19214371E+02   9.89947736E-01   2.14149811E+02  -1.15836878E+01  -6.44414425E+00
             2637                4   2.20000000E+02   2.14336655E+02   2.14336655E+02   9.36086655E-01  -1.17166662E+01   2.14336655E+02   2.14336655E+02   9.36086655E-01  -1.17166662E+01   2.26053314E+02  -6.78520279E+01   2.19179123E+02   1.07140851E+00   2.14201324E+02  -1.17166662E+01  -5.37215137E+00
             2638                1   2.20000000E+02   2.10829605E+02   2.10829605E+02  -2.55451221E+01   1.20491772E+01   2.10829605E+02   2.10829605E+02   1.20491772E+01  -2.55451221E+01   2.36374725E+02  -6.57778854E+01   2.12592407E+02  -2.54329777E+01   2.10717468E+02   1.20491772E+01  -5.14724493E+00
             2638                2   2.20000000E+02   2.10316879E+02   2.10316879E+02  -2.80483742E+01   1.50651655E+01   2.10316879E+02   2.10316879E+02   1.50651655E+01  -2.80483742E+01   2.38365250E+02  -6.57778931E+01   2.10177734E+02  -2.66820221E+01   2.08950531E+02   1.50651655E+01  -1.79951057E+01
             2638                3   2.20000000E+02   2.10249374E+02   2.10249374E+02  -2.83513756E+01   1.54356756E+01   2.10249374E+02   2.10249374E+02   1.54356756E+01  -2.83513756E+01   2.38600739E+02  -6.57778854E+01   2.09857407E+02  -2.82701454E+01   2.10168137E+02   1.54356756E+01   4.40178871E+00
             2638                4   2.20000000E+02   2.09766006E+02   2.09766006E+02  -3.03801746E+01   1.79478321E+01   2.09766006E+02   2.09766006E+02   1.79478321E+01  -3.03801746E+01   2.40146179E+02  -6.57778854E+01   2.07546631E+02  -3.01297150E+01   2.09515549E+02   1.79478321E+01  -7.75140953E+00
             2639                1   2.20000000E+02   2.35155136E+02   2.35155136E+02   1.46150723E+01   1.56992035E+01   2.35155136E+02   2.35155136E+02   1.56992035E+01   1.46150723E+01   2.20540054E+02  -8.84898071E+01   2.19993973E+02   1.46257296E+01   2.35144470E+02   1.56992035E+01  -1.53327346E+00
             2639                2   2.20000000E+02   2.35155029E+02   2.35155029E+02   1.45953798E+01   1.57189894E+01   2.35155029E+02   2.35155029E+02   1.57189894E+01   1.45953798E+01   2.20559647E+02  -8.84897995E+01   2.19993561E+02   1.45963316E+01   2.35154083E+02   1.57189894E+01   4.57498074E-01
             2639                3   2.20000000E+02   2.35155075E+02   2.35155075E+02   1.57117491E+01   1.46025934E+01   2.35155075E+02   2.35155075E+02   1.57117491E+01   1.46025934E+01   2.20552475E+02  -8.84898071E+01   2.19993698E+02   1.57219925E+01   2.35144821E+02   1.46025934E+01  -1.49980438E+00
             2639                4   2.20000000E+02   2.35155167E+02   2.35155167E+02   1.56909294E+01   1.46233006E+01   2.35155167E+02   2.35155167E+02   1.56909294E+01   1.46233006E+01   2.20531876E+02  -8.84897995E+01   2.19994186E+02   1.56921558E+01   2.35153946E+02   1.46233006E+01   5.18344641E-01
             2640                1   2.20000000E+02   2.30775314E+02   2.30775314E+02   1.14122534E+01   1.01438551E+01   2.30775314E+02   2.30775314E+02   1.14122534E+01   1.01438551E+01   2.20631454E+02  -8.41104736E+01   2.19991760E+02   1.15494804E+01   2.30638077E+02   1.01438551E+01  -5.48494434E+00
             2640                2   2.20000000E+02   2.30775650E+02   2.30775650E+02   1.02052040E+01   1.13505621E+01   2.30775650E+02   2.30775650E+02   1.13505621E+01   1.02052040E+01   2.20570435E+02  -8.41104660E+01   2.19993301E+02   1.03409433E+01   2.30639908E+02   1.13505621E+01  -5.47004700E+00
             2640                3   2.20000000E+02   2.30775238E+02   2.30775238E+02   1.14246721E+01   1.01315041E+01   2.30775238E+02   2.30775238E+02   1.14246721E+01   1.01315041E+01   2.20643723E+02  -8.41104660E+01   2.19991440E+02   1.14728088E+01   2.30727097E+02   1.01315041E+01  -3.24906397E+00
             2640                4   2.20000000E+02   2.30775696E+02   2.30775696E+02   1.02170792E+01   1.13386278E+01   2.30775696E+02   2.30775696E+02   1.13386278E+01   1.02170792E+01   2.20558624E+02  -8.41104660E+01   2.19993561E+02   1.02655010E+01   2.30727280E+02   1.13386278E+01  -3.26770067E+00
             2641                1   2.20000000E+02   2.31171173E+02   2.31171173E+02   1.18050003E+01   1.05427799E+01   2.31171173E+02   2.31171173E+02   1.18050003E+01   1.05427799E+01   2.20628387E+02  -8.45063171E+01   2.19991837E+02   1.18678226E+01   2.31108337E+02   1.05427799E+01  -3.71193814E+00
             2641                2   2.20000000E+02   2.31171341E+02   2.31171341E+02   1.05735397E+01   1.17740660E+01   2.31171341E+02   2.31171341E+02   1.17740660E+01   1.05735397E+01   2.20597809E+02  -8.45063171E+01   2.19992630E+02   1.06360435E+01   2.31108841E+02   1.17740660E+01  -3.71282649E+00
             2641                3   2.20000000E+02   2.31171188E+02   2.31171188E+02   1.18042812E+01   1.05434847E+01   2.31171188E+02   2.31171188E+02   1.18042812E+01   1.05434847E+01   2.20627701E+02  -8.45063171E+01   2.19991882E+02   1.18136034E+01   2.31161865E+02   1.05434847E+01  -1.42964256E+00
             2641                4   2.20000000E+02   2.31171341E+02   2.31171341E+02   1.05729666E+01   1.17746353E+01   2.31171341E+02   2.31171341E+02   1.17746353E+01   1.05729666E+01   2.20598373E+02  -8.45063171E+01   2.19992615E+02   1.05827055E+01   2.31161606E+02   1.17746353E+01  -1.46546650E+00
             2642                1   2.20000000E+02   1.99717987E+02   1.99717987E+02  -3.31377602E+01  -4.65105820E+00   1.99717987E+02   1.99717987E+02  -4.65105820E+00  -3.31377602E+01   2.32855743E+02  -5.39763908E+01   2.15792160E+02  -3.26767273E+01   1.99256958E+02  -4.65105820E+00  -1.03509197E+01
             2642                2   2.20000000E+02   1.99958694E+02   1.99958694E+02  -3.12706890E+01  -6.75883293E+00   1.99958694E+02   1.99958694E+02  -6.75883293E+00  -3.12706890E+01   2.31229385E+02  -5.39763908E+01   2.16895920E+02  -3.11824551E+01   1.99870453E+02  -6.75883293E+00  -4.51616716E+00
             2642                3   2.20000000E+02   1.99969208E+02   1.99969208E+02  -3.11817341E+01  -6.85830688E+00   1.99969208E+02   1.99969208E+02  -6.85830688E+00  -3.11817341E+01   2.31150940E+02  -5.39763908E+01   2.16943970E+02  -3.00669937E+01   1.98854477E+02  -6.85830688E+00  -1.60133934E+01
             2642                4   2.20000000E+02   2.00194611E+02   2.00194611E+02  -2.90578194E+01  -9.20761299E+00   2.00194611E+02   2.00194611E+02  -9.20761299E+00  -2.90578194E+01   2.29252441E+02  -5.39763947E+01   2.17971558E+02  -2.86094875E+01   1.99746277E+02  -9.20761299E+00  -1.01282549E+01
             2643                1   2.20000000E+02   2.22564804E+02   2.22564804E+02   2.36419702E+00   2.76596212E+00   2.22564804E+02   2.22564804E+02   2.76596212E+00   2.36419702E+00   2.20200607E+02  -7.58983231E+01   2.19999176E+02   3.09161878E+00   2.21837387E+02   2.76596212E+00  -1.26352081E+01
             2643                2   2.20000000E+02   2.22564438E+02   2.22564438E+02   2.91558743E+00   2.21495748E+00   2.22564438E+02   2.22564438E+02   2.91558743E+00   2.21495748E+00   2.20349487E+02  -7.58983231E+01   2.19997498E+02   3.42659903E+00   2.22053421E+02   2.21495748E+00  -1.05822182E+01
             2643                3   2.20000000E+02   2.22563736E+02   2.22563736E+02   3.09156370E+00   2.03966808E+00   2.22563736E+02   2.22563736E+02   3.09156370E+00   2.03966808E+00   2.20524078E+02  -7.58983231E+01   2.19994354E+02   4.05533457E+00   2.21599976E+02   2.03966808E+00  -1.45117435E+01
             2643                4   2.20000000E+02   2.22559448E+02   2.22559448E+02   3.67174578E+00   1.46378231E+00   2.22559448E+02   2.22559448E+02   3.67174578E+00   1.46378231E+00   2.21095673E+02  -7.58983231E+01   2.19975067E+02   4.38237762E+00   2.21848816E+02   1.46378231E+00  -1.24517164E+01
             2644                1   2.20000000E+02   2.32583176E+02   2.32583176E+02   1.23912926E+01   1.27755861E+01   2.32583176E+02   2.32583176E+02   1.27755861E+01   1.23912926E+01   2.20191895E+02  -8.59166870E+01   2.19999237E+02   1.25576315E+01   2.32416840E+02   1.27755861E+01  -6.04971933E+00
             2644                2   2.20000000E+02   2.32580246E+02   2.32580246E+02   1.34117308E+01   1.17580919E+01   2.32580246E+02   2.32580246E+02   1.34117308E+01   1.17580919E+01   2.20822144E+02  -8.59166870E+01   2.19986008E+02   1.35678654E+01   2.32424103E+02   1.17580919E+01  -5.84778643E+00
             2644                3   2.20000000E+02   2.32583282E+02   2.32583282E+02   1.24601917E+01   1.27065897E+01   2.32583282E+02   2.32583282E+02   1.27065897E+01   1.24601917E+01   2.20123093E+02  -8.59166870E+01   2.19999680E+02   1.27434673E+01   2.32300003E+02   1.27065897E+01  -7.89149761E+00
             2644                4   2.20000000E+02   2.32579681E+02   2.32579681E+02   1.34840755E+01   1.16863079E+01   2.32579681E+02   2.32579681E+02   1.34840755E+01   1.16863079E+01   2.20893372E+02  -8.59166870E+01   2.19983459E+02   1.37559347E+01   2.32307816E+02   1.16863079E+01  -7.71293592E+00
             2645                1   2.20000000E+02   2.30131561E+02   2.30131561E+02   1.07939863E+01   9.47507572E+00   2.30131561E+02   2.30131561E+02   1.07939863E+01   9.47507572E+00   2.20656494E+02  -8.34668808E+01   2.19991104E+02   1.10264568E+01   2.29899094E+02   9.47507572E+00  -7.13694382E+00
             2645                2   2.20000000E+02   2.30132278E+02   2.30132278E+02   9.60730171E+00   1.06610403E+01   2.30132278E+02   2.30132278E+02   1.06610403E+01   9.60730171E+00   2.20524979E+02  -8.34668732E+01   2.19994324E+02   9.83900833E+00   2.29900574E+02   1.06610403E+01  -7.14441204E+00
             2645                3   2.20000000E+02   2.30131531E+02   2.30131531E+02   1.08009033E+01   9.46820450E+00   2.30131531E+02   2.30131531E+02   1.08009033E+01   9.46820450E+00   2.20663330E+02  -8.34668808E+01   2.19990921E+02   1.09123011E+01   2.30020126E+02   9.46820450E+00  -4.94185400E+00
             2645                4   2.20000000E+02   2.30132309E+02   2.30132309E+02   9.61404133E+00   1.06542664E+01   2.30132309E+02   2.30132309E+02   1.06542664E+01   9.61404133E+00   2.20518265E+02  -8.34668732E+01   2.19994476E+02   9.72664452E+00   2.30019714E+02   1.06542664E+01  -4.98166943E+00
             2646                1   2.20000000E+02   2.16583786E+02   2.16583786E+02   1.31300378E+00  -7.85857725E+00   2.16583786E+02   2.16583786E+02   1.31300378E+00  -7.85857725E+00   2.24442368E+02  -7.00127335E+01   2.19569244E+02   1.62352896E+00   2.16273254E+02  -7.85857725E+00  -8.17018414E+00
             2646                2   2.20000000E+02   2.16570190E+02   2.16570190E+02   1.63463676E+00  -8.16663170E+00   2.16570190E+02   2.16570190E+02   1.63463676E+00  -8.16663170E+00   2.24736832E+02  -7.00127335E+01   2.19507965E+02   1.88192856E+00   2.16322906E+02  -8.16663170E+00  -7.28631639E+00
             2646                3   2.20000000E+02   2.16565048E+02   2.16565048E+02   1.75144887E+00  -8.27829075E+00   2.16565048E+02   2.16565048E+02   1.75144887E+00  -8.27829075E+00   2.24843338E+02  -7.00127335E+01   2.19484726E+02   2.10487413E+00   2.16211624E+02  -8.27829075E+00  -8.70606422E+00
             2646                4   2.20000000E+02   2.16549942E+02   2.16549942E+02   2.07971144E+00  -8.59145164E+00   2.16549942E+02   2.16549942E+02   2.07971144E+00  -8.59145164E+00   2.25141388E+02  -7.00127335E+01   2.19416565E+02   2.36514330E+00   2.16264511E+02  -8.59145164E+00  -7.81889153E+00
             2647                1   2.20000000E+02   2.25196533E+02   2.25196533E+02  -5.85019445E+00   1.82234325E+01   2.25196533E+02   2.25196533E+02   1.82234325E+01  -5.85019445E+00   2.31046738E+02  -7.91899261E+01   2.17007019E+02  -5.61318254E+00   2.24959534E+02   1.82234325E+01  -7.39614534E+00
             2647                2   2.20000000E+02   2.25298218E+02   2.25298218E+02  -4.93706036E+00   1.72086296E+01   2.25298218E+02   2.25298218E+02   1.72086296E+01  -4.93706036E+00   2.30235275E+02  -7.91899338E+01   2.17471100E+02  -4.50684214E+00   2.24867996E+02   1.72086296E+01  -9.94322491E+00
             2647                3   2.20000000E+02   2.25082886E+02   2.25082886E+02  -6.78603172E+00   1.92729378E+01   2.25082886E+02   2.25082886E+02   1.92729378E+01  -6.78603172E+00   2.31868927E+02  -7.91899338E+01   2.16486954E+02  -6.39001799E+00   2.24686874E+02   1.92729378E+01  -9.57429981E+00
             2647                4   2.20000000E+02   2.25188599E+02   2.25188599E+02  -5.91825676E+00   1.82994518E+01   2.25188599E+02   2.25188599E+02   1.82994518E+01  -5.91825676E+00   2.31106857E+02  -7.91899338E+01   2.16970718E+02  -5.27950191E+00   2.24549835E+02   1.82994518E+01  -1.21331816E+01
             2648                1   2.20000000E+02   2.21643982E+02   2.21643982E+02   7.64555311E+00  -3.90270114E+00   2.21643982E+02   2.21643982E+02   7.64555311E+00  -3.90270114E+00   2.25546677E+02  -7.51289444E+01   2.19316483E+02   7.93986177E+00   2.21349670E+02  -3.90270114E+00  -7.93068123E+00
             2648                2   2.20000000E+02   2.21629974E+02   2.21629974E+02   7.91320610E+00  -4.15634537E+00   2.21629974E+02   2.21629974E+02   7.91320610E+00  -4.15634537E+00   2.25786316E+02  -7.51289444E+01   2.19253235E+02   8.11861515E+00   2.21424561E+02  -4.15634537E+00  -6.62257957E+00
             2648                3   2.20000000E+02   2.21607590E+02   2.21607590E+02   8.31904984E+00  -4.53981304E+00   2.21607590E+02   2.21607590E+02   8.31904984E+00  -4.53981304E+00   2.26147400E+02  -7.51289444E+01   2.19152084E+02   8.63853836E+00   2.21288101E+02  -4.53981304E+00  -8.24865532E+00
             2648                4   2.20000000E+02   2.21591446E+02   2.21591446E+02   8.59730339E+00  -4.80192089E+00   2.21591446E+02   2.21591446E+02   8.59730339E+00  -4.80192089E+00   2.26393372E+02  -7.51289444E+01   2.19079132E+02   8.82201004E+00   2.21366745E+02  -4.80192089E+00  -6.91446877E+00
             2649                1   2.20000000E+02   2.16656494E+02   2.16656494E+02   3.27480644E-01  -6.83934689E+00   2.16656494E+02   2.16656494E+02   3.27480644E-01  -6.83934689E+00   2.23495850E+02  -7.00482101E+01   2.19737122E+02   4.78124797E-01   2.16505859E+02  -6.83934689E+00  -5.70655203E+00
             2649                2   2.20000000E+02   2.16647095E+02   2.16647095E+02   6.10309482E-01  -7.11275578E+00   2.16647095E+02   2.16647095E+02   6.10309482E-01  -7.11275578E+00   2.23759842E+02  -7.00482101E+01   2.19694702E+02   7.80427635E-01   2.16476974E+02  -7.11275578E+00  -6.05990839E+00
             2649                3   2.20000000E+02   2.16662949E+02   2.16662949E+02   1.20886438E-01  -6.63918972E+00   2.16662949E+02   2.16662949E+02   1.20886438E-01  -6.63918972E+00   2.23302139E+02  -7.00482101E+01   2.19766144E+02   3.03042769E-01   2.16480789E+02  -6.63918972E+00  -6.27778864E+00
             2649                4   2.20000000E+02   2.16654114E+02   2.16654114E+02   4.00917292E-01  -6.91040039E+00   2.16654114E+02   2.16654114E+02   4.00917292E-01  -6.91040039E+00   2.23564514E+02  -7.00482101E+01   2.19726395E+02   6.04538739E-01   2.16450500E+02  -6.91040039E+00  -6.63265848E+00
             2650                1   2.20000000E+02   2.31405807E+02   2.31405807E+02   1.20282564E+01   1.07885962E+01   2.31405807E+02   2.31405807E+02   1.20282564E+01   1.07885962E+01   2.20617218E+02  -8.47408829E+01   2.19992142E+02   1.20412703E+01   2.31392792E+02   1.07885962E+01  -1.68991125E+00
             2650                2   2.20000000E+02   2.31405823E+02   2.31405823E+02   1.07926569E+01   1.20241652E+01   2.31405823E+02   2.31405823E+02   1.20241652E+01   1.07926569E+01   2.20613174E+02  -8.47408829E+01   2.19992249E+02   1.08053160E+01   2.31393173E+02   1.20241652E+01  -1.67093837E+00
             2650                3   2.20000000E+02   2.31405792E+02   2.31405792E+02   1.20305023E+01   1.07863636E+01   2.31405792E+02   2.31405792E+02   1.20305023E+01   1.07863636E+01   2.20619431E+02  -8.47408829E+01   2.19992081E+02   1.20321445E+01   2.31404144E+02   1.07863636E+01   6.01241946E-01
             2650                4   2.20000000E+02   2.31405838E+02   2.31405838E+02   1.07948046E+01   1.20220032E+01   2.31405838E+02   2.31405838E+02   1.20220032E+01   1.07948046E+01   2.20611023E+02  -8.47408829E+01   2.19992294E+02   1.07963600E+01   2.31404282E+02   1.20220032E+01   5.85016310E-01
             2651                1   2.20000000E+02   2.26804672E+02   2.26804672E+02   7.42517805E+00   6.18936872E+00   2.26804672E+02   2.26804672E+02   7.42517805E+00   6.18936872E+00   2.20615295E+02  -8.01397324E+01   2.19992188E+02   7.59202623E+00   2.26637817E+02   6.18936872E+00  -6.04774046E+00
             2651                2   2.20000000E+02   2.26803986E+02   2.26803986E+02   6.07777786E+00   7.53745413E+00   2.26803986E+02   2.26803986E+02   7.53745413E+00   6.07777786E+00   2.20726212E+02  -8.01397400E+01   2.19989090E+02   6.23886204E+00   2.26642899E+02   7.53745413E+00  -5.96065283E+00
             2651                3   2.20000000E+02   2.26804382E+02   2.26804382E+02   7.47297096E+00   6.14185572E+00   2.26804382E+02   2.26804382E+02   7.47297096E+00   6.14185572E+00   2.20662537E+02  -8.01397400E+01   2.19990921E+02   7.52973843E+00   2.26747620E+02   6.14185572E+00  -3.52815652E+00
             2651                4   2.20000000E+02   2.26804260E+02   2.26804260E+02   6.12267351E+00   7.49226332E+00   2.26804260E+02   2.26804260E+02   7.49226332E+00   6.12267351E+00   2.20681595E+02  -8.01397324E+01   2.19990402E+02   6.17768002E+00   2.26749268E+02   7.49226332E+00  -3.48345113E+00
             2652                1   2.20000000E+02   2.19344727E+02   2.19344727E+02  -5.32474995E+00   4.33224964E+00   2.19344727E+02   2.19344727E+02   4.33224964E+00  -5.32474995E+00   2.24669479E+02  -7.27840729E+01   2.19522354E+02  -4.85245085E+00   2.18872421E+02   4.33224964E+00  -1.02902298E+01
             2652                2   2.20000000E+02   2.19390503E+02   2.19390503E+02  -4.15911293E+00   3.12082791E+00   2.19390503E+02   2.19390503E+02   3.12082791E+00  -4.15911293E+00   2.23549606E+02  -7.27840729E+01   2.19728745E+02  -3.40758753E+00   2.18638977E+02   3.12082791E+00  -1.29397564E+01
             2652                3   2.20000000E+02   2.19303116E+02   2.19303116E+02  -6.17293692E+00   5.22205067E+00   2.19303116E+02   2.19303116E+02   5.22205067E+00  -6.17293692E+00   2.25476044E+02  -7.27840729E+01   2.19334564E+02  -5.35522890E+00   2.18485397E+02   5.22205067E+00  -1.35538149E+01
             2652                4   2.20000000E+02   2.19355286E+02   2.19355286E+02  -5.08336020E+00   4.08030176E+00   2.19355286E+02   2.19355286E+02   4.08030176E+00  -5.08336020E+00   2.24438644E+02  -7.27840805E+01   2.19569977E+02  -3.90787077E+00   2.18179794E+02   4.08030176E+00  -1.62001305E+01
             2653                1   2.20000000E+02   1.98458237E+02   1.98458237E+02  -3.56047478E+01  -4.07699347E+00   1.98458237E+02   1.98458237E+02  -4.07699347E+00  -3.56047478E+01   2.34062973E+02  -5.29254951E+01   2.14829193E+02  -3.52380447E+01   1.98091522E+02  -4.07699347E+00  -9.25736046E+00
             2653                2   2.20000000E+02   1.98735291E+02   1.98735291E+02  -3.36893311E+01  -6.26947355E+00   1.98735291E+02   1.98735291E+02  -6.26947355E+00  -3.36893311E+01   2.32424622E+02  -5.29254951E+01   2.16105499E+02  -3.36484184E+01   1.98694382E+02  -6.26947355E+00  -3.08325100E+00
             2653                3   2.20000000E+02   1.98752243E+02   1.98752243E+02  -3.35619583E+01  -6.41378927E+00   1.98752243E+02   1.98752243E+02  -6.41378927E+00  -3.35619583E+01   2.32314194E+02  -5.29254951E+01   2.16183289E+02  -3.25456200E+01   1.97735901E+02  -6.41378927E+00  -1.53321943E+01
             2653                4   2.20000000E+02   1.99028656E+02   1.99028656E+02  -3.12497635E+01  -9.00239277E+00   1.99028656E+02   1.99028656E+02  -9.00239277E+00  -3.12497635E+01   2.30278412E+02  -5.29254951E+01   2.17447647E+02  -3.08654633E+01   1.98644348E+02  -9.00239277E+00  -9.39938164E+00
             2654                1   2.20000000E+02   2.18140198E+02   2.18140198E+02  -1.15811229E+00  -2.55485559E+00   2.18140198E+02   2.18140198E+02  -1.15811229E+00  -2.55485559E+00   2.20695053E+02  -7.14757462E+01   2.19990036E+02  -1.05090117E+00   2.18032990E+02  -2.55485559E+00  -4.84760189E+00
             2654                2   2.20000000E+02   2.18138336E+02   2.18138336E+02  -2.80084944E+00  -9.10265744E-01   2.18138336E+02   2.18138336E+02  -9.10265744E-01  -2.80084944E+00   2.20939194E+02  -7.14757462E+01   2.19981705E+02  -2.70358849E+00   2.18041077E+02  -9.10265744E-01  -4.63471127E+00
             2654                3   2.20000000E+02   2.18139511E+02   2.18139511E+02  -1.05652714E+00  -2.65575123E+00   2.18139511E+02   2.18139511E+02  -1.05652714E+00  -2.65575123E+00   2.20795258E+02  -7.14757462E+01   2.19986923E+02  -1.04299736E+00   2.18125977E+02  -2.65575123E+00  -1.72194171E+00
             2654                4   2.20000000E+02   2.18139114E+02   2.18139114E+02  -2.70704317E+00  -1.00485420E+00   2.18139114E+02   2.18139114E+02  -1.00485420E+00  -2.70704317E+00   2.20846161E+02  -7.14757385E+01   2.19985184E+02  -2.69582415E+00   2.18127899E+02  -1.00485420E+00  -1.57352138E+00
             2655                1   2.20000000E+02   2.23457275E+02   2.23457275E+02  -1.30558891E+01   2.49127960E+01   2.23457275E+02   2.23457275E+02   2.49127960E+01  -1.30558891E+01   2.36513168E+02  -7.84380569E+01   2.12440262E+02  -1.29749117E+01   2.23376297E+02   2.49127960E+01  -4.37550163E+00
             2655                2   2.20000000E+02   2.23700912E+02   2.23700912E+02  -1.17250280E+01   2.33382893E+01   2.23700912E+02   2.23700912E+02   2.33382893E+01  -1.17250280E+01   2.35425949E+02  -7.84380569E+01   2.13577576E+02  -1.13782387E+01   2.23354126E+02   2.33382893E+01  -9.02906036E+00
             2655                3   2.20000000E+02   2.23183716E+02   2.23183716E+02  -1.44251518E+01   2.65556259E+01   2.23183716E+02   2.23183716E+02   2.65556259E+01  -1.44251518E+01   2.37608856E+02  -7.84380569E+01   2.11154877E+02  -1.41324053E+01   2.22890961E+02   2.65556259E+01  -8.33514214E+00
             2655                4   2.20000000E+02   2.23419479E+02   2.23419479E+02  -1.32522144E+01   2.51469040E+01   2.23419479E+02   2.23419479E+02   2.51469040E+01  -1.32522144E+01   2.36671692E+02  -7.84380569E+01   2.12263260E+02  -1.25499840E+01   2.22717255E+02   2.51469040E+01  -1.28726120E+01
             2656                1   2.20000000E+02   2.27130493E+02   2.27130493E+02   7.79271603E+00   6.47416449E+00   2.27130493E+02   2.27130493E+02   7.79271603E+00   6.47416449E+00   2.20656326E+02  -8.04657898E+01   2.19991119E+02   7.86923647E+00   2.27053970E+02   6.47416449E+00  -4.09597254E+00
             2656                2   2.20000000E+02   2.27130203E+02   2.27130203E+02   6.42959929E+00   7.83756399E+00   2.27130203E+02   2.27130203E+02   7.83756399E+00   6.42959929E+00   2.20700607E+02  -8.04657898E+01   2.19989853E+02   6.50314188E+00   2.27056656E+02   7.83756399E+00  -4.02812290E+00
             2656                3   2.20000000E+02   2.27130280E+02   2.27130280E+02   7.82447577E+00   6.44260406E+00   2.27130280E+02   2.27130280E+02   7.82447577E+00   6.44260406E+00   2.20687683E+02  -8.04657898E+01   2.19990219E+02   7.83540297E+00   2.27119354E+02   6.44260406E+00  -1.54802299E+00
             2656                4   2.20000000E+02   2.27130386E+02   2.27130386E+02   6.45940590E+00   7.80756903E+00   2.27130386E+02   2.27130386E+02   7.80756903E+00   6.45940590E+00   2.20670990E+02  -8.04657898E+01   2.19990707E+02   6.46992493E+00   2.27119873E+02   7.80756903E+00  -1.52353919E+00
             2657                1   2.20000000E+02   2.18073563E+02   2.18073563E+02  -2.19020271E+01   2.59138279E+01   2.18073563E+02   2.18073563E+02   2.59138279E+01  -2.19020271E+01   2.39975586E+02  -7.40284576E+01   2.07820648E+02  -2.18837662E+01   2.18055313E+02   2.59138279E+01   2.09282160E+00
             2657                2   2.20000000E+02   2.18579849E+02   2.18579849E+02  -1.97415295E+01   2.32470455E+01   2.18579849E+02   2.18579849E+02   2.32470455E+01  -1.97415295E+01   2.38321381E+02  -7.40284500E+01   2.10236557E+02  -1.96005497E+01   2.18438873E+02   2.32470455E+01  -5.79460430E+00
             2657                3   2.20000000E+02   2.17605865E+02   2.17605865E+02  -2.36924686E+01   2.81719704E+01   2.17605865E+02   2.17605865E+02   2.81719704E+01  -2.36924686E+01   2.41298325E+02  -7.40284500E+01   2.05558807E+02  -2.35069809E+01   2.17420380E+02   2.81719704E+01  -6.68741369E+00
             2657                4   2.20000000E+02   2.18054764E+02   2.18054764E+02  -2.19774570E+01   2.60080719E+01   2.18054764E+02   2.18054764E+02   2.60080719E+01  -2.19774570E+01   2.40032211E+02  -7.40284576E+01   2.07730255E+02  -2.11238976E+01   2.17201202E+02   2.60080719E+01  -1.42881861E+01
             2658                1   2.20000000E+02   2.13412506E+02   2.13412506E+02  -1.18746347E+01  -8.88704002E-01   2.13412506E+02   2.13412506E+02  -8.88704002E-01  -1.18746347E+01   2.25287140E+02  -6.68830566E+01   2.19381561E+02  -1.13871508E+01   2.12925018E+02  -8.88704002E-01  -1.04683981E+01
             2658                2   2.20000000E+02   2.13475937E+02   2.13475937E+02  -1.04417887E+01  -2.38498473E+00   2.13475937E+02   2.13475937E+02  -2.38498473E+00  -1.04417887E+01   2.23917725E+02  -6.68830566E+01   2.19667694E+02  -9.64856052E+00   2.12682709E+02  -2.38498473E+00  -1.33037176E+01
             2658                3   2.20000000E+02   2.13353607E+02   2.13353607E+02  -1.29183836E+01   2.13933557E-01   2.13353607E+02   2.13353607E+02   2.13933557E-01  -1.29183836E+01   2.26271988E+02  -6.68830490E+01   2.19115540E+02  -1.20218973E+01   2.12457123E+02   2.13933557E-01  -1.42142963E+01
             2658                4   2.20000000E+02   2.13429703E+02   2.13429703E+02  -1.15274858E+01  -1.25306284E+00   2.13429703E+02   2.13429703E+02  -1.25306284E+00  -1.15274858E+01   2.24957199E+02  -6.68830490E+01   2.19459229E+02  -1.02066040E+01   2.12108826E+02  -1.25306284E+00  -1.71871243E+01
             2659                1   2.20000000E+02   1.96789017E+02   1.96789017E+02  -2.84877281E+01  -1.75243053E+01   1.96789017E+02   1.96789017E+02  -1.75243053E+01  -2.84877281E+01   2.25276733E+02  -5.02589912E+01   2.19384125E+02  -2.82106590E+01   1.96511948E+02  -1.75243053E+01  -7.89554214E+00
             2659                2   2.20000000E+02   1.96872360E+02   1.96872360E+02  -2.64713974E+01  -1.96239948E+01   1.96872360E+02   1.96872360E+02  -1.96239948E+01  -2.64713974E+01   2.23343765E+02  -5.02589912E+01   2.19760040E+02  -2.59932690E+01   1.96394241E+02  -1.96239948E+01  -1.03226824E+01
             2659                3   2.20000000E+02   1.96727539E+02   1.96727539E+02  -2.95749874E+01  -1.63755684E+01   1.96727539E+02   1.96727539E+02  -1.63755684E+01  -2.95749874E+01   2.26302536E+02  -5.02589989E+01   2.19106445E+02  -2.89319057E+01   1.96084457E+02  -1.63755684E+01  -1.20465250E+01
             2659                4   2.20000000E+02   1.96827377E+02   1.96827377E+02  -2.76745529E+01  -1.83758316E+01   1.96827377E+02   1.96827377E+02  -1.83758316E+01  -2.76745529E+01   2.24501923E+02  -5.02589912E+01   2.19557205E+02  -2.67278786E+01   1.95880692E+02  -1.83758316E+01  -1.45476818E+01
             2660                1   2.20000000E+02   1.97492599E+02   1.97492599E+02  -2.60172119E+01  -1.88210011E+01   1.97492599E+02   1.97492599E+02  -1.88210011E+01  -2.60172119E+01   2.23509811E+02  -5.08847961E+01   2.19734955E+02  -2.57871990E+01   1.97262589E+02  -1.88210011E+01  -7.16636276E+00
             2660                2   2.20000000E+02   1.97541290E+02   1.97541290E+02  -2.39394932E+01  -2.09474087E+01   1.97541290E+02   1.97541290E+02  -2.09474087E+01  -2.39394932E+01   2.21480774E+02  -5.08847961E+01   2.19954208E+02  -2.35768242E+01   1.97178619E+02  -2.09474087E+01  -8.95498085E+00
             2660                3   2.20000000E+02   1.97461243E+02   1.97461243E+02  -2.68580933E+01  -1.79487553E+01   1.97461243E+02   1.97461243E+02  -1.79487553E+01  -2.68580933E+01   2.24319336E+02  -5.08847961E+01   2.19593582E+02  -2.62905655E+01   1.96893723E+02  -1.79487553E+01  -1.12687035E+01
             2660                4   2.20000000E+02   1.97524414E+02   1.97524414E+02  -2.48745728E+01  -1.99954510E+01   1.97524414E+02   1.97524414E+02  -1.99954510E+01  -2.48745728E+01   2.22398987E+02  -5.08847961E+01   2.19878235E+02  -2.40950546E+01   1.96744904E+02  -1.99954510E+01  -1.31436176E+01
             2661                1   2.20000000E+02   2.18077194E+02   2.18077194E+02   8.02109599E-01  -4.55004978E+00   2.18077194E+02   2.18077194E+02   8.02109599E-01  -4.55004978E+00   2.22627243E+02  -7.14430847E+01   2.19853439E+02   1.13075256E+00   2.17748550E+02  -4.55004978E+00  -8.44380951E+00
             2661                2   2.20000000E+02   2.18067917E+02   2.18067917E+02   1.16412604E+00  -4.90278769E+00   2.18067917E+02   2.18067917E+02   1.16412604E+00  -4.90278769E+00   2.22970703E+02  -7.14430847E+01   2.19811661E+02   1.45190287E+00   2.17780136E+02  -4.90278769E+00  -7.89540243E+00
             2661                3   2.20000000E+02   2.18070648E+02   2.18070648E+02   1.06173170E+00  -4.80313015E+00   2.18070648E+02   2.18070648E+02   1.06173170E+00  -4.80313015E+00   2.22873779E+02  -7.14430847E+01   2.19823990E+02   1.44159949E+00   2.17690781E+02  -4.80313015E+00  -9.07146645E+00
             2661                4   2.20000000E+02   2.18060379E+02   2.18060379E+02   1.42966712E+00  -5.16080427E+00   2.18060379E+02   2.18060379E+02   1.42966712E+00  -5.16080427E+00   2.23221191E+02  -7.14430847E+01   2.19777725E+02   1.76541829E+00   2.17724640E+02  -5.16080427E+00  -8.52172470E+00
             2662                1   2.20000000E+02   2.19034943E+02   2.19034943E+02   2.55735606E-01  -2.16584969E+00   2.19034943E+02   2.19034943E+02   2.55735606E-01  -2.16584969E+00   2.21200790E+02  -7.23749466E+01   2.19970001E+02   4.27483380E-01   2.18863190E+02  -2.16584969E+00  -6.12754774E+00
             2662                2   2.20000000E+02   2.19034027E+02   2.19034027E+02   3.36608917E-01  -2.24581480E+00   2.19034027E+02   2.19034027E+02   3.36608917E-01  -2.24581480E+00   2.21279846E+02  -7.23749390E+01   2.19965897E+02   5.35232127E-01   2.18835403E+02  -2.24581480E+00  -6.58779335E+00
             2662                3   2.20000000E+02   2.19037430E+02   2.19037430E+02   2.67036143E-03  -1.91526902E+00   2.19037430E+02   2.19037430E+02   2.67036143E-03  -1.91526902E+00   2.20952698E+02  -7.23749466E+01   2.19981186E+02   1.84228584E-01   2.18855865E+02  -1.91526902E+00  -6.30364323E+00
             2662                4   2.20000000E+02   2.19036697E+02   2.19036697E+02   8.24403241E-02  -1.99432147E+00   2.19036697E+02   2.19036697E+02   8.24403241E-02  -1.99432147E+00   2.21031021E+02  -7.23749390E+01   2.19977936E+02   2.91516632E-01   2.18827621E+02  -1.99432147E+00  -6.76276493E+00
             2663                1   2.20000000E+02   1.90793472E+02   1.90793472E+02  -3.21076508E+01  -2.61858349E+01   1.90793472E+02   1.90793472E+02  -2.61858349E+01  -3.21076508E+01   2.22901123E+02  -4.41666603E+01   2.19820572E+02  -3.19951572E+01   1.90680984E+02  -2.61858349E+01  -5.00606680E+00
             2663                2   2.20000000E+02   1.90831650E+02   1.90831650E+02  -2.97744827E+01  -2.85571594E+01   1.90831650E+02   1.90831650E+02  -2.85571594E+01  -2.97744827E+01   2.20606125E+02  -4.41666679E+01   2.19992401E+02  -2.95699387E+01   1.90627090E+02  -2.85571594E+01  -6.71443748E+00
             2663                3   2.20000000E+02   1.90767761E+02   1.90767761E+02  -3.29315910E+01  -2.53361664E+01   1.90767761E+02   1.90767761E+02  -2.53361664E+01  -3.29315910E+01   2.23699341E+02  -4.41666679E+01   2.19704697E+02  -3.25218239E+01   1.90357986E+02  -2.53361664E+01  -9.56543255E+00
             2663                4   2.20000000E+02   1.90822601E+02   1.90822601E+02  -3.06976891E+01  -2.76249218E+01   1.90822601E+02   1.90822601E+02  -2.76249218E+01  -3.06976891E+01   2.21520294E+02  -4.41666603E+01   2.19951706E+02  -3.01104984E+01   1.90235413E+02  -2.76249218E+01  -1.13898525E+01
             2664                1   2.20000000E+02   2.27281509E+02   2.27281509E+02   6.59659290E+00   7.97285986E+00   2.27281509E+02   2.27281509E+02   7.97285986E+00   6.59659290E+00   2.20684906E+02  -8.06169815E+01   2.19990326E+02   6.61213970E+00   2.27265961E+02   7.97285986E+00  -1.85205829E+00
             2664                2   2.20000000E+02   2.27281494E+02   2.27281494E+02   6.59723949E+00   7.97220564E+00   2.27281494E+02   2.27281494E+02   7.97220564E+00   6.59723949E+00   2.20684265E+02  -8.06169815E+01   2.19990341E+02   6.59937143E+00   2.27279373E+02   7.97220564E+00   6.84938133E-01
             2664                3   2.20000000E+02   2.27281464E+02   2.27281464E+02   7.97857761E+00   6.59091711E+00   2.27281464E+02   2.27281464E+02   7.97857761E+00   6.59091711E+00   2.20690552E+02  -8.06169815E+01   2.19990158E+02   7.99454927E+00   2.27265488E+02   6.59091711E+00  -1.87167025E+00
             2664                4   2.20000000E+02   2.27281464E+02   2.27281464E+02   7.97923899E+00   6.59025717E+00   2.27281464E+02   2.27281464E+02   7.97923899E+00   6.59025717E+00   2.20691193E+02  -8.06169815E+01   2.19990128E+02   7.98153591E+00   2.27279160E+02   6.59025717E+00   7.09864974E-01
             2665                1   2.20000000E+02   2.26145462E+02   2.26145462E+02   1.20461893E+01   6.85001075E-01   2.26145462E+02   2.26145462E+02   1.20461893E+01   6.85001075E-01   2.25460464E+02  -7.96255493E+01   2.19338501E+02   1.21897392E+01   2.26001907E+02   6.85001075E-01  -5.54204321E+00
             2665                2   2.20000000E+02   2.26148407E+02   2.26148407E+02   1.19876451E+01   7.40600467E-01   2.26148407E+02   2.26148407E+02   1.19876451E+01   7.40600467E-01   2.25407806E+02  -7.96255493E+01   2.19351776E+02   1.20781155E+01   2.26057938E+02   7.40600467E-01  -4.40066195E+00
             2665                3   2.20000000E+02   2.26115936E+02   2.26115936E+02   1.26060019E+01   1.54720142E-01   2.26115936E+02   2.26115936E+02   1.26060019E+01   1.54720142E-01   2.25961212E+02  -7.96255569E+01   2.19205124E+02   1.27322626E+01   2.25989670E+02   1.54720142E-01  -5.19069910E+00
             2665                4   2.20000000E+02   2.26119446E+02   2.26119446E+02   1.25419168E+01   2.15290427E-01   2.26119446E+02   2.26119446E+02   1.25419168E+01   2.15290427E-01   2.25904160E+02  -7.96255493E+01   2.19221008E+02   1.26166782E+01   2.26044678E+02   2.15290427E-01  -3.99537301E+00
             2666                1   2.20000000E+02   2.29364700E+02   2.29364700E+02   8.93052292E+00   9.80147362E+00   2.29364700E+02   2.29364700E+02   9.80147362E+00   8.93052292E+00   2.20434189E+02  -8.26988983E+01   2.19996124E+02   9.12629604E+00   2.29168930E+02   9.80147362E+00  -6.56635523E+00
             2666                2   2.20000000E+02   2.29363388E+02   2.29363388E+02   1.00604591E+01   8.67286491E+00   2.29363388E+02   2.29363388E+02   1.00604591E+01   8.67286491E+00   2.20690521E+02  -8.26989059E+01   2.19990158E+02   1.02548189E+01   2.29169022E+02   8.67286491E+00  -6.52583027E+00
             2666                3   2.20000000E+02   2.29364655E+02   2.29364655E+02   8.92144108E+00   9.81059170E+00   2.29364655E+02   2.29364655E+02   9.81059170E+00   8.92144108E+00   2.20443222E+02  -8.26988983E+01   2.19995941E+02   9.25926113E+00   2.29026840E+02   9.81059170E+00  -8.62300491E+00
             2666                4   2.20000000E+02   2.29363449E+02   2.29363449E+02   1.00511379E+01   8.68212605E+00   2.29363449E+02   2.29363449E+02   1.00511379E+01   8.68212605E+00   2.20681320E+02  -8.26989059E+01   2.19990417E+02   1.03898153E+01   2.29024765E+02   8.68212605E+00  -8.61170959E+00
             2667                1   2.20000000E+02   2.34145538E+02   2.34145538E+02   1.44411774E+01   1.38510828E+01   2.34145538E+02   2.34145538E+02   1.44411774E+01   1.38510828E+01   2.20294449E+02  -8.74792709E+01   2.19998215E+02   1.46445408E+01   2.33942169E+02   1.38510828E+01  -6.68130064E+00
             2667                2   2.20000000E+02   2.34139908E+02   2.34139908E+02   1.53004780E+01   1.29974136E+01   2.34139908E+02   2.34139908E+02   1.53004780E+01   1.29974136E+01   2.21142487E+02  -8.74792709E+01   2.19972870E+02   1.54825687E+01   2.33957809E+02   1.29974136E+01  -6.31004190E+00
             2667                3   2.20000000E+02   2.34145035E+02   2.34145035E+02   1.45912380E+01   1.37015181E+01   2.34145035E+02   2.34145035E+02   1.45912380E+01   1.37015181E+01   2.20443512E+02  -8.74792557E+01   2.19995956E+02   1.48993235E+01   2.33836945E+02   1.37015181E+01  -8.21864796E+00
             2667                4   2.20000000E+02   2.34138138E+02   2.34138138E+02   1.54583216E+01   1.28413162E+01   2.34138138E+02   2.34138138E+02   1.54583216E+01   1.28413162E+01   2.21296829E+02  -8.74792557E+01   2.19964981E+02   1.57413826E+01   2.33855087E+02   1.28413162E+01  -7.86249733E+00
             2668                1   2.20000000E+02   1.97038376E+02   1.97038376E+02  -3.78774796E+01  -4.15070057E+00   1.97038376E+02   1.97038376E+02  -4.15070057E+00  -3.78774796E+01   2.34915848E+02  -5.16700630E+01   2.14067612E+02  -3.75899239E+01   1.96750809E+02  -4.15070057E+00  -8.21400356E+00
             2668                2   2.20000000E+02   1.97361725E+02   1.97361725E+02  -3.57973289E+01  -6.55419302E+00   1.97361725E+02   1.97361725E+02  -6.55419302E+00  -3.57973289E+01   2.33159042E+02  -5.16700630E+01   2.15562332E+02  -3.57769356E+01   1.97341324E+02  -6.55419302E+00  -2.18065882E+00
             2668                3   2.20000000E+02   1.97348236E+02   1.97348236E+02  -3.58910599E+01  -6.44697666E+00   1.97348236E+02   1.97348236E+02  -6.44697666E+00  -3.58910599E+01   2.33239288E+02  -5.16700630E+01   2.15500198E+02  -3.50074730E+01   1.96464645E+02  -6.44697666E+00  -1.43284893E+01
             2668                4   2.20000000E+02   1.97660294E+02   1.97660294E+02  -3.35100403E+01  -9.14006519E+00   1.97660294E+02   1.97660294E+02  -9.14006519E+00  -3.35100403E+01   2.31170334E+02  -5.16700630E+01   2.16932129E+02  -3.32121086E+01   1.97362366E+02  -9.14006519E+00  -8.29355240E+00
             2669                1   2.20000000E+02   2.21334198E+02   2.21334198E+02  -5.14107370E+00   8.43859673E+00   2.21334198E+02   2.21334198E+02   8.43859673E+00  -5.14107370E+00   2.26475281E+02  -7.48772430E+01   2.19054062E+02  -4.30342102E+00   2.20496552E+02   8.43859673E+00  -1.37479420E+01
             2669                2   2.20000000E+02   2.21275391E+02   2.21275391E+02  -6.00418711E+00   9.36052227E+00   2.21275391E+02   2.21275391E+02   9.36052227E+00  -6.00418711E+00   2.27279587E+02  -7.48772430E+01   2.18787979E+02  -5.34735489E+00   2.20618561E+02   9.36052227E+00  -1.22005739E+01
             2669                3   2.20000000E+02   2.21377380E+02   2.21377380E+02  -4.42393780E+00   7.67828798E+00   2.21377380E+02   2.21377380E+02   7.67828798E+00  -4.42393780E+00   2.25801315E+02  -7.48772430E+01   2.19249191E+02  -3.81877136E+00   2.20772217E+02   7.67828798E+00  -1.16739511E+01
             2669                4   2.20000000E+02   2.21320251E+02   2.21320251E+02  -5.35626125E+00   8.66774845E+00   2.21320251E+02   2.21320251E+02   8.66774845E+00  -5.35626125E+00   2.26676514E+02  -7.48772507E+01   2.18990936E+02  -4.90747547E+00   2.20871460E+02   8.66774845E+00  -1.00761547E+01
             2670                1   2.20000000E+02   2.20974167E+02   2.20974167E+02   4.29021895E-01   1.52337372E+00   2.20974167E+02   2.20974167E+02   1.52337372E+00   4.29021895E-01   2.20545135E+02  -7.43088531E+01   2.19993881E+02   1.41697979E+00   2.19986206E+02   1.52337372E+00  -1.47279539E+01
             2670                2   2.20000000E+02   2.20964310E+02   2.20964310E+02  -5.89263678E-01   2.55151176E+00   2.20964310E+02   2.20964310E+02   2.55151176E+00  -5.89263678E-01   2.21553574E+02  -7.43088531E+01   2.19949539E+02   2.60634959E-01   2.20114410E+02   2.55151176E+00  -1.36958332E+01
             2670                3   2.20000000E+02   2.20975327E+02   2.20975327E+02   7.69141972E-01   1.18209291E+00   2.20975327E+02   2.20975327E+02   1.18209291E+00   7.69141972E-01   2.20206177E+02  -7.43088531E+01   2.19999115E+02   1.48652291E+00   2.20257935E+02   1.18209291E+00  -1.25482216E+01
             2670                4   2.20000000E+02   2.20969315E+02   2.20969315E+02  -1.89571306E-01   2.14680719E+00   2.20969315E+02   2.20969315E+02   2.14680719E+00  -1.89571306E-01   2.21158875E+02  -7.43088455E+01   2.19972092E+02   4.22337621E-01   2.20357407E+02   2.14680719E+00  -1.16169529E+01
             2671                1   2.20000000E+02   2.19379105E+02   2.19379105E+02   1.43906534E+00  -2.62455320E+00   2.19379105E+02   2.19379105E+02   1.43906534E+00  -2.62455320E+00   2.22003662E+02  -7.27312088E+01   2.19915543E+02   1.89436841E+00   2.18923813E+02  -2.62455320E+00  -9.95089912E+00
             2671                2   2.20000000E+02   2.19368576E+02   2.19368576E+02   1.95173979E+00  -3.12668037E+00   2.19368576E+02   2.19368576E+02   1.95173979E+00  -3.12668037E+00   2.22495255E+02  -7.27312088E+01   2.19868073E+02   2.37222481E+00   2.18948090E+02  -3.12668037E+00  -9.55213547E+00
             2671                3   2.20000000E+02   2.19375702E+02   2.19375702E+02   1.61753976E+00  -2.79961538E+00   2.19375702E+02   2.19375702E+02   1.61753976E+00  -2.79961538E+00   2.22175323E+02  -7.27312088E+01   2.19900192E+02   2.15824914E+00   2.18834991E+02  -2.79961538E+00  -1.08375025E+01
             2671                4   2.20000000E+02   2.19364014E+02   2.19364014E+02   2.14424729E+00  -3.31463408E+00   2.19364014E+02   2.19364014E+02   2.14424729E+00  -3.31463408E+00   2.22678635E+02  -7.27312088E+01   2.19847549E+02   2.64679432E+00   2.18861465E+02  -3.31463408E+00  -1.04359741E+01
             2672                1   2.20000000E+02   2.21386017E+02   2.21386017E+02  -1.51537478E-01   2.95650005E+00   2.21386017E+02   2.21386017E+02   2.95650005E+00  -1.51537478E-01   2.21537552E+02  -7.47303238E+01   2.19950607E+02   1.90768875E-02   2.21215408E+02   2.95650005E+00  -6.14553738E+00
             2672                2   2.20000000E+02   2.21390305E+02   2.21390305E+02   1.86977282E-01   2.61369658E+00   2.21390305E+02   2.21390305E+02   2.61369658E+00   1.86977282E-01   2.21203339E+02  -7.47303238E+01   2.19969894E+02   3.73404443E-01   2.21203888E+02   2.61369658E+00  -6.41888571E+00
             2672                3   2.20000000E+02   2.21384094E+02   2.21384094E+02  -2.80476213E-01   3.08734989E+00   2.21384094E+02   2.21384094E+02   3.08734989E+00  -2.80476213E-01   2.21664581E+02  -7.47303238E+01   2.19941986E+02  -7.20631033E-02   2.21175690E+02   3.08734989E+00  -6.79363298E+00
             2672                4   2.20000000E+02   2.21388779E+02   2.21388779E+02   5.59740849E-02   2.74623179E+00   2.21388779E+02   2.21388779E+02   2.74623179E+00   5.59740849E-02   2.21332794E+02  -7.47303238E+01   2.19962997E+02   2.82004833E-01   2.21162750E+02   2.74623179E+00  -7.06932449E+00
             2673                1   2.20000000E+02   2.22864716E+02   2.22864716E+02   2.10643983E+00   3.63093162E+00   2.22864716E+02   2.22864716E+02   3.63093162E+00   2.10643983E+00   2.20758286E+02  -7.62006989E+01   2.19988113E+02   2.12421346E+00   2.22846954E+02   3.63093162E+00  -1.98036110E+00
             2673                2   2.20000000E+02   2.22864853E+02   2.22864853E+02   2.12461448E+00   3.61263895E+00   2.22864853E+02   2.22864853E+02   3.61263895E+00   2.12461448E+00   2.20740250E+02  -7.62007065E+01   2.19988678E+02   2.12776184E+00   2.22861710E+02   3.61263895E+00   8.33497524E-01
             2673                3   2.20000000E+02   2.22864746E+02   2.22864746E+02   3.63017941E+00   2.10719991E+00   2.22864746E+02   2.22864746E+02   3.63017941E+00   2.10719991E+00   2.20757538E+02  -7.62007065E+01   2.19988144E+02   3.64922476E+00   2.22845688E+02   2.10719991E+00  -2.04362416E+00
             2673                4   2.20000000E+02   2.22864594E+02   2.22864594E+02   3.64971185E+00   2.08780003E+00   2.22864594E+02   2.22864594E+02   3.64971185E+00   2.08780003E+00   2.20776794E+02  -7.62007065E+01   2.19987534E+02   3.65281439E+00   2.22861496E+02   2.08780003E+00   8.25006366E-01
             2674                1   2.20000000E+02   2.18068085E+02   2.18068085E+02  -3.04536128E+00  -8.01321924E-01   2.18068085E+02   2.18068085E+02  -8.01321924E-01  -3.04536128E+00   2.21113449E+02  -7.14071350E+01   2.19974243E+02  -2.89248347E+00   2.17915207E+02  -8.01321924E-01  -5.81199646E+00
             2674                2   2.20000000E+02   2.18072922E+02   2.18072922E+02  -1.48740792E+00  -2.36412287E+00   2.18072922E+02   2.18072922E+02  -1.48740792E+00  -2.36412287E+00   2.20437042E+02  -7.14071274E+01   2.19996063E+02  -1.31422257E+00   2.17899734E+02  -2.36412287E+00  -6.16394949E+00
             2674                3   2.20000000E+02   2.18065872E+02   2.18065872E+02  -3.24341869E+00  -6.01052940E-01   2.18065872E+02   2.18065872E+02  -6.01052940E-01  -3.24341869E+00   2.21309280E+02  -7.14071274E+01   2.19964310E+02  -2.89974618E+00   2.17722198E+02  -6.01052940E-01  -8.71430111E+00
             2674                4   2.20000000E+02   2.18073578E+02   2.18073578E+02  -1.70095539E+00  -2.15121198E+00   2.18073578E+02   2.18073578E+02  -1.70095539E+00  -2.15121198E+00   2.20224792E+02  -7.14071350E+01   2.19998962E+02  -1.32159913E+00   2.17694214E+02  -2.15121198E+00  -9.12304783E+00
             2675                1   2.20000000E+02   2.01263870E+02   2.01263870E+02  -3.69990349E+01   5.82322359E+00   2.01263870E+02   2.01263870E+02   5.82322359E+00  -3.69990349E+01   2.38262909E+02  -5.66960182E+01   2.10314514E+02  -3.67754097E+01   2.01040237E+02   5.82322359E+00   7.29606819E+00
             2675                2   2.20000000E+02   2.01884811E+02   2.01884811E+02  -3.38843193E+01   2.08755779E+00   2.01884811E+02   2.01884811E+02   2.08755779E+00  -3.38843193E+01   2.35769119E+02  -5.66960144E+01   2.13232574E+02  -3.38626900E+01   2.01863174E+02   2.08755779E+00  -2.25821257E+00
             2675                3   2.20000000E+02   2.00684296E+02   2.00684296E+02  -3.94614220E+01   8.86518288E+00   2.00684296E+02   2.00684296E+02   8.86518288E+00  -3.94614220E+01   2.40145706E+02  -5.66960182E+01   2.07547363E+02  -3.94422073E+01   2.00665070E+02   8.86518288E+00  -2.14834929E+00
             2675                4   2.20000000E+02   2.01277863E+02   2.01277863E+02  -3.69350128E+01   5.74519634E+00   2.01277863E+02   2.01277863E+02   5.74519634E+00  -3.69350128E+01   2.38212875E+02  -5.66960144E+01   2.10380829E+02  -3.63671112E+01   2.00709961E+02   5.74519634E+00  -1.16171865E+01
             2676                1   2.20000000E+02   2.38224319E+02   2.38224319E+02   1.87721939E+01   1.76805382E+01   2.38224319E+02   2.38224319E+02   1.87721939E+01   1.76805382E+01   2.20543793E+02  -9.15590210E+01   2.19993912E+02   1.88097935E+01   2.38186737E+02   1.76805382E+01  -2.87218642E+00
             2676                2   2.20000000E+02   2.38224945E+02   2.38224945E+02   1.78235703E+01   1.86285400E+01   2.38224945E+02   2.38224945E+02   1.86285400E+01   1.78235703E+01   2.20401382E+02  -9.15590210E+01   2.19996704E+02   1.78635063E+01   2.38185028E+02   1.86285400E+01  -2.96636462E+00
             2676                3   2.20000000E+02   2.38224548E+02   2.38224548E+02   1.87285156E+01   1.77240067E+01   2.38224548E+02   2.38224548E+02   1.87285156E+01   1.77240067E+01   2.20500549E+02  -9.15590210E+01   2.19994858E+02   1.87344551E+01   2.38218613E+02   1.77240067E+01  -1.14145195E+00
             2676                4   2.20000000E+02   2.38224777E+02   2.38224777E+02   1.77819614E+01   1.86703072E+01   2.38224777E+02   2.38224777E+02   1.86703072E+01   1.77819614E+01   2.20442825E+02  -9.15590210E+01   2.19995972E+02   1.77891216E+01   2.38217636E+02   1.86703072E+01  -1.25577247E+00
             2677                1   2.20000000E+02   2.31470673E+02   2.31470673E+02   1.14874706E+01   1.14538813E+01   2.31470673E+02   2.31470673E+02   1.14874706E+01   1.14538813E+01   2.20016800E+02  -8.48040085E+01   2.19999985E+02   1.17347355E+01   2.31223404E+02   1.14538813E+01  -7.37117386E+00
             2677                2   2.20000000E+02   2.31466202E+02   2.31466202E+02   1.24658108E+01   1.04800234E+01   2.31466202E+02   2.31466202E+02   1.24658108E+01   1.04800234E+01   2.20986176E+02  -8.48040085E+01   2.19979828E+02   1.27018814E+01   2.31230118E+02   1.04800234E+01  -7.18648624E+00
             2677                3   2.20000000E+02   2.31470642E+02   2.31470642E+02   1.15491524E+01   1.13922224E+01   2.31470642E+02   2.31470642E+02   1.15491524E+01   1.13922224E+01   2.20078415E+02  -8.48040085E+01   2.19999863E+02   1.19290600E+01   2.31090729E+02   1.13922224E+01  -9.13269043E+00
             2677                4   2.20000000E+02   2.31465576E+02   2.31465576E+02   1.25317659E+01   1.04146690E+01   2.31465576E+02   2.31465576E+02   1.25317659E+01   1.04146690E+01   2.21050903E+02  -8.48040085E+01   2.19977081E+02   1.28998299E+01   2.31097519E+02   1.04146690E+01  -8.96913338E+00
             2678                1   2.20000000E+02   2.18661697E+02   2.18661697E+02  -7.40487289E+00   5.27686787E+00   2.18661697E+02   2.18661697E+02   5.27686787E+00  -7.40487289E+00   2.26066574E+02  -7.21778946E+01   2.19175354E+02  -6.20168209E+00   2.17458496E+02   5.27686787E+00  -1.64485588E+01
             2678                2   2.20000000E+02   2.18589874E+02   2.18589874E+02  -8.51028156E+00   6.45408535E+00   2.18589874E+02   2.18589874E+02   6.45408535E+00  -8.51028156E+00   2.27100159E+02  -7.21778946E+01   2.18850555E+02  -7.72224188E+00   2.17801834E+02   6.45408535E+00  -1.33544893E+01
             2678                3   2.20000000E+02   2.18720535E+02   2.18720535E+02  -6.31589890E+00   4.12904406E+00   2.18720535E+02   2.18720535E+02   4.12904406E+00  -6.31589890E+00   2.25036438E+02  -7.21778946E+01   2.19441086E+02  -5.58925056E+00   2.17993881E+02   4.12904406E+00  -1.27669420E+01
             2678                4   2.20000000E+02   2.18656479E+02   2.18656479E+02  -7.49205875E+00   5.36926603E+00   2.18656479E+02   2.18656479E+02   5.36926603E+00  -7.49205875E+00   2.26148529E+02  -7.21778946E+01   2.19151779E+02  -7.07339478E+00   2.18237808E+02   5.36926603E+00  -9.72136497E+00
             2679                1   2.20000000E+02   1.95904388E+02   1.95904388E+02  -3.98920670E+01  -3.84753990E+00   1.95904388E+02   1.95904388E+02  -3.84753990E+00  -3.98920670E+01   2.35796448E+02  -5.07215919E+01   2.13204575E+02  -3.96725616E+01   1.95684875E+02  -3.84753990E+00  -7.19099426E+00
             2679                2   2.20000000E+02   1.96270844E+02   1.96270844E+02  -3.77021446E+01  -6.40393162E+00   1.96270844E+02   1.96270844E+02  -6.40393162E+00  -3.77021446E+01   2.33972992E+02  -5.07215881E+01   2.14905533E+02  -3.77000999E+01   1.96268799E+02  -6.40393162E+00  -6.91019118E-01
             2679                3   2.20000000E+02   1.96255753E+02   1.96255753E+02  -3.77994308E+01  -6.29156590E+00   1.96255753E+02   1.96255753E+02  -6.29156590E+00  -3.77994308E+01   2.34055191E+02  -5.07215881E+01   2.14835846E+02  -3.69702148E+01   1.95426544E+02  -6.29156590E+00  -1.39066343E+01
             2679                4   2.20000000E+02   1.96609436E+02   1.96609436E+02  -3.52946205E+01  -9.15004921E+00   1.96609436E+02   1.96609436E+02  -9.15004921E+00  -3.52946205E+01   2.31904068E+02  -5.07215881E+01   2.16463562E+02  -3.50626526E+01   1.96377472E+02  -9.15004921E+00  -7.33081436E+00
             2680                1   2.20000000E+02   2.11093185E+02   2.11093185E+02   3.68078566E+00  -1.96369324E+01   2.11093185E+02   2.11093185E+02   3.68078566E+00  -1.96369324E+01   2.30730118E+02  -6.50456772E+01   2.17193787E+02   3.73378563E+00   2.11040192E+02  -1.96369324E+01  -3.31494212E+00
             2680                2   2.20000000E+02   2.11087540E+02   2.11087540E+02   3.73646855E+00  -1.96869698E+01   2.11087540E+02   2.11087540E+02   3.73646855E+00  -1.96869698E+01   2.30774506E+02  -6.50456772E+01   2.17168015E+02   3.74044585E+00   2.11083557E+02  -1.96869698E+01  -9.08362806E-01
             2680                3   2.20000000E+02   2.10948776E+02   2.10948776E+02   5.03809977E+00  -2.08498459E+01   2.10948776E+02   2.10948776E+02   5.03809977E+00  -2.08498459E+01   2.31798630E+02  -6.50456772E+01   2.16533447E+02   5.09440804E+00   2.10892471E+02  -2.08498459E+01  -3.40454626E+00
             2680                4   2.20000000E+02   2.10942200E+02   2.10942200E+02   5.09689760E+00  -2.09020691E+01   2.10942200E+02   2.10942200E+02   5.09689760E+00  -2.09020691E+01   2.31844269E+02  -6.50456772E+01   2.16503296E+02   5.10138559E+00   2.10937714E+02  -2.09020691E+01  -9.60479915E-01
             2681                1   2.20000000E+02   2.20113174E+02   2.20113174E+02   4.02928144E-01  -1.75451174E-01   2.20113174E+02   2.20113174E+02   4.02928144E-01  -1.75451174E-01   2.20288620E+02  -7.34468842E+01   2.19998291E+02   8.69880259E-01   2.19646225E+02  -1.75451174E-01  -1.01180305E+01
             2681                2   2.20000000E+02   2.20110443E+02   2.20110443E+02   9.42182839E-01  -7.11962938E-01   2.20110443E+02   2.20110443E+02   9.42182839E-01  -7.11962938E-01   2.20822403E+02  -7.34468918E+01   2.19985992E+02   1.40854752E+00   2.19644073E+02  -7.11962938E-01  -1.00993204E+01
             2681                3   2.20000000E+02   2.20113144E+02   2.20113144E+02   4.11608100E-01  -1.84098810E-01   2.20113144E+02   2.20113144E+02   4.11608100E-01  -1.84098810E-01   2.20297241E+02  -7.34468842E+01   2.19998169E+02   9.74561453E-01   2.19550186E+02  -1.84098810E-01  -1.11069918E+01
             2681                4   2.20000000E+02   2.20110428E+02   2.20110428E+02   9.45623815E-01  -7.15384841E-01   2.20110428E+02   2.20110428E+02   9.45623815E-01  -7.15384841E-01   2.20825806E+02  -7.34468918E+01   2.19985886E+02   1.50874352E+00   2.19547302E+02  -7.15384841E-01  -1.10949926E+01
             2682                1   2.19999985E+02   1.86564667E+02   1.86564667E+02  -3.53231926E+01  -3.14975700E+01   1.86564667E+02   1.86564667E+02  -3.14975700E+01  -3.53231926E+01   2.21887848E+02  -3.99146309E+01   2.19925140E+02  -3.47308655E+01   1.85972336E+02  -3.14975700E+01  -1.14489841E+01
             2682                2   2.20000000E+02   1.86497482E+02   1.86497482E+02  -3.76702347E+01  -2.90833511E+01   1.86497482E+02   1.86497482E+02  -2.90833511E+01  -3.76702347E+01   2.24167725E+02  -3.99146347E+01   2.19622482E+02  -3.72853661E+01   1.86112625E+02  -2.90833511E+01  -9.28041458E+00
             2682                3   2.20000000E+02   1.86578308E+02   1.86578308E+02  -3.42289352E+01  -3.26054726E+01   1.86578308E+02   1.86578308E+02  -3.26054726E+01  -3.42289352E+01   2.20807236E+02  -3.99146309E+01   2.19986526E+02  -3.40395126E+01   1.86388885E+02  -3.26054726E+01  -6.46439266E+00
             2682                4   2.20000000E+02   1.86531631E+02   1.86531631E+02  -3.66992111E+01  -3.00885143E+01   1.86531631E+02   1.86531631E+02  -3.00885143E+01  -3.66992111E+01   2.23230850E+02  -3.99146385E+01   2.19776367E+02  -3.66116524E+01   1.86444077E+02  -3.00885143E+01  -4.42028141E+00
             2683                1   2.20000000E+02   2.11450790E+02   2.11450790E+02   3.62942815E+00  -1.89814911E+01   2.11450790E+02   2.11450790E+02   3.62942815E+00  -1.89814911E+01   2.30432281E+02  -6.53662415E+01   2.17362808E+02   3.64633489E+00   2.11433884E+02  -1.89814911E+01   1.87420905E+00
             2683                2   2.20000000E+02   2.11461349E+02   2.11461349E+02   3.52114391E+00  -1.88837776E+01   2.11461349E+02   2.11461349E+02   3.52114391E+00  -1.88837776E+01   2.30345139E+02  -6.53662415E+01   2.17411026E+02   3.60637784E+00   2.11376114E+02  -1.88837776E+01   4.20923471E+00
             2683                3   2.20000000E+02   2.11315048E+02   2.11315048E+02   4.94334269E+00  -2.01596851E+01   2.11315048E+02   2.11315048E+02   4.94334269E+00  -2.01596851E+01   2.31474731E+02  -6.53662338E+01   2.16742737E+02   4.96305084E+00   2.11295349E+02  -2.01596851E+01   2.01623750E+00
             2683                4   2.20000000E+02   2.11327362E+02   2.11327362E+02   4.82941151E+00  -2.00580482E+01   2.11327362E+02   2.11327362E+02   4.82941151E+00  -2.00580482E+01   2.31385406E+02  -6.53662415E+01   2.16799026E+02   4.92229843E+00   2.11234467E+02  -2.00580482E+01   4.37871027E+00
             2684                1   2.20000000E+02   2.24575974E+02   2.24575974E+02  -1.64687958E+01   3.46052895E+01   2.24575974E+02   2.24575974E+02   3.46052895E+01  -1.64687958E+01   2.41044769E+02  -8.09041519E+01   2.06017776E+02  -1.64685860E+01   2.24575760E+02   3.46052895E+01  -2.26931185E-01
             2684                2   2.20000000E+02   2.24968216E+02   2.24968216E+02  -1.49499769E+01   3.26942177E+01   2.24968216E+02   2.24968216E+02   3.26942177E+01  -1.49499769E+01   2.39918182E+02  -8.09041519E+01   2.07911697E+02  -1.47800293E+01   2.24798264E+02   3.26942177E+01  -6.38316011E+00
             2684                3   2.20000000E+02   2.24128143E+02   2.24128143E+02  -1.80665493E+01   3.66508675E+01   2.24128143E+02   2.24128143E+02   3.66508675E+01  -1.80665493E+01   2.42194702E+02  -8.09041519E+01   2.03829605E+02  -1.79495449E+01   2.24011139E+02   3.66508675E+01  -5.32218409E+00
             2684                4   2.20000000E+02   2.24490173E+02   2.24490173E+02  -1.67852535E+01   3.50075340E+01   2.24490173E+02   2.24490173E+02   3.50075340E+01  -1.67852535E+01   2.41275436E+02  -8.09041519E+01   2.05600754E+02  -1.62587299E+01   2.23963654E+02   3.50075340E+01  -1.12587957E+01
             2685                1   2.20000000E+02   2.23679779E+02   2.23679779E+02  -2.97619015E-01   7.88551331E+00   2.23679779E+02   2.23679779E+02   7.88551331E+00  -2.97619015E-01   2.23977402E+02  -7.70892258E+01   2.19657181E+02  -1.41514048E-01   2.23523666E+02   7.88551331E+00  -5.91105032E+00
             2685                2   2.20000000E+02   2.23694061E+02   2.23694061E+02   9.89991128E-02   7.47460938E+00   2.23694061E+02   2.23694061E+02   7.47460938E+00   9.89991128E-02   2.23595062E+02  -7.70892258E+01   2.19721573E+02   2.97315091E-01   2.23495743E+02   7.47460938E+00  -6.65610123E+00
             2685                3   2.20000000E+02   2.23666855E+02   2.23666855E+02  -6.24513566E-01   8.22531414E+00   2.23666855E+02   2.23666855E+02   8.22531414E+00  -6.24513566E-01   2.24291367E+02  -7.70892181E+01   2.19598969E+02  -4.23460573E-01   2.23465805E+02   8.22531414E+00  -6.71220732E+00
             2685                4   2.20000000E+02   2.23682144E+02   2.23682144E+02  -2.34666213E-01   7.82018042E+00   2.23682144E+02   2.23682144E+02   7.82018042E+00  -2.34666213E-01   2.23916809E+02  -7.70892181E+01   2.19667877E+02   1.40150785E-02   2.23433472E+02   7.82018042E+00  -7.45790863E+00
             2686                1   2.20000000E+02   2.18153870E+02   2.18153870E+02  -2.68058610E+00  -1.00206029E+00   2.18153870E+02   2.18153870E+02  -1.00206029E+00  -2.68058610E+00   2.20834457E+02  -7.14904099E+01   2.19985580E+02  -2.65997624E+00   2.18133255E+02  -1.00206029E+00  -2.13345122E+00
             2686                2   2.20000000E+02   2.18154114E+02   2.18154114E+02  -2.64813209E+00  -1.03476441E+00   2.18154114E+02   2.18154114E+02  -1.03476441E+00  -2.64813209E+00   2.20802246E+02  -7.14904099E+01   2.19986679E+02  -2.64384151E+00   2.18149826E+02  -1.03476441E+00   9.72961962E-01
             2686                3   2.20000000E+02   2.18153915E+02   2.18153915E+02  -1.00814950E+00  -2.67455220E+00   2.18153915E+02   2.18153915E+02  -1.00814950E+00  -2.67455220E+00   2.20828476E+02  -7.14904099E+01   2.19985794E+02  -9.85376120E-01   2.18131149E+02  -2.67455220E+00  -2.23365855E+00
             2686                4   2.20000000E+02   2.18153641E+02   2.18153641E+02  -9.72930253E-01  -2.70949125E+00   2.18153641E+02   2.18153641E+02  -9.72930253E-01  -2.70949125E+00   2.20863129E+02  -7.14904099E+01   2.19984558E+02  -9.68905509E-01   2.18149612E+02  -2.70949125E+00   9.39441323E-01
             2687                1   2.20000000E+02   1.95018188E+02   1.95018188E+02  -4.16240120E+01  -3.30510640E+00   1.95018188E+02   1.95018188E+02  -3.30510640E+00  -4.16240120E+01   2.36642197E+02  -5.00296936E+01   2.12296417E+02  -4.14661522E+01   1.94860336E+02  -3.30510640E+00  -6.10983372E+00
             2687                2   2.20000000E+02   1.95426590E+02   1.95426590E+02  -3.93463516E+01  -5.99114180E+00   1.95426590E+02   1.95426590E+02  -5.99114180E+00  -3.93463516E+01   2.34772934E+02  -5.00296974E+01   2.14200195E+02  -3.93418312E+01   1.95422058E+02  -5.99114180E+00   1.03075385E+00
             2687                3   2.20000000E+02   1.95416458E+02   1.95416458E+02  -3.94073906E+01  -5.91997671E+00   1.95416458E+02   1.95416458E+02  -5.91997671E+00  -3.94073906E+01   2.34823853E+02  -5.00296936E+01   2.14153229E+02  -3.86361694E+01   1.94645233E+02  -5.91997671E+00  -1.34352751E+01
             2687                4   2.20000000E+02   1.95819138E+02   1.95819138E+02  -3.67362862E+01  -8.99377823E+00   1.95819138E+02   1.95819138E+02  -8.99377823E+00  -3.67362862E+01   2.32555420E+02  -5.00296936E+01   2.16012070E+02  -3.65655136E+01   1.95648376E+02  -8.99377823E+00  -6.29942751E+00
             2688                1   2.20000000E+02   1.88702118E+02   1.88702118E+02  -3.15933113E+01  -3.10012608E+01   1.88702118E+02   1.88702118E+02  -3.10012608E+01  -3.15933113E+01   2.20295425E+02  -4.20358505E+01   2.19998215E+02  -3.12140007E+01   1.88322815E+02  -3.10012608E+01  -9.13321018E+00
             2688                2   2.20000000E+02   1.88669861E+02   1.88669861E+02  -3.39614868E+01  -2.86008167E+01   1.88669861E+02   1.88669861E+02  -2.86008167E+01  -3.39614868E+01   2.22631348E+02  -4.20358543E+01   2.19852982E+02  -3.36937866E+01   1.88402161E+02  -2.86008167E+01  -7.71537495E+00
             2688                3   2.20000000E+02   1.88701706E+02   1.88701706E+02  -3.08717594E+01  -3.17223835E+01   1.88701706E+02   1.88701706E+02  -3.08717594E+01  -3.17223835E+01   2.20424088E+02  -4.20358543E+01   2.19996307E+02  -3.07877483E+01   1.88617691E+02  -3.17223835E+01  -4.29409075E+00
             2688                4   2.20000000E+02   1.88683762E+02   1.88683762E+02  -3.33198318E+01  -2.92563610E+01   1.88683762E+02   1.88683762E+02  -2.92563610E+01  -3.33198318E+01   2.22003586E+02  -4.20358543E+01   2.19915543E+02  -3.32789993E+01   1.88642914E+02  -2.92563610E+01  -3.01081657E+00
             2689                1   2.20000000E+02   2.13425415E+02   2.13425415E+02  -6.16731024E+00  -6.97961187E+00   2.13425415E+02   2.13425415E+02  -6.16731024E+00  -6.97961187E+00   2.20405029E+02  -6.67594986E+01   2.19996628E+02  -5.90557289E+00   2.13163681E+02  -6.97961187E+00  -7.57666397E+00
             2689                2   2.20000000E+02   2.13418106E+02   2.13418106E+02  -7.90091324E+00  -5.23869371E+00   2.13418106E+02   2.13418106E+02  -5.23869371E+00  -7.90091324E+00   2.21319016E+02  -6.67594986E+01   2.19963745E+02  -7.67166662E+00   2.13188858E+02  -5.23869371E+00  -7.11935377E+00
             2689                3   2.20000000E+02   2.13424316E+02   2.13424316E+02  -5.93545675E+00  -7.21035862E+00   2.13424316E+02   2.13424316E+02  -5.93545675E+00  -7.21035862E+00   2.20634674E+02  -6.67594986E+01   2.19991684E+02  -5.85391617E+00   2.13342773E+02  -7.21035862E+00  -4.22858238E+00
             2689                4   2.20000000E+02   2.13420486E+02   2.13420486E+02  -7.68794823E+00  -5.45404482E+00   2.13420486E+02   2.13420486E+02  -5.45404482E+00  -7.68794823E+00   2.21108444E+02  -6.67594986E+01   2.19974472E+02  -7.62111092E+00   2.13353653E+02  -5.45404482E+00  -3.84372473E+00
             2690                1   2.20000000E+02   2.17187973E+02   2.17187973E+02  -8.34930515E+00   3.17851043E+00   2.17187973E+02   2.17187973E+02   3.17851043E+00  -8.34930515E+00   2.25537277E+02  -7.06723938E+01   2.19318924E+02  -7.46058750E+00   2.16299255E+02   3.17851043E+00  -1.41297302E+01
             2690                2   2.20000000E+02   2.17237457E+02   2.17237457E+02  -7.33704281E+00   2.11675477E+00   2.17237457E+02   2.17237457E+02   2.11675477E+00  -7.33704281E+00   2.24574509E+02  -7.06723938E+01   2.19542282E+02  -6.88768053E+00   2.16788101E+02   2.11675477E+00  -1.00356092E+01
             2690                3   2.20000000E+02   2.17245987E+02   2.17245987E+02  -7.13880157E+00   1.90998638E+00   2.17245987E+02   2.17245987E+02   1.90998638E+00  -7.13880157E+00   2.24384781E+02  -7.06723862E+01   2.19580719E+02  -5.77453041E+00   2.15881714E+02   1.90998638E+00  -1.74430275E+01
             2690                4   2.20000000E+02   2.17287140E+02   2.17287140E+02  -6.01440620E+00   7.44442880E-01   2.17287140E+02   2.17287140E+02   7.44442880E-01  -6.01440620E+00   2.23301544E+02  -7.06723938E+01   2.19766220E+02  -5.21179342E+00   2.16484528E+02   7.44442880E-01  -1.33634129E+01
             2691                1   2.20000000E+02   2.13282272E+02   2.13282272E+02  -6.00541925E+00  -7.42318439E+00   2.13282272E+02   2.13282272E+02  -6.00541925E+00  -7.42318439E+00   2.20705460E+02  -6.66178894E+01   2.19989731E+02  -5.88101959E+00   2.13157883E+02  -7.42318439E+00  -5.22131872E+00
             2691                2   2.20000000E+02   2.13279221E+02   2.13279221E+02  -7.79681110E+00  -5.62872791E+00   2.13279221E+02   2.13279221E+02  -5.62872791E+00  -7.79681110E+00   2.21076035E+02  -6.66178970E+01   2.19975952E+02  -7.68777466E+00   2.13170181E+02  -5.62872791E+00  -4.90850973E+00
             2691                3   2.20000000E+02   2.13281204E+02   2.13281204E+02  -5.85482597E+00  -7.57269907E+00   2.13281204E+02   2.13281204E+02  -5.85482597E+00  -7.57269907E+00   2.20853897E+02  -6.66178970E+01   2.19984894E+02  -5.84034920E+00   2.13266724E+02  -7.57269907E+00  -1.78118551E+00
             2691                4   2.20000000E+02   2.13280502E+02   2.13280502E+02  -7.65882540E+00  -5.76799774E+00   2.13280502E+02   2.13280502E+02  -5.76799774E+00  -7.65882540E+00   2.20939331E+02  -6.66178894E+01   2.19981735E+02  -7.64800453E+00   2.13269684E+02  -5.76799774E+00  -1.54577303E+00
             2692                1   2.20000000E+02   2.13693497E+02   2.13693497E+02  -6.30536461E+00  -6.30763197E+00   2.13693497E+02   2.13693497E+02  -6.30536461E+00  -6.30763197E+00   2.20001129E+02  -6.70268326E+01   2.20000000E+02  -5.87392616E+00   2.13262070E+02  -6.30763197E+00  -9.73285961E+00
             2692                2   2.20000000E+02   2.13680679E+02   2.13680679E+02  -7.98022032E+00  -4.61993408E+00   2.13680679E+02   2.13680679E+02  -4.61993408E+00  -7.98022032E+00   2.21660889E+02  -6.70268402E+01   2.19942245E+02  -7.60457325E+00   2.13305023E+02  -4.61993408E+00  -9.11735630E+00
             2692                3   2.20000000E+02   2.13693039E+02   2.13693039E+02  -5.98837185E+00  -6.62415314E+00   2.13693039E+02   2.13693039E+02  -5.98837185E+00  -6.62415314E+00   2.20317184E+02  -6.70268326E+01   2.19997925E+02  -5.79746103E+00   2.13502121E+02  -6.62415314E+00  -6.47336960E+00
             2692                4   2.20000000E+02   2.13684769E+02   2.13684769E+02  -7.68844223E+00  -4.91580725E+00   2.13684769E+02   2.13684769E+02  -4.91580725E+00  -7.68844223E+00   2.21373199E+02  -6.70268402E+01   2.19960663E+02  -7.52974463E+00   2.13526062E+02  -4.91580725E+00  -5.92514372E+00
             2693                1   2.20000000E+02   2.05535324E+02   2.05535324E+02  -2.84765415E+01   2.92074203E+00   2.05535324E+02   2.05535324E+02   2.92074203E+00  -2.84765415E+01   2.34011856E+02  -5.99931755E+01   2.14872665E+02  -2.72139072E+01   2.04272690E+02   2.92074203E+00  -1.71428108E+01
             2693                2   2.20000000E+02   2.05174088E+02   2.05174088E+02  -3.06309299E+01   5.43637753E+00   2.05174088E+02   2.05174088E+02   5.43637753E+00  -3.06309299E+01   2.35805008E+02  -5.99931755E+01   2.13195801E+02  -3.02626381E+01   2.04805786E+02   5.43637753E+00  -9.31182766E+00
             2693                3   2.20000000E+02   2.05870636E+02   2.05870636E+02  -2.61044521E+01   2.13323459E-01   2.05870636E+02   2.05870636E+02   2.13323459E-01  -2.61044521E+01   2.31975098E+02  -5.99931679E+01   2.16415985E+02  -2.57141514E+01   2.05480347E+02   2.13323459E-01  -9.50718403E+00
             2693                4   2.20000000E+02   2.05505585E+02   2.05505585E+02  -2.86670132E+01   3.14094090E+00   2.05505585E+02   2.05505585E+02   3.14094090E+00  -2.86670132E+01   2.34172607E+02  -5.99931755E+01   2.14735245E+02  -2.86552849E+01   2.05493866E+02   3.14094090E+00  -1.65691471E+00
             2694                1   2.20000000E+02   2.20786438E+02   2.20786438E+02   2.24910307E+00  -6.47631228E-01   2.20786438E+02   2.20786438E+02   2.24910307E+00  -6.47631228E-01   2.21434067E+02  -7.41293030E+01   2.19957077E+02   2.77990150E+00   2.20255630E+02  -6.47631228E-01  -1.07572660E+01
             2694                2   2.20000000E+02   2.20777130E+02   2.20777130E+02   2.84116054E+00  -1.23038924E+00   2.20777130E+02   2.20777130E+02   2.84116054E+00  -1.23038924E+00   2.22007507E+02  -7.41292953E+01   2.19915207E+02   3.37664652E+00   2.20241638E+02  -1.23038924E+00  -1.07895889E+01
             2694                3   2.20000000E+02   2.20785767E+02   2.20785767E+02   2.29847264E+00  -6.96355343E-01   2.20785767E+02   2.20785767E+02   2.29847264E+00  -6.96355343E-01   2.21482132E+02  -7.41292953E+01   2.19954132E+02   2.93668175E+00   2.20147568E+02  -6.96355343E-01  -1.17911854E+01
             2694                4   2.20000000E+02   2.20776566E+02   2.20776566E+02   2.87102747E+00  -1.25970769E+00   2.20776566E+02   2.20776566E+02   2.87102747E+00  -1.25970769E+00   2.22036285E+02  -7.41292953E+01   2.19912720E+02   3.51512313E+00   2.20132477E+02  -1.25970769E+00  -1.18294878E+01
             2695                1   2.20000000E+02   2.22690781E+02   2.22690781E+02  -1.02412140E+00   6.60409307E+00   2.22690781E+02   2.22690781E+02   6.60409307E+00  -1.02412140E+00   2.23714905E+02  -7.60902481E+01   2.19702148E+02  -7.33524024E-01   2.22400177E+02   6.60409307E+00  -8.05774784E+00
             2695                2   2.20000000E+02   2.22708817E+02   2.22708817E+02  -4.71427202E-01   6.03334618E+00   2.22708817E+02   2.22708817E+02   6.03334618E+00  -4.71427202E-01   2.23180252E+02  -7.60902481E+01   2.19783478E+02  -1.25733137E-01   2.22363129E+02   6.03334618E+00  -8.77682972E+00
             2695                3   2.20000000E+02   2.22678940E+02   2.22678940E+02  -1.34523237E+00   6.93702984E+00   2.22678940E+02   2.22678940E+02   6.93702984E+00  -1.34523237E+00   2.24024170E+02  -7.60902481E+01   2.19648819E+02  -9.69618142E-01   2.22303329E+02   6.93702984E+00  -9.16543579E+00
             2695                4   2.20000000E+02   2.22698364E+02   2.22698364E+02  -8.02357674E-01   6.37473440E+00   2.22698364E+02   2.22698364E+02   6.37473440E+00  -8.02357674E-01   2.23500732E+02  -7.60902481E+01   2.19736359E+02  -3.64000022E-01   2.22260010E+02   6.37473440E+00  -9.88845062E+00
             2696                1   2.20000000E+02   2.28505890E+02   2.28505890E+02  -8.99224663E+00   3.16801052E+01   2.28505890E+02   2.28505890E+02   3.16801052E+01  -8.99224663E+00   2.37498138E+02  -8.37312469E+01   2.11291534E+02  -8.93045712E+00   2.28444092E+02   3.16801052E+01  -3.83050036E+00
             2696                2   2.20000000E+02   2.28730469E+02   2.28730469E+02  -7.86689091E+00   3.03301697E+01   2.28730469E+02   2.28730469E+02   3.03301697E+01  -7.86689091E+00   2.36597351E+02  -8.37312469E+01   2.12346619E+02  -7.58917093E+00   2.28452744E+02   3.03301697E+01  -8.10125542E+00
             2696                3   2.20000000E+02   2.28233444E+02   2.28233444E+02  -1.02608089E+01   3.32210999E+01   2.28233444E+02   2.28233444E+02   3.32210999E+01  -1.02608089E+01   2.38494263E+02  -8.37312469E+01   2.10003250E+02  -1.00464134E+01   2.28019058E+02   3.32210999E+01  -7.14738607E+00
             2696                4   2.20000000E+02   2.28454742E+02   2.28454742E+02  -9.23791218E+00   3.19769192E+01   2.28454742E+02   2.28454742E+02   3.19769192E+01  -9.23791218E+00   2.37692657E+02  -8.37312469E+01   2.11050369E+02  -8.69014740E+00   2.27906967E+02   3.19769192E+01  -1.13974314E+01
             2697                1   2.20000000E+02   1.93630173E+02   1.93630173E+02  -3.03830376E+01  -2.21240387E+01   1.93630173E+02   1.93630173E+02  -2.21240387E+01  -3.03830376E+01   2.24013214E+02  -4.70410309E+01   2.19650803E+02  -3.01873264E+01   1.93434464E+02  -2.21240387E+01  -6.61834383E+00
             2697                2   2.20000000E+02   1.93691193E+02   1.93691193E+02  -2.81891499E+01  -2.43789482E+01   1.93691193E+02   1.93691193E+02  -2.43789482E+01  -2.81891499E+01   2.21880341E+02  -4.70410309E+01   2.19925735E+02  -2.78419418E+01   1.93343979E+02  -2.43789482E+01  -8.77038670E+00
             2697                3   2.20000000E+02   1.93587128E+02   1.93587128E+02  -3.13813744E+01  -2.10826492E+01   1.93587128E+02   1.93587128E+02  -2.10826492E+01  -3.13813744E+01   2.24968506E+02  -4.70410347E+01   2.19456650E+02  -3.08419533E+01   1.93047699E+02  -2.10826492E+01  -1.10028496E+01
             2697                4   2.20000000E+02   1.93665924E+02   1.93665924E+02  -2.93028831E+01  -2.32399445E+01   1.93665924E+02   1.93665924E+02  -2.32399445E+01  -2.93028831E+01   2.22968811E+02  -4.70410309E+01   2.19811920E+02  -2.85129375E+01   1.92875977E+02  -2.32399445E+01  -1.32479744E+01
             2698                1   2.20000000E+02   2.25904556E+02   2.25904556E+02  -4.63518590E-01   1.28800611E+01   2.25904556E+02   2.25904556E+02   1.28800611E+01  -4.63518590E-01   2.26368073E+02  -7.94403687E+01   2.19086761E+02  -3.27089816E-01   2.25768127E+02   1.28800611E+01  -5.55563259E+00
             2698                2   2.20000000E+02   2.25933517E+02   2.25933517E+02   1.72253605E-02   1.23703489E+01   2.25933517E+02   2.25933517E+02   1.23703489E+01   1.72253605E-02   2.25916290E+02  -7.94403610E+01   2.19217651E+02   2.17733994E-01   2.25733017E+02   1.23703489E+01  -6.72729778E+00
             2698                3   2.20000000E+02   2.25872955E+02   2.25872955E+02  -9.49189126E-01   1.33973274E+01   2.25872955E+02   2.25872955E+02   1.33973274E+01  -9.49189126E-01   2.26822144E+02  -7.94403610E+01   2.18943848E+02  -7.58186698E-01   2.25681961E+02   1.33973274E+01  -6.57916832E+00
             2698                4   2.20000000E+02   2.25903442E+02   2.25903442E+02  -4.81411755E-01   1.28990688E+01   2.25903442E+02   2.25903442E+02   1.28990688E+01  -4.81411755E-01   2.26384857E+02  -7.94403610E+01   2.19081711E+02  -2.15875715E-01   2.25637909E+02   1.28990688E+01  -7.74864864E+00
             2699                1   2.20000000E+02   2.13178543E+02   2.13178543E+02  -5.91328812E+00  -7.71851206E+00   2.13178543E+02   2.13178543E+02  -5.91328812E+00  -7.71851206E+00   2.20897064E+02  -6.65155869E+01   2.19983322E+02  -5.88739300E+00   2.13152649E+02  -7.71851206E+00  -2.38188648E+00
             2699                2   2.20000000E+02   2.13178467E+02   2.13178467E+02  -7.72761297E+00  -5.90411663E+00   2.13178467E+02   2.13178467E+02  -5.90411663E+00  -7.72761297E+00   2.20906082E+02  -6.65155792E+01   2.19982986E+02  -7.70460320E+00   2.13155457E+02  -5.90411663E+00  -2.25433993E+00
             2699                3   2.20000000E+02   2.13178162E+02   2.13178162E+02  -5.86717081E+00  -7.76425028E+00   2.13178162E+02   2.13178162E+02  -5.86717081E+00  -7.76425028E+00   2.20942413E+02  -6.65155792E+01   2.19981598E+02  -5.86178160E+00   2.13172775E+02  -7.76425028E+00   1.08606803E+00
             2699                4   2.20000000E+02   2.13178818E+02   2.13178818E+02  -7.68536139E+00  -5.94670677E+00   2.13178818E+02   2.13178818E+02  -5.94670677E+00  -7.68536139E+00   2.20864182E+02  -6.65155869E+01   2.19984543E+02  -7.67953777E+00   2.13172989E+02  -5.94670677E+00   1.13440084E+00
             2700                1   2.20000000E+02   2.18239777E+02   2.18239777E+02  -1.26256618E+01   1.10145655E+01   2.18239777E+02   2.18239777E+02   1.10145655E+01  -1.26256618E+01   2.30865448E+02  -7.22095642E+01   2.17114853E+02  -1.23899975E+01   2.18004120E+02   1.10145655E+01  -7.37230539E+00
             2700                2   2.20000000E+02   2.18401001E+02   2.18401001E+02  -1.11027451E+01   9.33042526E+00   2.18401001E+02   2.18401001E+02   9.33042526E+00  -1.11027451E+01   2.29503754E+02  -7.22095642E+01   2.17849792E+02  -1.04859228E+01   2.17784180E+02   9.33042526E+00  -1.18820887E+01
             2700                3   2.20000000E+02   2.18074448E+02   2.18074448E+02  -1.39860487E+01   1.25402927E+01   2.18074448E+02   2.18074448E+02   1.25402927E+01  -1.39860487E+01   2.32060486E+02  -7.22095642E+01   2.16358246E+02  -1.33846722E+01   2.17473068E+02   1.25402927E+01  -1.17980347E+01
             2700                4   2.20000000E+02   2.18246964E+02   2.18246964E+02  -1.25625191E+01   1.09442368E+01   2.18246964E+02   2.18246964E+02   1.09442368E+01  -1.25625191E+01   2.30809494E+02  -7.22095642E+01   2.17147659E+02  -1.13812962E+01   2.17065750E+02   1.09442368E+01  -1.64693947E+01
             2701                1   2.20000000E+02   2.18069992E+02   2.18069992E+02  -3.25430131E+00  -5.81367254E-01   2.18069992E+02   2.18069992E+02  -5.81367254E-01  -3.25430131E+00   2.21324295E+02  -7.14114456E+01   2.19963455E+02  -2.98967290E+00   2.17805359E+02  -5.81367254E-01  -7.64848614E+00
             2701                2   2.20000000E+02   2.18077957E+02   2.18077957E+02  -1.74759507E+00  -2.09606290E+00   2.18077957E+02   2.18077957E+02  -1.74759507E+00  -2.09606290E+00   2.20174026E+02  -7.14114304E+01   2.19999390E+02  -1.44925916E+00   2.17779633E+02  -2.09606290E+00  -8.09269333E+00
             2701                3   2.20000000E+02   2.18066742E+02   2.18066742E+02  -3.49774075E+00  -3.34677845E-01   2.18066742E+02   2.18066742E+02  -3.34677845E-01  -3.49774075E+00   2.21564484E+02  -7.14114456E+01   2.19948822E+02  -3.00222993E+00   2.17571228E+02  -3.34677845E-01  -1.04662580E+01
             2701                4   2.20000000E+02   2.18078064E+02   2.18078064E+02  -2.00945950E+00  -1.83428991E+00   2.18078064E+02   2.18078064E+02  -1.83428991E+00  -2.00945950E+00   2.20087524E+02  -7.14114380E+01   2.19999832E+02  -1.46199667E+00   2.17530594E+02  -1.83428991E+00  -1.09631844E+01
             2702                1   2.20000000E+02   2.30381699E+02   2.30381699E+02   1.49586611E+01   6.07394266E+00   2.30381699E+02   2.30381699E+02   1.49586611E+01   6.07394266E+00   2.24307755E+02  -8.38047714E+01   2.19595795E+02   1.50377331E+01   2.30302628E+02   6.07394266E+00  -4.12652254E+00
             2702                2   2.20000000E+02   2.30375702E+02   2.30375702E+02   1.51080666E+01   5.93054724E+00   2.30375702E+02   2.30375702E+02   1.51080666E+01   5.93054724E+00   2.24445145E+02  -8.38047714E+01   2.19568695E+02   1.51482239E+01   2.30335541E+02   5.93054724E+00  -2.93987799E+00
             2702                3   2.20000000E+02   2.30365036E+02   2.30365036E+02   1.53619423E+01   5.68732262E+00   2.30365036E+02   2.30365036E+02   1.53619423E+01   5.68732262E+00   2.24677704E+02  -8.38047638E+01   2.19520630E+02   1.54711523E+01   2.30255829E+02   5.68732262E+00  -4.84429836E+00
             2702                4   2.20000000E+02   2.30356598E+02   2.30356598E+02   1.55541964E+01   5.50351572E+00   2.30356598E+02   2.30356598E+02   1.55541964E+01   5.50351572E+00   2.24853088E+02  -8.38047714E+01   2.19482559E+02   1.56185713E+01   2.30292221E+02   5.50351572E+00  -3.71816087E+00
             2703                1   2.20000000E+02   1.94379135E+02   1.94379135E+02  -4.29745331E+01  -2.70323658E+00   1.94379135E+02   1.94379135E+02  -2.70323658E+00  -4.29745331E+01   2.37353668E+02  -4.95671234E+01   2.11467529E+02  -4.28822250E+01   1.94286835E+02  -2.70323658E+00  -4.67964554E+00
             2703                2   2.20000000E+02   1.94817719E+02   1.94817719E+02  -4.06658974E+01  -5.45045519E+00   1.94817719E+02   1.94817719E+02  -5.45045519E+00  -4.06658974E+01   2.35483627E+02  -4.95671234E+01   2.13520493E+02  -4.06397018E+01   1.94791534E+02  -5.45045519E+00   2.48322368E+00
             2703                3   2.20000000E+02   1.94807037E+02   1.94807037E+02  -4.07265205E+01  -5.37914658E+00   1.94807037E+02   1.94807037E+02  -5.37914658E+00  -4.07265205E+01   2.35533569E+02  -4.95671234E+01   2.13470764E+02  -4.00909081E+01   1.94171432E+02  -5.37914658E+00  -1.22189693E+01
             2703                4   2.20000000E+02   1.95257629E+02   1.95257629E+02  -3.79082909E+01  -8.64796734E+00   1.95257629E+02   1.95257629E+02  -8.64796734E+00  -3.79082909E+01   2.33165909E+02  -4.95671234E+01   2.15557037E+02  -3.77839165E+01   1.95133255E+02  -8.64796734E+00  -5.38360214E+00
             2704                1   2.20000000E+02   2.08199081E+02   2.08199081E+02  -1.10822897E+01  -1.25125847E+01   2.08199081E+02   2.08199081E+02  -1.10822897E+01  -1.25125847E+01   2.20711670E+02  -6.15347328E+01   2.19989548E+02  -1.09431162E+01   2.08059906E+02  -1.25125847E+01  -5.52258110E+00
             2704                2   2.20000000E+02   2.08194733E+02   2.08194733E+02  -1.30059128E+01  -1.05846195E+01   2.08194733E+02   2.08194733E+02  -1.05846195E+01  -1.30059128E+01   2.21200653E+02  -6.15347328E+01   2.19970016E+02  -1.28868160E+01   2.08075638E+02  -1.05846195E+01  -5.13140059E+00
             2704                3   2.20000000E+02   2.08197693E+02   2.08197693E+02  -1.08928013E+01  -1.27006817E+01   2.08197693E+02   2.08197693E+02  -1.08928013E+01  -1.27006817E+01   2.20898361E+02  -6.15347328E+01   2.19983292E+02  -1.08780689E+01   2.08182953E+02  -1.27006817E+01  -1.79662502E+00
             2704                4   2.20000000E+02   2.08196503E+02   2.08196503E+02  -1.28333912E+01  -1.07589121E+01   2.08196503E+02   2.08196503E+02  -1.07589121E+01  -1.28333912E+01   2.21029892E+02  -6.15347328E+01   2.19977982E+02  -1.28232794E+01   2.08186386E+02  -1.07589121E+01  -1.49543810E+00
             2705                1   2.20000000E+02   2.08608734E+02   2.08608734E+02  -1.10900736E+01  -1.16912079E+01   2.08608734E+02   2.08608734E+02  -1.10900736E+01  -1.16912079E+01   2.20299942E+02  -6.19424858E+01   2.19998138E+02  -1.07954569E+01   2.08314117E+02  -1.16912079E+01  -8.03992367E+00
             2705                2   2.20000000E+02   2.08597839E+02   2.08597839E+02  -1.29628649E+01  -9.80751228E+00   2.08597839E+02   2.08597839E+02  -9.80751228E+00  -1.29628649E+01   2.21560715E+02  -6.19424896E+01   2.19949081E+02  -1.27150593E+01   2.08350037E+02  -9.80751228E+00  -7.40561152E+00
             2705                3   2.20000000E+02   2.08607407E+02   2.08607407E+02  -1.07689981E+01  -1.20109510E+01   2.08607407E+02   2.08607407E+02  -1.07689981E+01  -1.20109510E+01   2.20618362E+02  -6.19424858E+01   2.19992126E+02  -1.06814804E+01   2.08519897E+02  -1.20109510E+01  -4.38062716E+00
             2705                4   2.20000000E+02   2.08601669E+02   2.08601669E+02  -1.26701021E+01  -1.01041136E+01   2.08601669E+02   2.08601669E+02  -1.01041136E+01  -1.26701021E+01   2.21271774E+02  -6.19424858E+01   2.19966324E+02  -1.26037397E+01   2.08535309E+02  -1.01041136E+01  -3.83127594E+00
             2706                1   2.20000000E+02   2.23368652E+02   2.23368652E+02   6.59476900E+00   2.78575003E-01   2.23368652E+02   2.23368652E+02   6.59476900E+00   2.78575003E-01   2.23090088E+02  -7.67473373E+01   2.19795853E+02   7.04591990E+00   2.22917511E+02   2.78575003E-01  -9.87890720E+00
             2706                2   2.20000000E+02   2.23357117E+02   2.23357117E+02   6.97974634E+00  -9.48508903E-02   2.23357117E+02   2.23357117E+02   6.97974634E+00  -9.48508903E-02   2.23451965E+02  -7.67473373E+01   2.19743851E+02   7.45478773E+00   2.22882080E+02  -9.48508903E-02  -1.01273232E+01
             2706                3   2.20000000E+02   2.23368759E+02   2.23368759E+02   6.59139538E+00   2.81862408E-01   2.23368759E+02   2.23368759E+02   6.59139538E+00   2.81862408E-01   2.23086899E+02  -7.67473373E+01   2.19796295E+02   7.11144686E+00   2.22848709E+02   2.81862408E-01  -1.06049824E+01
             2706                4   2.20000000E+02   2.23357224E+02   2.23357224E+02   6.97641850E+00  -9.16281193E-02   2.23357224E+02   2.23357224E+02   6.97641850E+00  -9.16281193E-02   2.23448853E+02  -7.67473373E+01   2.19744324E+02   7.52256727E+00   2.22811081E+02  -9.16281193E-02  -1.08571625E+01
             2707                1   2.20000000E+02   2.24181717E+02   2.24181717E+02  -1.63539433E+00   1.05012684E+01   2.24181717E+02   2.24181717E+02   1.05012684E+01  -1.63539433E+00   2.25817108E+02  -7.76825333E+01   2.19244904E+02  -1.37435281E+00   2.23920685E+02   1.05012684E+01  -7.67320490E+00
             2707                2   2.20000000E+02   2.24213699E+02   2.24213699E+02  -1.04170632E+00   9.87560368E+00   2.24213699E+02   2.24213699E+02   9.87560368E+00  -1.04170632E+00   2.25255417E+02  -7.76825333E+01   2.19389297E+02  -6.90881789E-01   2.23862885E+02   9.87560368E+00  -8.88261127E+00
             2707                3   2.20000000E+02   2.24151382E+02   2.24151382E+02  -2.14657927E+00   1.10427980E+01   2.24151382E+02   2.24151382E+02   1.10427980E+01  -2.14657927E+00   2.26297958E+02  -7.76825333E+01   2.19107819E+02  -1.79427004E+00   2.23799072E+02   1.10427980E+01  -8.92209053E+00
             2707                4   2.20000000E+02   2.24185394E+02   2.24185394E+02  -1.57028103E+00   1.04324875E+01   2.24185394E+02   2.24185394E+02   1.04324875E+01  -1.57028103E+00   2.25755676E+02  -7.76825333E+01   2.19261490E+02  -1.11477935E+00   2.23729889E+02   1.04324875E+01  -1.01304111E+01
             2708                1   2.20000000E+02   2.09137665E+02   2.09137665E+02  -1.11147346E+01  -1.06090412E+01   2.09137665E+02   2.09137665E+02  -1.06090412E+01  -1.11147346E+01   2.20252411E+02  -6.24712982E+01   2.19998688E+02  -1.06386900E+01   2.08661621E+02  -1.06090412E+01  -1.02285891E+01
             2708                2   2.20000000E+02   2.09118973E+02   2.09118973E+02  -1.28967447E+01  -8.80833244E+00   2.09118973E+02   2.09118973E+02  -8.80833244E+00  -1.28967447E+01   2.22015717E+02  -6.24712982E+01   2.19914505E+02  -1.24962130E+01   2.08718445E+02  -8.80833244E+00  -9.42142391E+00
             2708                3   2.20000000E+02   2.09137848E+02   2.09137848E+02  -1.07013988E+01  -1.10225544E+01   2.09137848E+02   2.09137848E+02  -1.07013988E+01  -1.10225544E+01   2.20160400E+02  -6.24712982E+01   2.19999466E+02  -1.04963064E+01   2.08932755E+02  -1.10225544E+01  -6.71155691E+00
             2708                4   2.20000000E+02   2.09125397E+02   2.09125397E+02  -1.25185127E+01  -9.19298458E+00   2.09125397E+02   2.09125397E+02  -9.19298458E+00  -1.25185127E+01   2.21643921E+02  -6.24713020E+01   2.19943436E+02  -1.23570137E+01   2.08963898E+02  -9.19298458E+00  -5.98081064E+00
             2709                1   2.20000000E+02   2.13991531E+02   2.13991531E+02  -7.70839405E+00  -4.26817274E+00   2.13991531E+02   2.13991531E+02  -4.26817274E+00  -7.70839405E+00   2.21699936E+02  -6.73383255E+01   2.19939468E+02  -7.43264818E+00   2.13715790E+02  -4.26817274E+00  -7.81389236E+00
             2709                2   2.20000000E+02   2.14004929E+02   2.14004929E+02  -6.10629368E+00  -5.88367033E+00   2.14004929E+02   2.14004929E+02  -5.88367033E+00  -6.10629368E+00   2.20111221E+02  -6.73383255E+01   2.19999741E+02  -5.78017855E+00   2.13678818E+02  -5.88367033E+00  -8.46608067E+00
             2709                3   2.20000000E+02   2.13985641E+02   2.13985641E+02  -8.04841423E+00  -3.92225504E+00   2.13985641E+02   2.13985641E+02  -3.92225504E+00  -8.04841423E+00   2.22034058E+02  -6.73383255E+01   2.19912918E+02  -7.51766920E+00   2.13454895E+02  -3.92225504E+00  -1.08425865E+01
             2709                4   2.20000000E+02   2.14003937E+02   2.14003937E+02  -6.47414017E+00  -5.51483250E+00   2.14003937E+02   2.14003937E+02  -5.51483250E+00  -6.47414017E+00   2.20478088E+02  -6.73383255E+01   2.19995285E+02  -5.86700249E+00   2.13396805E+02  -5.51483250E+00  -1.15538530E+01
             2710                1   2.20000000E+02   2.10020752E+02   2.10020752E+02  -2.79009304E+01   1.39564114E+01   2.10020752E+02   2.10020752E+02   1.39564114E+01  -2.79009304E+01   2.37921692E+02  -6.53587418E+01   2.10760086E+02  -2.78978882E+01   2.10017715E+02   1.39564114E+01  -8.50881994E-01
             2710                2   2.20000000E+02   2.09354965E+02   2.09354965E+02  -3.07671127E+01   1.74883804E+01   2.09354965E+02   2.09354965E+02   1.74883804E+01  -3.07671127E+01   2.40122086E+02  -6.53587418E+01   2.07585648E+02  -2.95617657E+01   2.08149628E+02   1.74883804E+01  -1.69698887E+01
             2710                3   2.20000000E+02   2.09112564E+02   2.09112564E+02  -3.17067165E+01   1.86703968E+01   2.09112564E+02   2.09112564E+02   1.86703968E+01  -3.17067165E+01   2.40819290E+02  -6.53587494E+01   2.06415436E+02  -3.11288910E+01   2.08534744E+02   1.86703968E+01   1.17820950E+01
             2710                4   2.20000000E+02   2.08572708E+02   2.08572708E+02  -3.36463280E+01   2.11498661E+01   2.08572708E+02   2.08572708E+02   2.11498661E+01  -3.36463280E+01   2.42219025E+02  -6.53587494E+01   2.03780212E+02  -3.35783195E+01   2.08504700E+02   2.11498661E+01  -4.05796671E+00
             2711                1   2.20000000E+02   2.08011856E+02   2.08011856E+02  -1.10105753E+01  -1.29528475E+01   2.08011856E+02   2.08011856E+02  -1.10105753E+01  -1.29528475E+01   2.20964706E+02  -6.13494759E+01   2.19980713E+02  -1.09806871E+01   2.07981964E+02  -1.29528475E+01  -2.55859852E+00
             2711                2   2.20000000E+02   2.08011673E+02   2.08011673E+02  -1.29726772E+01  -1.09905748E+01   2.08011673E+02   2.08011673E+02  -1.09905748E+01  -1.29726772E+01   2.20984360E+02  -6.13494759E+01   2.19979904E+02  -1.29473553E+01   2.07986359E+02  -1.09905748E+01  -2.36532044E+00
             2711                3   2.20000000E+02   2.08011169E+02   2.08011169E+02  -1.09345369E+01  -1.30281963E+01   2.08011169E+02   2.08011169E+02  -1.09345369E+01  -1.30281963E+01   2.21039368E+02  -6.13494759E+01   2.19977585E+02  -1.09277353E+01   2.08004364E+02  -1.30281963E+01   1.22035432E+00
             2711                4   2.20000000E+02   2.08012283E+02   2.08012283E+02  -1.29035664E+01  -1.10602856E+01   2.08012283E+02   2.08012283E+02  -1.10602856E+01  -1.29035664E+01   2.20915848E+02  -6.13494759E+01   2.19982620E+02  -1.28956785E+01   2.08004395E+02  -1.10602856E+01   1.32027125E+00
             2712                1   2.20000000E+02   2.27995544E+02   2.27995544E+02  -6.31915390E-01   1.77802467E+01   2.27995544E+02   2.27995544E+02   1.77802467E+01  -6.31915390E-01   2.28627457E+02  -8.17146225E+01   2.18256454E+02  -5.17462730E-01   2.27881088E+02   1.77802467E+01  -5.11423922E+00
             2712                2   2.20000000E+02   2.28042297E+02   2.28042297E+02  -8.00450295E-02   1.71816120E+01   2.28042297E+02   2.28042297E+02   1.71816120E+01  -8.00450295E-02   2.28122345E+02  -8.17146225E+01   2.18468613E+02   1.19340256E-01   2.27842911E+02   1.71816120E+01  -6.74123096E+00
             2712                3   2.20000000E+02   2.27937607E+02   2.27937607E+02  -1.26903403E+00   1.84752884E+01   2.27937607E+02   2.27937607E+02   1.84752884E+01  -1.26903403E+00   2.29206650E+02  -8.17146225E+01   2.17993286E+02  -1.09276319E+00   2.27761337E+02   1.84752884E+01  -6.35393810E+00
             2712                4   2.20000000E+02   2.27986221E+02   2.27986221E+02  -7.37877607E-01   1.78955460E+01   2.27986221E+02   2.27986221E+02   1.78955460E+01  -7.37877607E-01   2.28724091E+02  -8.17146301E+01   2.18214035E+02  -4.59600776E-01   2.27707932E+02   1.78955460E+01  -7.97324038E+00
             2713                1   2.20000000E+02   2.07971954E+02   2.07971954E+02  -2.24930935E+01   1.95418671E-01   2.07971954E+02   2.07971954E+02   1.95418671E-01  -2.24930935E+01   2.30465057E+02  -6.18914299E+01   2.17344498E+02  -2.23089638E+01   2.07787827E+02   1.95418671E-01  -6.51170778E+00
             2713                2   2.20000000E+02   2.08165848E+02   2.08165848E+02  -2.05290909E+01  -1.96246397E+00   2.08165848E+02   2.08165848E+02  -1.96246397E+00  -2.05290909E+01   2.28694931E+02  -6.18914299E+01   2.18226898E+02  -1.99473019E+01   2.07584045E+02  -1.96246397E+00  -1.15202074E+01
             2713                3   2.20000000E+02   2.07782349E+02   2.07782349E+02  -2.41005573E+01   1.99248457E+00   2.07782349E+02   2.07782349E+02   1.99248457E+00  -2.41005573E+01   2.31882904E+02  -6.18914223E+01   2.16477646E+02  -2.34608917E+01   2.07142685E+02   1.99248457E+00  -1.21621675E+01
             2713                4   2.20000000E+02   2.07986176E+02   2.07986176E+02  -2.23620415E+01   5.01427613E-02   2.07986176E+02   2.07986176E+02   5.01427613E-02  -2.23620415E+01   2.30348221E+02  -6.18914223E+01   2.17409348E+02  -2.10735741E+01   2.06697708E+02   5.01427613E-02  -1.71795025E+01
             2714                1   2.20000000E+02   1.74958008E+02   1.74958008E+02  -4.79935112E+01  -4.19666481E+01   1.74958008E+02   1.74958008E+02  -4.19666481E+01  -4.79935112E+01   2.22951508E+02  -2.83326168E+01   2.19814148E+02  -4.74691010E+01   1.74433594E+02  -4.19666481E+01  -1.08001308E+01
             2714                2   2.20000000E+02   1.74849686E+02   1.74849686E+02  -5.06612053E+01  -3.91906433E+01   1.74849686E+02   1.74849686E+02  -3.91906433E+01  -5.06612053E+01   2.25510895E+02  -2.83326111E+01   2.19325684E+02  -5.03973656E+01   1.74585846E+02  -3.91906433E+01  -7.70899343E+00
             2714                3   2.20000000E+02   1.74989716E+02   1.74989716E+02  -4.64455948E+01  -4.35462914E+01   1.74989716E+02   1.74989716E+02  -4.35462914E+01  -4.64455948E+01   2.21435318E+02  -2.83326111E+01   2.19957001E+02  -4.63354530E+01   1.74879578E+02  -4.35462914E+01  -4.93736458E+00
             2714                4   2.20000000E+02   1.74913254E+02   1.74913254E+02  -4.93076477E+01  -4.06077576E+01   1.74913254E+02   1.74913254E+02  -4.06077576E+01  -4.93076477E+01   2.24220901E+02  -2.83326168E+01   2.19612473E+02  -4.92899590E+01   1.74895569E+02  -4.06077576E+01  -1.99124336E+00
             2715                1   2.20000000E+02   1.93350388E+02   1.93350388E+02  -4.42526283E+01  -3.28816581E+00   1.93350388E+02   1.93350388E+02  -3.28816581E+00  -4.42526283E+01   2.37603012E+02  -4.86031990E+01   2.11162140E+02  -4.41935425E+01   1.93291306E+02  -3.28816581E+00  -3.74638557E+00
             2715                2   2.19999985E+02   1.93822937E+02   1.93822937E+02  -4.18042259E+01  -6.20911932E+00   1.93822937E+02   1.93822937E+02  -6.20911932E+00  -4.18042259E+01   2.35627151E+02  -4.86031952E+01   2.13376801E+02  -4.17606544E+01   1.93779358E+02  -6.20911932E+00   3.20397282E+00
             2715                3   2.20000000E+02   1.93784470E+02   1.93784470E+02  -4.20188026E+01  -5.95608616E+00   1.93784470E+02   1.93784470E+02  -5.95608616E+00  -4.20188026E+01   2.35803284E+02  -4.86031952E+01   2.13197556E+02  -4.14917564E+01   1.93257431E+02  -5.95608616E+00  -1.11355734E+01
             2715                4   2.20000000E+02   1.94244263E+02   1.94244263E+02  -3.92121277E+01  -9.22254848E+00   1.94244263E+02   1.94244263E+02  -9.22254848E+00  -3.92121277E+01   2.33456390E+02  -4.86031952E+01   2.15329269E+02  -3.91401024E+01   1.94172241E+02  -9.22254848E+00  -4.09983110E+00
             2716                1   2.20000000E+02   2.17224350E+02   2.17224350E+02  -2.49221878E+01   2.96394634E+01   2.17224350E+02   2.17224350E+02   2.96394634E+01  -2.49221878E+01   2.42146530E+02  -7.39805374E+01   2.03926987E+02  -2.46966286E+01   2.16998779E+02   2.96394634E+01   7.38705444E+00
             2716                2   2.20000000E+02   2.17978333E+02   2.17978333E+02  -2.21390553E+01   2.61023197E+01   2.17978333E+02   2.17978333E+02   2.61023197E+01  -2.21390553E+01   2.40117386E+02  -7.39805374E+01   2.07593216E+02  -2.21060753E+01   2.17945358E+02   2.61023197E+01  -2.81375861E+00
             2716                3   2.20000000E+02   2.16610016E+02   2.16610016E+02  -2.69307976E+01   3.22624054E+01   2.16610016E+02   2.16610016E+02   3.22624054E+01  -2.69307976E+01   2.43540802E+02  -7.39805374E+01   2.00879654E+02  -2.68896999E+01   2.16568909E+02   3.22624054E+01  -3.16362810E+00
             2716                4   2.20000000E+02   2.17288879E+02   2.17288879E+02  -2.46990261E+01   2.93517513E+01   2.17288879E+02   2.17288879E+02   2.93517513E+01  -2.46990261E+01   2.41987915E+02  -7.39805374E+01   2.04243942E+02  -2.39521809E+01   2.16542038E+02   2.93517513E+01  -1.34227409E+01
             2717                1   2.20000000E+02   2.22596298E+02   2.22596298E+02  -2.74768519E+00   8.36119366E+00   2.22596298E+02   2.22596298E+02   8.36119366E+00  -2.74768519E+00   2.25343994E+02  -7.60699387E+01   2.19367630E+02  -2.35427880E+00   2.22202896E+02   8.36119366E+00  -9.40728664E+00
             2717                2   2.20000000E+02   2.22631958E+02   2.22631958E+02  -2.00834632E+00   7.58619070E+00   2.22631958E+02   2.22631958E+02   7.58619070E+00  -2.00834632E+00   2.24640305E+02  -7.60699387E+01   2.19528534E+02  -1.51133072E+00   2.22134949E+02   7.58619070E+00  -1.05546789E+01
             2717                3   2.20000000E+02   2.22569595E+02   2.22569595E+02  -3.23962998E+00   8.87984562E+00   2.22569595E+02   2.22569595E+02   8.87984562E+00  -3.23962998E+00   2.25809235E+02  -7.60699387E+01   2.19247040E+02  -2.70778227E+00   2.22037750E+02   8.87984562E+00  -1.09459591E+01
             2717                4   2.20000000E+02   2.22608047E+02   2.22608047E+02  -2.51616955E+00   8.11793041E+00   2.22608047E+02   2.22608047E+02   8.11793041E+00  -2.51616955E+00   2.25124207E+02  -7.60699387E+01   2.19420624E+02  -1.86322987E+00   2.21955109E+02   8.11793041E+00  -1.21064005E+01
             2718                1   2.20000000E+02   1.87127747E+02   1.87127747E+02  -3.22165337E+01  -3.35221786E+01   1.87127747E+02   1.87127747E+02  -3.22165337E+01  -3.35221786E+01   2.20649918E+02  -4.04630089E+01   2.19991287E+02  -3.20276985E+01   1.86938904E+02  -3.35221786E+01  -6.43311119E+00
             2718                2   2.20000000E+02   1.87114426E+02   1.87114426E+02  -3.46940498E+01  -3.10313663E+01   1.87114426E+02   1.87114426E+02  -3.10313663E+01  -3.46940498E+01   2.21808472E+02  -4.04630051E+01   2.19931396E+02  -3.45552139E+01   1.86975601E+02  -3.10313663E+01  -5.54740143E+00
             2718                3   2.20000000E+02   1.87124268E+02   1.87124268E+02  -3.17767200E+01  -3.39585228E+01   1.87124268E+02   1.87124268E+02  -3.17767200E+01  -3.39585228E+01   2.21082794E+02  -4.04630089E+01   2.19975662E+02  -3.17668438E+01   1.87114395E+02  -3.39585228E+01  -1.47020233E+00
             2718                4   2.20000000E+02   1.87120270E+02   1.87120270E+02  -3.43039665E+01  -3.14272842E+01   1.87120270E+02   1.87120270E+02  -3.14272842E+01  -3.43039665E+01   2.21424225E+02  -4.04630051E+01   2.19957672E+02  -3.43015251E+01   1.87117828E+02  -3.14272842E+01  -7.34571874E-01
             2719                1   2.20000000E+02   2.22799210E+02   2.22799210E+02  -1.07791586E+01   1.95180798E+01   2.22799210E+02   2.22799210E+02   1.95180798E+01  -1.07791586E+01   2.33578369E+02  -7.71793747E+01   2.15231354E+02  -1.00300503E+01   2.22050095E+02   1.95180798E+01  -1.32066498E+01
             2719                2   2.20000000E+02   2.22644592E+02   2.22644592E+02  -1.17777319E+01   2.06712570E+01   2.22644592E+02   2.22644592E+02   2.06712570E+01  -1.17777319E+01   2.34422333E+02  -7.71793747E+01   2.14516891E+02  -1.13568249E+01   2.22223694E+02   2.06712570E+01  -9.92433739E+00
             2719                3   2.20000000E+02   2.22986923E+02   2.22986923E+02  -9.45223618E+00   1.80034409E+01   2.22986923E+02   2.22986923E+02   1.80034409E+01  -9.45223618E+00   2.32439148E+02  -7.71793747E+01   2.16095200E+02  -9.01092243E+00   2.22545609E+02   1.80034409E+01  -1.01184521E+01
             2719                4   2.20000000E+02   2.22825378E+02   2.22825378E+02  -1.06024446E+01   1.93151951E+01   2.22825378E+02   2.22825378E+02   1.93151951E+01  -1.06024446E+01   2.33427826E+02  -7.71793747E+01   2.15351990E+02  -1.04140110E+01   2.22636948E+02   1.93151951E+01  -6.62938547E+00
             2720                1   2.20000000E+02   1.77298340E+02   1.77298340E+02  -5.53094025E+01  -2.74375820E+01   1.77298340E+02   1.77298340E+02  -2.74375820E+01  -5.53094025E+01   2.32607742E+02  -3.15171185E+01   2.15974289E+02  -5.52484894E+01   1.77237427E+02  -2.74375820E+01  -3.76360822E+00
             2720                2   2.20000000E+02   1.77596024E+02   1.77596024E+02  -5.28822098E+01  -3.01624622E+01   1.77596024E+02   1.77596024E+02  -3.01624622E+01  -5.28822098E+01   2.30478241E+02  -3.15171204E+01   2.17337112E+02  -5.28489723E+01   1.77562790E+02  -3.01624622E+01   2.76766872E+00
             2720                3   2.20000000E+02   1.77616364E+02   1.77616364E+02  -5.26946640E+01  -3.03703232E+01   1.77616364E+02   1.77616364E+02  -3.03703232E+01  -5.26946640E+01   2.30311020E+02  -3.15171223E+01   2.17429794E+02  -5.22577248E+01   1.77179413E+02  -3.03703232E+01  -1.00220795E+01
             2720                4   2.20000000E+02   1.77875565E+02   1.77875565E+02  -4.98924637E+01  -3.34317398E+01   1.77875565E+02   1.77875565E+02  -3.34317398E+01  -4.98924637E+01   2.27768036E+02  -3.15171204E+01   2.18608078E+02  -4.98395920E+01   1.77822693E+02  -3.34317398E+01  -3.46971536E+00
             2721                1   2.20000000E+02   2.02655090E+02   2.02655090E+02  -1.83998222E+01  -1.62746220E+01   2.02655090E+02   2.02655090E+02  -1.62746220E+01  -1.83998222E+01   2.21054916E+02  -5.59935455E+01   2.19976913E+02  -1.83723259E+01   2.02627594E+02  -1.62746220E+01  -2.46509266E+00
             2721                2   2.20000000E+02   2.02655762E+02   2.02655762E+02  -1.83283329E+01  -1.63467751E+01   2.02655762E+02   2.02655762E+02  -1.63467751E+01  -1.83283329E+01   2.20984085E+02  -5.59935493E+01   2.19979919E+02  -1.83180294E+01   2.02645447E+02  -1.63467751E+01   1.50931466E+00
             2721                3   2.20000000E+02   2.02655273E+02   2.02655273E+02  -1.62942200E+01  -1.83804073E+01   2.02655273E+02   2.02655273E+02  -1.62942200E+01  -1.83804073E+01   2.21035675E+02  -5.59935493E+01   2.19977737E+02  -1.62616425E+01   2.02622696E+02  -1.83804073E+01  -2.67055321E+00
             2721                4   2.20000000E+02   2.02654495E+02   2.02654495E+02  -1.62150726E+01  -1.84587803E+01   2.02654495E+02   2.02654495E+02  -1.62150726E+01  -1.84587803E+01   2.21113281E+02  -5.59935455E+01   2.19974258E+02  -1.62059631E+01   2.02645386E+02  -1.84587803E+01   1.41199577E+00
             2722                1   2.20000000E+02   2.22766479E+02   2.22766479E+02   3.45687222E+00   2.08254790E+00   2.22766479E+02   2.22766479E+02   3.45687222E+00   2.08254790E+00   2.20683945E+02  -7.61019669E+01   2.19990326E+02   3.54865789E+00   2.22674698E+02   2.08254790E+00  -4.48570538E+00
             2722                2   2.20000000E+02   2.22765549E+02   2.22765549E+02   1.94711018E+00   3.59323573E+00   2.22765549E+02   2.22765549E+02   3.59323573E+00   1.94711018E+00   2.20818436E+02  -7.61019669E+01   2.19986145E+02   2.03304005E+00   2.22679626E+02   3.59323573E+00  -4.35504961E+00
             2722                3   2.20000000E+02   2.22766098E+02   2.22766098E+02   3.51858807E+00   2.02123141E+00   2.22766098E+02   2.22766098E+02   3.51858807E+00   2.02123141E+00   2.20744858E+02  -7.61019669E+01   2.19988541E+02   3.53083777E+00   2.22753845E+02   2.02123141E+00  -1.63879085E+00
             2722                4   2.20000000E+02   2.22765961E+02   2.22765961E+02   2.00452685E+00   3.53540969E+00   2.22765961E+02   2.22765961E+02   3.53540969E+00   2.00452685E+00   2.20761444E+02  -7.61019669E+01   2.19988007E+02   2.01557755E+00   2.22754913E+02   3.53540969E+00  -1.56199145E+00
             2723                1   2.20000000E+02   2.29991013E+02   2.29991013E+02  -7.93902516E-01   2.26543350E+01   2.29991013E+02   2.29991013E+02   2.26543350E+01  -7.93902516E-01   2.30784912E+02  -8.39504776E+01   2.17161972E+02  -6.99826956E-01   2.29896942E+02   2.26543350E+01  -4.65852785E+00
             2723                2   2.20000000E+02   2.30059601E+02   2.30059601E+02  -1.68795213E-01   2.19606457E+01   2.30059601E+02   2.30059601E+02   2.19606457E+01  -1.68795213E-01   2.30228394E+02  -8.39504852E+01   2.17474854E+02   2.20053252E-02   2.29868805E+02   2.19606457E+01  -6.62501335E+00
             2723                3   2.20000000E+02   2.29905823E+02   2.29905823E+02  -1.52162361E+00   2.34672489E+01   2.29905823E+02   2.29905823E+02   2.34672489E+01  -1.52162361E+00   2.31427444E+02  -8.39504852E+01   2.16772598E+02  -1.35859990E+00   2.29742798E+02   2.34672489E+01  -6.14021921E+00
             2723                4   2.20000000E+02   2.29976105E+02   2.29976105E+02  -9.24951553E-01   2.28002911E+01   2.29976105E+02   2.29976105E+02   2.28002911E+01  -9.24951553E-01   2.30901047E+02  -8.39504776E+01   2.17093857E+02  -6.40801191E-01   2.29691956E+02   2.28002911E+01  -8.09495449E+00
             2724                1   2.20000000E+02   1.83852478E+02   1.83852478E+02  -3.65965042E+01  -3.56957817E+01   1.83852478E+02   1.83852478E+02  -3.56957817E+01  -3.65965042E+01   2.20448975E+02  -3.71867256E+01   2.19995850E+02  -3.62128487E+01   1.83468811E+02  -3.56957817E+01  -9.18860054E+00
             2724                2   2.19999985E+02   1.83813293E+02   1.83813293E+02  -3.90961037E+01  -3.31570129E+01   1.83813293E+02   1.83813293E+02  -3.31570129E+01  -3.90961037E+01   2.22909409E+02  -3.71867256E+01   2.19819504E+02  -3.88379707E+01   1.83555161E+02  -3.31570129E+01  -7.58120155E+00
             2724                3   2.20000000E+02   1.83852783E+02   1.83852783E+02  -3.57775688E+01  -3.65150299E+01   1.83852783E+02   1.83852783E+02  -3.57775688E+01  -3.65150299E+01   2.20367813E+02  -3.71867256E+01   2.19997223E+02  -3.57035484E+01   1.83778763E+02  -3.65150299E+01  -4.03121614E+00
             2724                4   2.20000000E+02   1.83830643E+02   1.83830643E+02  -3.83722076E+01  -3.38982582E+01   1.83830643E+02   1.83830643E+02  -3.38982582E+01  -3.83722076E+01   2.22202850E+02  -3.71867256E+01   2.19897598E+02  -3.83424225E+01   1.83800858E+02  -3.38982582E+01  -2.57250428E+00
             2725                1   2.20000000E+02   1.98644836E+02   1.98644836E+02  -2.13249912E+01  -2.13853436E+01   1.98644836E+02   1.98644836E+02  -2.13249912E+01  -2.13853436E+01   2.20030167E+02  -5.19781647E+01   2.19999985E+02  -2.09784698E+01   1.98298309E+02  -2.13853436E+01  -8.72376060E+00
             2725                2   2.20000000E+02   1.98624802E+02   1.98624802E+02  -2.34447422E+01  -1.92455540E+01   1.98624802E+02   1.98624802E+02  -1.92455540E+01  -2.34447422E+01   2.22069534E+02  -5.19781647E+01   2.19909805E+02  -2.31756306E+01   1.98355682E+02  -1.92455540E+01  -7.72589684E+00
             2725                3   2.20000015E+02   1.98643539E+02   1.98643539E+02  -2.08187351E+01  -2.18903065E+01   1.98643539E+02   1.98643539E+02  -2.08187351E+01  -2.18903065E+01   2.20533844E+02  -5.19781647E+01   2.19994141E+02  -2.07269669E+01   1.98551773E+02  -2.18903065E+01  -4.48659706E+00
             2725                4   2.20000000E+02   1.98632614E+02   1.98632614E+02  -2.29889812E+01  -1.97091351E+01   1.98632614E+02   1.98632614E+02  -1.97091351E+01  -2.29889812E+01   2.21621597E+02  -5.19781647E+01   2.19944992E+02  -2.29305553E+01   1.98574188E+02  -1.97091351E+01  -3.59784865E+00
             2726                1   2.20000000E+02   1.97704422E+02   1.97704422E+02  -2.15963593E+01  -2.29881878E+01   1.97704422E+02   1.97704422E+02  -2.15963593E+01  -2.29881878E+01   2.20692612E+02  -5.10399590E+01   2.19990097E+02  -2.14288998E+01   1.97536957E+02  -2.29881878E+01  -6.05781507E+00
             2726                2   2.20000000E+02   1.97696289E+02   1.97696289E+02  -2.37957382E+01  -2.07806873E+01   1.97696289E+02   1.97696289E+02  -2.07806873E+01  -2.37957382E+01   2.21492035E+02  -5.10399590E+01   2.19953506E+02  -2.36620007E+01   1.97562561E+02  -2.07806873E+01  -5.44089937E+00
             2726                3   2.20000000E+02   1.97702087E+02   1.97702087E+02  -2.12934952E+01  -2.32887287E+01   1.97702087E+02   1.97702087E+02  -2.12934952E+01  -2.32887287E+01   2.20990829E+02  -5.10399590E+01   2.19979630E+02  -2.12799454E+01   1.97688538E+02  -2.32887287E+01  -1.72297263E+00
             2726                4   2.20000000E+02   1.97699692E+02   1.97699692E+02  -2.35236721E+01  -2.10561600E+01   1.97699692E+02   1.97699692E+02  -2.10561600E+01  -2.35236721E+01   2.21223373E+02  -5.10399590E+01   2.19968842E+02  -2.35168953E+01   1.97692917E+02  -2.10561600E+01  -1.22478235E+00
             2727                1   2.20000000E+02   2.39652603E+02   2.39652603E+02   2.13473339E+01   1.79961720E+01   2.39652603E+02   2.39652603E+02   2.13473339E+01   1.79961720E+01   2.21656433E+02  -9.29987106E+01   2.19942566E+02   2.14067650E+01   2.39593185E+02   1.79961720E+01  -3.60136676E+00
             2727                2   2.20000000E+02   2.39646866E+02   2.39646866E+02   2.16924019E+01   1.76568489E+01   2.39646866E+02   2.39646866E+02   2.16924019E+01   1.76568489E+01   2.21990021E+02  -9.29987106E+01   2.19916702E+02   2.17290764E+01   2.39610199E+02   1.76568489E+01  -2.82688498E+00
             2727                3   2.20000000E+02   2.39646591E+02   2.39646591E+02   2.17075996E+01   1.76419277E+01   2.39646591E+02   2.39646591E+02   2.17075996E+01   1.76419277E+01   2.22004654E+02  -9.29987106E+01   2.19915436E+02   2.17886848E+01   2.39565506E+02   1.76419277E+01  -4.20286083E+00
             2727                4   2.20000000E+02   2.39639572E+02   2.39639572E+02   2.20610504E+01   1.72955074E+01   2.39639572E+02   2.39639572E+02   2.20610504E+01   1.72955074E+01   2.22344070E+02  -9.29987106E+01   2.19883820E+02   2.21148739E+01   2.39585739E+02   1.72955074E+01  -3.42175341E+00
             2728                1   2.20000000E+02   1.93064194E+02   1.93064194E+02  -4.48051262E+01  -3.09507656E+00   1.93064194E+02   1.93064194E+02  -3.09507656E+00  -4.48051262E+01   2.37869324E+02  -4.83879967E+01   2.10827072E+02  -4.47780914E+01   1.93037155E+02  -3.09507656E+00  -2.53581667E+00
             2728                2   2.20000000E+02   1.93543945E+02   1.93543945E+02  -4.23736610E+01  -6.00629473E+00   1.93543945E+02   1.93543945E+02  -6.00629473E+00  -4.23736610E+01   2.35917603E+02  -4.83879967E+01   2.13079407E+02  -4.22826576E+01   1.93452942E+02  -6.00629473E+00   4.63269520E+00
             2728                3   2.20000000E+02   1.93536606E+02   1.93536606E+02  -4.24139328E+01  -5.95868301E+00   1.93536606E+02   1.93536606E+02  -5.95868301E+00  -4.24139328E+01   2.35950531E+02  -4.83879967E+01   2.13045105E+02  -4.19580803E+01   1.93080750E+02  -5.95868301E+00  -1.03609829E+01
             2728                4   2.20000000E+02   1.94021881E+02   1.94021881E+02  -3.94759483E+01  -9.38193798E+00   1.94021881E+02   1.94021881E+02  -9.38193798E+00  -3.94759483E+01   2.33497833E+02  -4.83879967E+01   2.15296143E+02  -3.94248543E+01   1.93970779E+02  -9.38193798E+00  -3.45382476E+00
             2729                1   2.20000000E+02   2.05698914E+02   2.05698914E+02  -1.68715248E+01  -1.16372271E+01   2.05698914E+02   2.05698914E+02  -1.16372271E+01  -1.68715248E+01   2.22570450E+02  -5.90633888E+01   2.19859818E+02  -1.65985317E+01   2.05425919E+02  -1.16372271E+01  -7.79019165E+00
             2729                2   2.20000000E+02   2.05727463E+02   2.05727463E+02  -1.50234060E+01  -1.35139017E+01   2.05727463E+02   2.05727463E+02  -1.35139017E+01  -1.50234060E+01   2.20750870E+02  -5.90633850E+01   2.19988342E+02  -1.46585989E+01   2.05362656E+02  -1.35139017E+01  -8.96650124E+00
             2729                3   2.20000000E+02   2.05683395E+02   2.05683395E+02  -1.74502563E+01  -1.10429735E+01   2.05683395E+02   2.05683395E+02  -1.10429735E+01  -1.74502563E+01   2.23133652E+02  -5.90633888E+01   2.19789917E+02  -1.68697414E+01   2.05102875E+02  -1.10429735E+01  -1.13664799E+01
             2729                4   2.20000000E+02   2.05721252E+02   2.05721252E+02  -1.56564655E+01  -1.28746357E+01   2.05721252E+02   2.05721252E+02  -1.28746357E+01  -1.56564655E+01   2.21377716E+02  -5.90633850E+01   2.19960419E+02  -1.49347849E+01   2.04999573E+02  -1.28746357E+01  -1.26191673E+01
             2730                1   2.20000000E+02   1.99881821E+02   1.99881821E+02  -2.09461174E+01  -1.92807922E+01   1.99881821E+02   1.99881821E+02  -1.92807922E+01  -2.09461174E+01   2.20827942E+02  -5.32183037E+01   2.19985825E+02  -2.03951530E+01   1.99330856E+02  -1.92807922E+01  -1.10165386E+01
             2730                2   2.19999985E+02   1.99847641E+02   1.99847641E+02  -2.29614010E+01  -1.72313480E+01   1.99847641E+02   1.99847641E+02  -1.72313480E+01  -2.29614010E+01   2.22809052E+02  -5.32182961E+01   2.19832016E+02  -2.25339756E+01   1.99420227E+02  -1.72313480E+01  -9.74937820E+00
             2730                3   2.20000000E+02   1.99884811E+02   1.99884811E+02  -2.03018761E+01  -1.99280243E+01   1.99884811E+02   1.99884811E+02  -1.99280243E+01  -2.03018761E+01   2.20186691E+02  -5.32183037E+01   2.19999283E+02  -2.00841217E+01   1.99667053E+02  -1.99280243E+01  -6.92093754E+00
             2730                4   2.20000000E+02   1.99861420E+02   1.99861420E+02  -2.23791542E+01  -1.78273582E+01   1.99861420E+02   1.99861420E+02  -1.78273582E+01  -2.23791542E+01   2.22240570E+02  -5.32183037E+01   2.19894012E+02  -2.22302265E+01   1.99712494E+02  -1.78273582E+01  -5.75115824E+00
             2731                1   2.20000000E+02   2.17730133E+02   2.17730133E+02  -1.47329807E+01   1.27817326E+01   2.17730133E+02   2.17730133E+02   1.27817326E+01  -1.47329807E+01   2.32463104E+02  -7.19262924E+01   2.16078156E+02  -1.35229893E+01   2.16520142E+02   1.27817326E+01  -1.67276096E+01
             2731                2   2.20000000E+02   2.17516922E+02   2.17516922E+02  -1.62267189E+01   1.44886799E+01   2.17516922E+02   2.17516922E+02   1.44886799E+01  -1.62267189E+01   2.33743652E+02  -7.19262924E+01   2.15096619E+02  -1.56581898E+01   2.16948395E+02   1.44886799E+01  -1.15137901E+01
             2731                3   2.20000000E+02   2.17930267E+02   2.17930267E+02  -1.31366062E+01   1.09852362E+01   2.17930267E+02   2.17930267E+02   1.09852362E+01  -1.31366062E+01   2.31066864E+02  -7.19262924E+01   2.16994919E+02  -1.26433096E+01   2.17436966E+02   1.09852362E+01  -1.06649399E+01
             2731                4   2.20000000E+02   2.17727493E+02   2.17727493E+02  -1.47526531E+01   1.28040524E+01   2.17727493E+02   2.17727493E+02   1.28040524E+01  -1.47526531E+01   2.32480148E+02  -7.19262924E+01   2.16066025E+02  -1.46123028E+01   2.17587143E+02   1.28040524E+01  -5.71038246E+00
             2732                1   2.20000000E+02   2.23386093E+02   2.23386093E+02  -3.87176943E+00   1.14444361E+01   2.23386093E+02   2.23386093E+02   1.14444361E+01  -3.87176943E+00   2.27257874E+02  -7.69862595E+01   2.18795624E+02  -3.52028465E+00   2.23034607E+02   1.14444361E+01  -8.93059063E+00
             2732                2   2.20000000E+02   2.23437454E+02   2.23437454E+02  -3.12195706E+00   1.06432753E+01   2.23437454E+02   2.23437454E+02   1.06432753E+01  -3.12195706E+00   2.26559402E+02  -7.69862595E+01   2.19027954E+02  -2.62667608E+00   2.22942169E+02   1.06432753E+01  -1.05813389E+01
             2732                3   2.20000000E+02   2.23335297E+02   2.23335297E+02  -4.54297018E+00   1.21664391E+01   2.23335297E+02   2.23335297E+02   1.21664391E+01  -4.54297018E+00   2.27878265E+02  -7.69862595E+01   2.18565475E+02  -4.05038929E+00   2.22842712E+02   1.21664391E+01  -1.05833302E+01
             2732                4   2.20000000E+02   2.23389206E+02   2.23389206E+02  -3.82879663E+00   1.13983583E+01   2.23389206E+02   2.23389206E+02   1.13983583E+01  -3.82879663E+00   2.27218002E+02  -7.69862595E+01   2.18809677E+02  -3.16993523E+00   2.22730347E+02   1.13983583E+01  -1.22176371E+01
             2733                1   2.20000000E+02   2.18128082E+02   2.18128082E+02  -3.42881298E+00  -2.81245142E-01   2.18128082E+02   2.18128082E+02  -2.81245142E-01  -3.42881298E+00   2.21556885E+02  -7.14726715E+01   2.19949326E+02  -3.04094267E+00   2.17740204E+02  -2.81245142E-01  -9.26205254E+00
             2733                2   2.20000000E+02   2.18139221E+02   2.18139221E+02  -2.01999521E+00  -1.70121074E+00   2.18139221E+02   2.18139221E+02  -1.70121074E+00  -2.01999521E+00   2.20159225E+02  -7.14726715E+01   2.19999496E+02  -1.58303702E+00   2.17702271E+02  -1.70121074E+00  -9.79842663E+00
             2733                3   2.20000000E+02   2.18123596E+02   2.18123596E+02  -3.71389008E+00   8.31266772E-03   2.18123596E+02   2.18123596E+02   8.31266772E-03  -3.71389008E+00   2.21837479E+02  -7.14726715E+01   2.19929123E+02  -3.07142425E+00   2.17481125E+02   8.31266772E-03  -1.19209805E+01
             2733                4   2.20000000E+02   2.18138382E+02   2.18138382E+02  -2.32162213E+00  -1.39872992E+00   2.18138382E+02   2.18138382E+02  -1.39872992E+00  -2.32162213E+00   2.20460007E+02  -7.14726791E+01   2.19995651E+02  -1.61006188E+00   2.17426819E+02  -1.39872992E+00  -1.25045710E+01
             2734                1   2.20000000E+02   2.21702988E+02   2.21702988E+02   5.66045284E-01   2.85782528E+00   2.21702988E+02   2.21702988E+02   2.85782528E+00   5.66045284E-01   2.21136932E+02  -7.50422821E+01   2.19973145E+02   9.30638969E-01   2.21338394E+02   2.85782528E+00  -8.97167778E+00
             2734                2   2.20000000E+02   2.21708771E+02   2.21708771E+02   1.90899169E+00   1.50909162E+00   2.21708771E+02   2.21708771E+02   1.90899169E+00   1.50909162E+00   2.20199677E+02  -7.50422897E+01   2.19999191E+02   2.30255699E+00   2.21315216E+02   1.50909162E+00  -9.29243851E+00
             2734                3   2.20000000E+02   2.21700867E+02   2.21700867E+02   3.80001038E-01   3.04597545E+00   2.21700867E+02   2.21700867E+02   3.04597545E+00   3.80001038E-01   2.21320877E+02  -7.50422821E+01   2.19963654E+02   9.75562930E-01   2.21105316E+02   3.04597545E+00  -1.14653358E+01
             2734                4   2.20000000E+02   2.21708954E+02   2.21708954E+02   1.71059275E+00   1.70731139E+00   2.21708954E+02   2.21708954E+02   1.71059275E+00   1.70731139E+00   2.20001633E+02  -7.50422821E+01   2.20000000E+02   2.34834599E+00   2.21071198E+02   1.70731139E+00  -1.18278170E+01
             2735                1   2.20000000E+02   2.31807053E+02   2.31807053E+02  -9.69626188E-01   2.73207130E+01   2.31807053E+02   2.31807053E+02   2.73207130E+01  -9.69626188E-01   2.32776688E+02  -8.60527115E+01   2.15850769E+02  -8.98473918E-01   2.31735901E+02   2.73207130E+01  -4.06926298E+00
             2735                2   2.20000000E+02   2.31901031E+02   2.31901031E+02  -2.70531029E-01   2.65276508E+01   2.31901031E+02   2.31901031E+02   2.65276508E+01  -2.70531029E-01   2.32171555E+02  -8.60527115E+01   2.16282272E+02  -8.82149860E-02   2.31718704E+02   2.65276508E+01  -6.50355816E+00
             2735                3   2.20000000E+02   2.31685379E+02   2.31685379E+02  -1.81944072E+00   2.82921944E+01   2.31685379E+02   2.31685379E+02   2.82921944E+01  -1.81944072E+00   2.33504822E+02  -8.60527115E+01   2.15290543E+02  -1.67432606E+00   2.31540268E+02   2.82921944E+01  -5.81915903E+00
             2735                4   2.20000000E+02   2.31780563E+02   2.31780563E+02  -1.15965950E+00   2.75372429E+01   2.31780563E+02   2.31780563E+02   2.75372429E+01  -1.15965950E+00   2.32940231E+02  -8.60527115E+01   2.15728943E+02  -8.68307710E-01   2.31489212E+02   2.75372429E+01  -8.23311234E+00
             2736                1   2.20000000E+02   1.77186386E+02   1.77186386E+02  -4.93752174E+01  -3.56051064E+01   1.77186386E+02   1.77186386E+02  -3.56051064E+01  -4.93752174E+01   2.26561600E+02  -3.07353573E+01   2.19027267E+02  -4.93590355E+01   1.77170212E+02  -3.56051064E+01  -1.91444004E+00
             2736                2   2.20000015E+02   1.77328079E+02   1.77328079E+02  -4.65939941E+01  -3.85280075E+01   1.77328079E+02   1.77328079E+02  -3.85280075E+01  -4.65939941E+01   2.23922073E+02  -3.07353592E+01   2.19666946E+02  -4.64341278E+01   1.77168213E+02  -3.85280075E+01  -5.98100519E+00
             2736                3   2.20000000E+02   1.77057449E+02   1.77057449E+02  -5.11272240E+01  -3.37241554E+01   1.77057449E+02   1.77057449E+02  -3.37241554E+01  -5.11272240E+01   2.28184677E+02  -3.07353573E+01   2.18443283E+02  -5.08670158E+01   1.76797241E+02  -3.37241554E+01  -7.70112038E+00
             2736                4   2.20000000E+02   1.77233734E+02   1.77233734E+02  -4.85969505E+01  -3.64306946E+01   1.77233734E+02   1.77233734E+02  -3.64306946E+01  -4.85969505E+01   2.25830688E+02  -3.07353611E+01   2.19241196E+02  -4.79714737E+01   1.76608246E+02  -3.64306946E+01  -1.18685455E+01
             2737                1   2.20000000E+02   1.97249191E+02   1.97249191E+02  -2.38866062E+01  -2.15971432E+01   1.97249191E+02   1.97249191E+02  -2.15971432E+01  -2.38866062E+01   2.21135788E+02  -5.05884819E+01   2.19973175E+02  -2.38579617E+01   1.97220535E+02  -2.15971432E+01  -2.51687145E+00
             2737                2   2.20000000E+02   1.97250320E+02   1.97250320E+02  -2.37727776E+01  -2.17121029E+01   1.97250320E+02   1.97250320E+02  -2.17121029E+01  -2.37727776E+01   2.21023102E+02  -5.05884819E+01   2.19978271E+02  -2.37588081E+01   1.97236343E+02  -2.17121029E+01   1.75737679E+00
             2737                3   2.20000000E+02   1.97249573E+02   1.97249573E+02  -2.16342735E+01  -2.38498573E+01   1.97249573E+02   1.97249573E+02  -2.16342735E+01  -2.38498573E+01   2.21099426E+02  -5.05884819E+01   2.19974899E+02  -2.15978565E+01   1.97213150E+02  -2.38498573E+01  -2.82315397E+00
             2737                4   2.20000000E+02   1.97248215E+02   1.97248215E+02  -2.15073147E+01  -2.39754772E+01   1.97248215E+02   1.97248215E+02  -2.15073147E+01  -2.39754772E+01   2.21223694E+02  -5.05884743E+01   2.19968857E+02  -2.14959679E+01   1.97236877E+02  -2.39754772E+01   1.57520080E+00
             2738                1   2.20000000E+02   1.93578568E+02   1.93578568E+02  -2.65376892E+01  -2.63049889E+01   1.93578568E+02   1.93578568E+02  -2.63049889E+01  -2.65376892E+01   2.20116257E+02  -4.69119606E+01   2.19999725E+02  -2.61727161E+01   1.93213593E+02  -2.63049889E+01  -8.95565701E+00
             2738                2   2.20000000E+02   1.93552979E+02   1.93552979E+02  -2.87842941E+01  -2.40327892E+01   1.93552979E+02   1.93552979E+02  -2.40327892E+01  -2.87842941E+01   2.22337265E+02  -4.69119606E+01   2.19884506E+02  -2.85105896E+01   1.93279266E+02  -2.40327892E+01  -7.79615211E+00
             2738                3   2.20000000E+02   1.93577606E+02   1.93577606E+02  -2.59483700E+01  -2.68933544E+01   1.93577606E+02   1.93577606E+02  -2.59483700E+01  -2.68933544E+01   2.20470963E+02  -4.69119606E+01   2.19995438E+02  -2.58594685E+01   1.93488708E+02  -2.68933544E+01  -4.41688251E+00
             2738                4   2.20000000E+02   1.93563187E+02   1.93563187E+02  -2.82570667E+01  -2.45702343E+01   1.93563187E+02   1.93563187E+02  -2.45702343E+01  -2.82570667E+01   2.21820251E+02  -4.69119606E+01   2.19930496E+02  -2.82055454E+01   1.93511673E+02  -2.45702343E+01  -3.38002133E+00
             2739                1   2.20000000E+02   1.92437561E+02   1.92437561E+02  -2.68970184E+01  -2.82218876E+01   1.92437561E+02   1.92437561E+02  -2.68970184E+01  -2.82218876E+01   2.20659454E+02  -4.57728844E+01   2.19991028E+02  -2.67164307E+01   1.92256973E+02  -2.82218876E+01  -6.29097509E+00
             2739                2   2.20000000E+02   1.92426712E+02   1.92426712E+02  -2.92339096E+01  -2.58741646E+01   1.92426712E+02   1.92426712E+02  -2.58741646E+01  -2.92339096E+01   2.21660629E+02  -4.57728844E+01   2.19942261E+02  -2.90972881E+01   1.92290100E+02  -2.58741646E+01  -5.50131273E+00
             2739                3   2.20000000E+02   1.92434525E+02   1.92434525E+02  -2.65062847E+01  -2.86095848E+01   1.92434525E+02   1.92434525E+02  -2.65062847E+01  -2.86095848E+01   2.21044113E+02  -4.57728844E+01   2.19977371E+02  -2.64939442E+01   1.92422180E+02  -2.86095848E+01  -1.64387214E+00
             2739                4   2.20000000E+02   1.92431519E+02   1.92431519E+02  -2.88852234E+01  -2.62276459E+01   1.92431519E+02   1.92431519E+02  -2.62276459E+01  -2.88852234E+01   2.21316742E+02  -4.57728844E+01   2.19963867E+02  -2.88808174E+01   1.92427109E+02  -2.62276459E+01  -9.87976313E-01
             2740                1   2.20000000E+02   1.92448807E+02   1.92448807E+02  -4.51141205E+01  -4.26141548E+00   1.92448807E+02   1.92448807E+02  -4.26141548E+00  -4.51141205E+01   2.37562927E+02  -4.76910896E+01   2.11211761E+02  -4.51031990E+01   1.92437881E+02  -4.26141548E+00  -1.61094964E+00
             2740                2   2.20000000E+02   1.92941635E+02   1.92941635E+02  -4.25421219E+01  -7.32626009E+00   1.92941635E+02   1.92941635E+02  -7.32626009E+00  -4.25421219E+01   2.35483765E+02  -4.76910858E+01   2.13520309E+02  -4.24190102E+01   1.92818527E+02  -7.32626009E+00   5.38296938E+00
             2740                3   2.19999985E+02   1.92913620E+02   1.92913620E+02  -4.27006607E+01  -7.13970137E+00   1.92913620E+02   1.92913620E+02  -7.13970137E+00  -4.27006607E+01   2.35614273E+02  -4.76910858E+01   2.13389801E+02  -4.23416519E+01   1.92554611E+02  -7.13970137E+00  -9.19005489E+00
             2740                4   2.20000000E+02   1.93396210E+02   1.93396210E+02  -3.96819763E+01  -1.06409817E+01   1.93396210E+02   1.93396210E+02  -1.06409817E+01  -3.96819763E+01   2.33078186E+02  -4.76910858E+01   2.15624359E+02  -3.96591911E+01   1.93373428E+02  -1.06409817E+01  -2.30420566E+00
             2741                1   2.20000000E+02   1.71807999E+02   1.71807999E+02  -5.15690575E+01  -4.46518135E+01   1.71807999E+02   1.71807999E+02  -4.46518135E+01  -5.15690575E+01   2.23377060E+02  -2.51957092E+01   2.19755127E+02  -5.10754242E+01   1.71314362E+02  -4.46518135E+01  -1.04891806E+01
             2741                2   2.20000000E+02   1.71683075E+02   1.71683075E+02  -5.43266563E+01  -4.17692947E+01   1.71683075E+02   1.71683075E+02  -4.17692947E+01  -5.43266563E+01   2.26009720E+02  -2.51957073E+01   2.19191498E+02  -5.41096840E+01   1.71466095E+02  -4.17692947E+01  -6.99939442E+00
             2741                3   2.20000000E+02   1.71849289E+02   1.71849289E+02  -4.98273659E+01  -4.64348106E+01   1.71849289E+02   1.71849289E+02  -4.64348106E+01  -4.98273659E+01   2.21676666E+02  -2.51957035E+01   2.19941132E+02  -4.97412872E+01   1.71763214E+02  -4.64348106E+01  -4.36740971E+00
             2741                4   2.20000000E+02   1.71761002E+02   1.71761002E+02  -5.28084412E+01  -4.33654518E+01   1.71761002E+02   1.71761002E+02  -4.33654518E+01  -5.28084412E+01   2.24569443E+02  -2.51957035E+01   2.19543320E+02  -5.28037834E+01   1.71756348E+02  -4.33654518E+01  -1.02244246E+00
             2742                1   2.20000000E+02   2.13488251E+02   2.13488251E+02  -1.81160889E+01   7.30039167E+00   2.13488251E+02   2.13488251E+02   7.30039167E+00  -1.81160889E+01   2.31604340E+02  -6.75575180E+01   2.16659973E+02  -1.74454231E+01   2.12817581E+02   7.30039167E+00  -1.24450884E+01
             2742                2   2.20000000E+02   2.13651642E+02   2.13651642E+02  -1.67017784E+01   5.72267771E+00   2.13651642E+02   2.13651642E+02   5.72267771E+00  -1.67017784E+01   2.30353409E+02  -6.75575104E+01   2.17406509E+02  -1.65418472E+01   2.13491714E+02   5.72267771E+00  -6.06738520E+00
             2742                3   2.20000000E+02   2.13685837E+02   2.13685837E+02  -1.63794403E+01   5.36615086E+00   2.13685837E+02   2.13685837E+02   5.36615086E+00  -1.63794403E+01   2.30065277E+02  -6.75575180E+01   2.17562393E+02  -1.49474087E+01   2.12253799E+02   5.36615086E+00  -1.80945148E+01
             2742                4   2.20000000E+02   2.13849640E+02   2.13849640E+02  -1.46601391E+01   3.48304152E+00   2.13849640E+02   2.13849640E+02   3.48304152E+00  -1.46601391E+01   2.28509781E+02  -6.75575180E+01   2.18307297E+02  -1.40408468E+01   2.13230347E+02   3.48304152E+00  -1.18798389E+01
             2743                1   2.20000000E+02   1.82024994E+02   1.82024994E+02  -3.73504715E+01  -3.85942688E+01   1.82024994E+02   1.82024994E+02  -3.73504715E+01  -3.85942688E+01   2.20619263E+02  -3.53600883E+01   2.19992096E+02  -3.71568985E+01   1.81831436E+02  -3.85942688E+01  -6.51352215E+00
             2743                2   2.20000000E+02   1.82008728E+02   1.82008728E+02  -3.99555321E+01  -3.59729385E+01   1.82008728E+02   1.82008728E+02  -3.59729385E+01  -3.99555321E+01   2.21964249E+02  -3.53600845E+01   2.19918869E+02  -3.98213463E+01   1.81874542E+02  -3.59729385E+01  -5.45577955E+00
             2743                3   2.20000000E+02   1.82020752E+02   1.82020752E+02  -3.68222847E+01  -3.91182137E+01   1.82020752E+02   1.82020752E+02  -3.68222847E+01  -3.91182137E+01   2.21138977E+02  -3.53600883E+01   2.19973022E+02  -3.68150826E+01   1.82013550E+02  -3.91182137E+01  -1.25581074E+00
             2743                4   2.20000000E+02   1.82016235E+02   1.82016235E+02  -3.94896202E+01  -3.64463425E+01   1.82016235E+02   1.82016235E+02  -3.64463425E+01  -3.94896202E+01   2.21505859E+02  -3.53600883E+01   2.19952637E+02  -3.94890327E+01   1.82015640E+02  -3.64463425E+01  -3.62281680E-01
             2744                1   2.20000000E+02   2.01648636E+02   2.01648636E+02  -2.13656235E+01  -1.52078371E+01   2.01648636E+02   2.01648636E+02  -1.52078371E+01  -2.13656235E+01   2.23014252E+02  -5.50250549E+01   2.19805984E+02  -2.11112232E+01   2.01394226E+02  -1.52078371E+01  -7.52799463E+00
             2744                2   2.20000000E+02   2.01686295E+02   2.01686295E+02  -1.93984299E+01  -1.72126942E+01   2.01686295E+02   2.01686295E+02  -1.72126942E+01  -1.93984299E+01   2.21084717E+02  -5.50250549E+01   2.19975555E+02  -1.90275307E+01   2.01315384E+02  -1.72126942E+01  -9.04785061E+00
             2744                3   2.20000000E+02   2.01625427E+02   2.01625427E+02  -2.20937462E+01  -1.44565229E+01   2.01625427E+02   2.01625427E+02  -1.44565229E+01  -2.20937462E+01   2.23719177E+02  -5.50250511E+01   2.19701462E+02  -2.15135880E+01   2.01045273E+02  -1.44565229E+01  -1.13778019E+01
             2744                4   2.20000000E+02   2.01675308E+02   2.01675308E+02  -2.02006607E+01  -1.63994713E+01   2.01675308E+02   2.01675308E+02  -1.63994713E+01  -2.02006607E+01   2.21875961E+02  -5.50250549E+01   2.19926086E+02  -1.94386959E+01   2.00913330E+02  -1.63994713E+01  -1.29800749E+01
             2745                1   2.20000000E+02   2.28653641E+02   2.28653641E+02  -3.30066872E+00   2.29663906E+01   2.28653641E+02   2.28653641E+02   2.29663906E+01  -3.30066872E+00   2.31954300E+02  -8.27731171E+01   2.16429947E+02  -3.15172219E+00   2.28504684E+02   2.29663906E+01  -5.87601423E+00
             2745                2   2.20000000E+02   2.28752289E+02   2.28752289E+02  -2.50032616E+00   2.20673752E+01   2.28752289E+02   2.28752289E+02   2.20673752E+01  -2.50032616E+00   2.31252625E+02  -8.27731094E+01   2.16881622E+02  -2.20282817E+00   2.28454803E+02   2.20673752E+01  -8.28897476E+00
             2745                3   2.20000000E+02   2.28538651E+02   2.28538651E+02  -4.16810036E+00   2.39488087E+01   2.28538651E+02   2.28538651E+02   2.39488087E+01  -4.16810036E+00   2.32706741E+02  -8.27731171E+01   2.15902191E+02  -3.90424275E+00   2.28274780E+02   2.39488087E+01  -7.83156967E+00
             2745                4   2.20000000E+02   2.28639267E+02   2.28639267E+02  -3.41254282E+00   2.30926170E+01   2.28639267E+02   2.28639267E+02   2.30926170E+01  -3.41254282E+00   2.32051819E+02  -8.27731171E+01   2.16364120E+02  -2.96069264E+00   2.28187424E+02   2.30926170E+01  -1.02297764E+01
             2746                1   2.20000000E+02   1.88846573E+02   1.88846573E+02  -4.29155235E+01  -1.71163788E+01   1.88846573E+02   1.88846573E+02  -1.71163788E+01  -4.29155235E+01   2.31762085E+02  -4.29382210E+01   2.16557465E+02  -4.29094238E+01   1.88840469E+02  -1.71163788E+01  -1.18890190E+00
             2746                2   2.20000000E+02   1.89124451E+02   1.89124451E+02  -4.04273415E+01  -1.98824482E+01   1.89124451E+02   1.89124451E+02  -1.98824482E+01  -4.04273415E+01   2.29551788E+02  -4.29382210E+01   2.17826050E+02  -4.02122002E+01   1.88909317E+02  -1.98824482E+01  -7.02415705E+00
             2746                3   2.20000000E+02   1.88554718E+02   1.88554718E+02  -4.50427246E+01  -1.46973257E+01   1.88554718E+02   1.88554718E+02  -1.46973257E+01  -4.50427246E+01   2.33597443E+02  -4.29382210E+01   2.15215958E+02  -4.48293762E+01   1.88341370E+02  -1.46973257E+01  -7.05633116E+00
             2746                4   2.20000000E+02   1.88852661E+02   1.88852661E+02  -4.28667908E+01  -1.71712093E+01   1.88852661E+02   1.88852661E+02  -1.71712093E+01  -4.28667908E+01   2.31719452E+02  -4.29382210E+01   2.16585358E+02  -4.21476364E+01   1.88133514E+02  -1.71712093E+01  -1.28888731E+01
             2747                1   2.20000000E+02   2.30674789E+02   2.30674789E+02  -1.14206867E+01   4.29762039E+01   2.30674789E+02   2.30674789E+02   4.29762039E+01  -1.14206867E+01   2.42095474E+02  -8.74101028E+01   2.04029602E+02  -1.14206810E+01   2.30674789E+02   4.29762039E+01   2.35885754E-02
             2747                2   2.20000000E+02   2.31053406E+02   2.31053406E+02  -1.00686073E+01   4.12455139E+01   2.31053406E+02   2.31053406E+02   4.12455139E+01  -1.00686073E+01   2.41122025E+02  -8.74101028E+01   2.05879272E+02  -9.93034649E+00   2.30915146E+02   4.12455139E+01  -5.77229548E+00
             2747                3   2.20000000E+02   2.30241379E+02   2.30241379E+02  -1.28629971E+01   4.48519249E+01   2.30241379E+02   2.30241379E+02   4.48519249E+01  -1.28629971E+01   2.43104385E+02  -8.74101028E+01   2.01886917E+02  -1.27757111E+01   2.30154099E+02   4.48519249E+01  -4.60564280E+00
             2747                4   2.20000000E+02   2.30596817E+02   2.30596817E+02  -1.16879253E+01   4.33214111E+01   2.30596817E+02   2.30596817E+02   4.33214111E+01  -1.16879253E+01   2.42284744E+02  -8.74100952E+01   2.03646179E+02  -1.12481651E+01   2.30157059E+02   4.33214111E+01  -1.03127584E+01
             2748                1   2.20000000E+02   2.20846497E+02   2.20846497E+02  -4.07130480E+00   6.11840105E+00   2.20846497E+02   2.20846497E+02   6.11840105E+00  -4.07130480E+00   2.24917801E+02  -7.42978668E+01   2.19468124E+02  -3.58366203E+00   2.20358856E+02   6.11840105E+00  -1.04614201E+01
             2748                2   2.20000000E+02   2.20883728E+02   2.20883728E+02  -3.21063519E+00   5.22049236E+00   2.20883728E+02   2.20883728E+02   5.22049236E+00  -3.21063519E+00   2.24094360E+02  -7.42978592E+01   2.19636078E+02  -2.56606650E+00   2.20239166E+02   5.22049236E+00  -1.20011597E+01
             2748                3   2.20000000E+02   2.20816559E+02   2.20816559E+02  -4.66566467E+00   6.74269915E+00   2.20816559E+02   2.20816559E+02   6.74269915E+00  -4.66566467E+00   2.25482224E+02  -7.42978668E+01   2.19332993E+02  -3.98463345E+00   2.20135529E+02   6.74269915E+00  -1.23732138E+01
             2748                4   2.20000000E+02   2.20856537E+02   2.20856537E+02  -3.85463428E+00   5.89167309E+00   2.20856537E+02   2.20856537E+02   5.89167309E+00  -3.85463428E+00   2.24711182E+02  -7.42978592E+01   2.19513474E+02  -2.99358487E+00   2.19995499E+02   5.89167309E+00  -1.38832483E+01
             2749                1   2.20000000E+02   2.33629333E+02   2.33629333E+02  -3.59966636E-01   3.09798012E+01   2.33629333E+02   2.33629333E+02   3.09798012E+01  -3.59966636E-01   2.33989304E+02  -8.80830612E+01   2.14891739E+02  -1.91332385E-01   2.33460693E+02   3.09798012E+01  -6.27939034E+00
             2749                2   2.20000000E+02   2.33473389E+02   2.33473389E+02  -1.33247781E+00   3.21082344E+01   2.33473389E+02   2.33473389E+02   3.21082344E+01  -1.33247781E+00   2.34805878E+02  -8.80830460E+01   2.14169846E+02  -1.04050517E+00   2.33181427E+02   3.21082344E+01  -8.27466106E+00
             2749                3   2.20000000E+02   2.33507599E+02   2.33507599E+02  -1.12490010E+00   3.18664494E+01   2.33507599E+02   2.33507599E+02   3.18664494E+01  -1.12490010E+00   2.34632507E+02  -8.80830460E+01   2.14328491E+02  -1.07333481E+00   2.33456039E+02   3.18664494E+01  -3.47799897E+00
             2749                4   2.20000000E+02   2.33351532E+02   2.33351532E+02  -2.04789448E+00   3.29455147E+01   2.33351532E+02   2.33351532E+02   3.29455147E+01  -2.04789448E+00   2.35399429E+02  -8.80830460E+01   2.13603729E+02  -1.91931021E+00   2.33222946E+02   3.29455147E+01  -5.50016689E+00
             2750                1   2.20000000E+02   1.91744232E+02   1.91744232E+02  -2.70654469E+01  -2.94270706E+01   1.91744232E+02   1.91744232E+02  -2.70654469E+01  -2.94270706E+01   2.21171310E+02  -4.50839043E+01   2.19971481E+02  -2.70268192E+01   1.91705612E+02  -2.94270706E+01  -2.90680575E+00
             2750                2   2.20000000E+02   1.91743851E+02   1.91743851E+02  -2.94624996E+01  -2.70296249E+01   1.91743851E+02   1.91743851E+02  -2.70296249E+01  -2.94624996E+01   2.21206360E+02  -4.50839119E+01   2.19969727E+02  -2.94321442E+01   1.91713501E+02  -2.70296249E+01  -2.59109640E+00
             2750                3   2.20000000E+02   1.91742798E+02   1.91742798E+02  -2.69370823E+01  -2.95539818E+01   1.91742798E+02   1.91742798E+02  -2.69370823E+01  -2.95539818E+01   2.21296768E+02  -4.50839081E+01   2.19964981E+02  -2.69222450E+01   1.91727951E+02  -2.95539818E+01   1.80140126E+00
             2750                4   2.20000000E+02   1.91745056E+02   1.91745056E+02  -2.93481140E+01  -2.71452274E+01   1.91745056E+02   1.91745056E+02  -2.71452274E+01  -2.93481140E+01   2.21093170E+02  -4.50839043E+01   2.19975189E+02  -2.93304367E+01   1.91727386E+02  -2.71452274E+01   1.97648132E+00
             2751                1   2.20000000E+02   1.92578995E+02   1.92578995E+02  -3.95894051E+01  -1.27989645E+01   1.92578995E+02   1.92578995E+02  -1.27989645E+01  -3.95894051E+01   2.32168396E+02  -4.67302094E+01   2.16284470E+02  -3.95857468E+01   1.92575348E+02  -1.27989645E+01  -9.20469165E-01
             2751                2   2.20000000E+02   1.92138367E+02   1.92138367E+02  -4.25775681E+01  -9.37016773E+00   1.92138367E+02   1.92138367E+02  -9.37016773E+00  -4.25775681E+01   2.34715942E+02  -4.67302132E+01   2.14252487E+02  -4.22972450E+01   1.91858047E+02  -9.37016773E+00  -8.10668087E+00
             2751                3   2.20000000E+02   1.92163712E+02   1.92163712E+02  -4.24229355E+01  -9.55014896E+00   1.92163712E+02   1.92163712E+02  -9.55014896E+00  -4.24229355E+01   2.34586655E+02  -4.67302094E+01   2.14369965E+02  -4.22519951E+01   1.91992783E+02  -9.55014896E+00   6.33007860E+00
             2751                4   2.20000000E+02   1.91694016E+02   1.91694016E+02  -4.50508041E+01  -6.45256901E+00   1.91694016E+02   1.91694016E+02  -6.45256901E+00  -4.50508041E+01   2.36744812E+02  -4.67302094E+01   2.12180634E+02  -4.50485382E+01   1.91691742E+02  -6.45256901E+00  -7.32476115E-01
             2752                1   2.20000000E+02   2.17713547E+02   2.17713547E+02  -1.88527527E+01   1.92599964E+01   2.17713547E+02   2.17713547E+02   1.92599964E+01  -1.88527527E+01   2.36566299E+02  -7.27069321E+01   2.12381271E+02  -1.88331127E+01   2.17693909E+02   1.92599964E+01  -2.15524840E+00
             2752                2   2.20000000E+02   2.18067703E+02   2.18067703E+02  -1.68855438E+01   1.69386253E+01   2.18067703E+02   2.18067703E+02   1.69386253E+01  -1.68855438E+01   2.34953247E+02  -7.27069321E+01   2.14032623E+02  -1.65272446E+01   2.17709412E+02   1.69386253E+01  -9.16807556E+00
             2752                3   2.20000000E+02   2.17363281E+02   2.17363281E+02  -2.05792637E+01   2.13367710E+01   2.17363281E+02   2.17363281E+02   2.13367710E+01  -2.05792637E+01   2.37942535E+02  -7.27069321E+01   2.10733292E+02  -2.02883930E+01   2.17072403E+02   2.13367710E+01  -8.31421852E+00
             2752                4   2.20000000E+02   2.17724274E+02   2.17724274E+02  -1.87967281E+01   1.91932316E+01   2.17724274E+02   2.17724274E+02   1.91932316E+01  -1.87967281E+01   2.36521011E+02  -7.27069321E+01   2.12431564E+02  -1.77503471E+01   2.16677902E+02   1.91932316E+01  -1.56969852E+01
             2753                1   2.20000000E+02   2.29883469E+02   2.29883469E+02  -3.85299134E+00   2.68441467E+01   2.29883469E+02   2.29883469E+02   2.68441467E+01  -3.85299134E+00   2.33736450E+02  -8.42915421E+01   2.15102570E+02  -3.74154139E+00   2.29772018E+02   2.68441467E+01  -5.10257721E+00
             2753                2   2.20000000E+02   2.30009140E+02   2.30009140E+02  -2.99351716E+00   2.58589916E+01   2.30009140E+02   2.30009140E+02   2.58589916E+01  -2.99351716E+00   2.33002655E+02  -8.42915421E+01   2.15681793E+02  -2.71770263E+00   2.29733322E+02   2.58589916E+01  -8.01191139E+00
             2753                3   2.20000000E+02   2.29728195E+02   2.29728195E+02  -4.84229612E+00   2.79887295E+01   2.29728195E+02   2.29728195E+02   2.79887295E+01  -4.84229612E+00   2.34570480E+02  -8.42915421E+01   2.14384537E+02  -4.61406422E+00   2.29499954E+02   2.79887295E+01  -7.31338120E+00
             2753                4   2.20000000E+02   2.29854919E+02   2.29854919E+02  -4.04036474E+00   2.70600586E+01   2.29854919E+02   2.29854919E+02   2.70600586E+01  -4.04036474E+00   2.33895294E+02  -8.42915421E+01   2.14970810E+02  -3.59490919E+00   2.29409470E+02   2.70600586E+01  -1.01976194E+01
             2754                1   2.20000000E+02   2.35193329E+02   2.35193329E+02  -4.57350612E-01   3.52000504E+01   2.35193329E+02   2.35193329E+02   3.52000504E+01  -4.57350612E-01   2.35650681E+02  -8.99786758E+01   2.13353073E+02  -3.02858979E-01   2.35038834E+02   3.52000504E+01  -6.03181458E+00
             2754                2   2.20000000E+02   2.34996628E+02   2.34996628E+02  -1.52177703E+00   3.64611664E+01   2.34996628E+02   2.34996628E+02   3.64611664E+01  -1.52177703E+00   2.36518402E+02  -8.99786758E+01   2.12434402E+02  -1.22894824E+00   2.34703796E+02   3.64611664E+01  -8.31714630E+00
             2754                3   2.20000000E+02   2.35040817E+02   2.35040817E+02  -1.28909194E+00   3.61842995E+01   2.35040817E+02   2.35040817E+02   3.61842995E+01  -1.28909194E+00   2.36329910E+02  -8.99786758E+01   2.12641174E+02  -1.25575697E+00   2.35007477E+02   3.61842995E+01  -2.80677509E+00
             2754                4   2.20000000E+02   2.34845657E+02   2.34845657E+02  -2.29163027E+00   3.73819847E+01   2.34845657E+02   2.34845657E+02   3.73819847E+01  -2.29163027E+00   2.37137299E+02  -8.99786682E+01   2.11726166E+02  -2.18068218E+00   2.34734711E+02   3.73819847E+01  -5.12818623E+00
             2755                1   2.20000000E+02   1.86325378E+02   1.86325378E+02  -3.24229240E+01  -3.49053154E+01   1.86325378E+02   1.86325378E+02  -3.24229240E+01  -3.49053154E+01   2.21230698E+02  -3.96657104E+01   2.19968491E+02  -3.23815651E+01   1.86284012E+02  -3.49053154E+01  -3.00773335E+00
             2755                2   2.20000000E+02   1.86324738E+02   1.86324738E+02  -3.49602203E+01  -3.23673820E+01   1.86324738E+02   1.86324738E+02  -3.23673820E+01  -3.49602203E+01   2.21284958E+02  -3.96657104E+01   2.19965622E+02  -3.49301643E+01   1.86294678E+02  -3.23673820E+01  -2.57893395E+00
             2755                3   2.20000000E+02   1.86323166E+02   1.86323166E+02  -3.22399597E+01  -3.50860825E+01   1.86323166E+02   1.86323166E+02  -3.22399597E+01  -3.50860825E+01   2.21409256E+02  -3.96657066E+01   2.19958572E+02  -3.22215233E+01   1.86304733E+02  -3.50860825E+01   2.00708270E+00
             2755                4   2.20000000E+02   1.86326538E+02   1.86326538E+02  -3.47981949E+01  -3.25312195E+01   1.86326538E+02   1.86326538E+02  -3.25312195E+01  -3.47981949E+01   2.21124741E+02  -3.96657104E+01   2.19973740E+02  -3.47746964E+01   1.86303055E+02  -3.25312195E+01   2.27894950E+00
             2756                1   2.20000000E+02   2.10775238E+02   2.10775238E+02  -1.18903904E+01  -6.45855999E+00   2.10775238E+02   2.10775238E+02  -6.45855999E+00  -1.18903904E+01   2.22665619E+02  -6.41420975E+01   2.19849045E+02  -1.14896994E+01   2.10374542E+02  -6.45855999E+00  -9.43712997E+00
             2756                2   2.20000000E+02   2.10803268E+02   2.10803268E+02  -1.02881584E+01  -8.08882332E+00   2.10803268E+02   2.10803268E+02  -8.08882332E+00  -1.02881584E+01   2.21091415E+02  -6.41420975E+01   2.19975266E+02  -9.79013443E+00   2.10305237E+02  -8.08882332E+00  -1.04814882E+01
             2756                3   2.20000000E+02   2.10761108E+02   2.10761108E+02  -1.24047012E+01  -5.93014097E+00   2.10761108E+02   2.10761108E+02  -5.93014097E+00  -1.24047012E+01   2.23165817E+02  -6.41420898E+01   2.19785492E+02  -1.16961937E+01   2.10052612E+02  -5.93014097E+00  -1.25543528E+01
             2756                4   2.20000000E+02   2.10796326E+02   2.10796326E+02  -1.08391504E+01  -7.53089190E+00   2.10796326E+02   2.10796326E+02  -7.53089190E+00  -1.08391504E+01   2.21635468E+02  -6.41420898E+01   2.19944031E+02  -9.99405098E+00   2.09951218E+02  -7.53089190E+00  -1.36598072E+01
             2757                1   2.20000000E+02   2.20400650E+02   2.20400650E+02  -1.23503232E+00   2.07365608E+00   2.20400650E+02   2.20400650E+02   2.07365608E+00  -1.23503232E+00   2.21635681E+02  -7.37464218E+01   2.19944016E+02  -6.92845523E-01   2.19858459E+02   2.07365608E+00  -1.09487467E+01
             2757                2   2.20000000E+02   2.20411026E+02   2.20411026E+02  -2.60999560E-01   1.08924544E+00   2.20411026E+02   2.20411026E+02   1.08924544E+00  -2.60999560E-01   2.20672028E+02  -7.37464218E+01   2.19990677E+02   4.66785491E-01   2.19683243E+02   1.08924544E+00  -1.26519279E+01
             2757                3   2.20000000E+02   2.20391144E+02   2.20391144E+02  -1.77335966E+00   2.62148952E+00   2.20391144E+02   2.20391144E+02   2.62148952E+00  -1.77335966E+00   2.22164505E+02  -7.37464218E+01   2.19901199E+02  -9.63929951E-01   2.19581711E+02   2.62148952E+00  -1.33855057E+01
             2757                4   2.20000000E+02   2.20405930E+02   2.20405930E+02  -8.38220000E-01   1.67155576E+00   2.20405930E+02   2.20405930E+02   1.67155576E+00  -8.38220000E-01   2.21244141E+02  -7.37464218E+01   2.19967773E+02   1.96823478E-01   2.19370880E+02   1.67155576E+00  -1.50972157E+01
             2758                1   2.20000000E+02   2.08855652E+02   2.08855652E+02  -1.65465488E+01  -5.31162786E+00   2.08855652E+02   2.08855652E+02  -5.31162786E+00  -1.65465488E+01   2.25402191E+02  -6.23324890E+01   2.19353165E+02  -1.53310719E+01   2.07640167E+02  -5.31162786E+00  -1.65074043E+01
             2758                2   2.20000000E+02   2.08765823E+02   2.08765823E+02  -1.80459766E+01  -3.72237754E+00   2.08765823E+02   2.08765823E+02  -3.72237754E+00  -1.80459766E+01   2.26811798E+02  -6.23324890E+01   2.18947220E+02  -1.72016792E+01   2.07921524E+02  -3.72237754E+00  -1.38124790E+01
             2758                3   2.20000000E+02   2.08908676E+02   2.08908676E+02  -1.54162493E+01  -6.49496555E+00   2.08908676E+02   2.08908676E+02  -6.49496555E+00  -1.54162493E+01   2.24324936E+02  -6.23324890E+01   2.19592453E+02  -1.46865396E+01   2.08178970E+02  -6.49496555E+00  -1.27734022E+01
             2758                4   2.20000000E+02   2.08831161E+02   2.08831161E+02  -1.69945660E+01  -4.83912134E+00   2.08831161E+02   2.08831161E+02  -4.83912134E+00  -1.69945660E+01   2.25825729E+02  -6.23324890E+01   2.19242554E+02  -1.65378399E+01   2.08374435E+02  -4.83912134E+00  -1.01455173E+01
             2759                1   2.20000000E+02   2.07297852E+02   2.07297852E+02  -1.59916430E+01  -9.25803089E+00   2.07297852E+02   2.07297852E+02  -9.25803089E+00  -1.59916430E+01   2.23289505E+02  -6.06827278E+01   2.19767960E+02  -1.56087627E+01   2.06914978E+02  -9.25803089E+00  -9.23829746E+00
             2759                2   2.20000000E+02   2.07337692E+02   2.07337692E+02  -1.42492218E+01  -1.10402870E+01   2.07337692E+02   2.07337692E+02  -1.10402870E+01  -1.42492218E+01   2.21586914E+02  -6.06827278E+01   2.19947327E+02  -1.37305698E+01   2.06819046E+02  -1.10402870E+01  -1.07077656E+01
             2759                3   2.20000000E+02   2.07274200E+02   2.07274200E+02  -1.66800957E+01  -8.54590034E+00   2.07274200E+02   2.07274200E+02  -8.54590034E+00  -1.66800957E+01   2.23954285E+02  -6.06827354E+01   2.19661285E+02  -1.59606810E+01   2.06554779E+02  -8.54590034E+00  -1.26727657E+01
             2759                4   2.20000000E+02   2.07324005E+02   2.07324005E+02  -1.50011044E+01  -1.02747192E+01   2.07324005E+02   2.07324005E+02  -1.02747192E+01  -1.50011044E+01   2.22325119E+02  -6.06827278E+01   2.19885727E+02  -1.40897770E+01   2.06412689E+02  -1.02747192E+01  -1.42049007E+01
             2760                1   2.20000000E+02   1.64468658E+02   1.64468658E+02  -6.09210587E+01  -4.97131462E+01   1.64468658E+02   1.64468658E+02  -4.97131462E+01  -6.09210587E+01   2.25389725E+02  -1.79448204E+01   2.19356262E+02  -6.09042854E+01   1.64451889E+02  -4.97131462E+01   1.94449830E+00
             2760                2   2.20000000E+02   1.64588348E+02   1.64588348E+02  -5.76329460E+01  -5.31209373E+01   1.64588348E+02   1.64588348E+02  -5.31209373E+01  -5.76329460E+01   2.22221298E+02  -1.79448204E+01   2.19895844E+02  -5.76053047E+01   1.64560699E+02  -5.31209373E+01  -2.47848439E+00
             2760                3   2.20000000E+02   1.64347305E+02   1.64347305E+02  -6.28767204E+01  -4.76361122E+01   1.64347305E+02   1.64347305E+02  -4.76361122E+01  -6.28767204E+01   2.27224014E+02  -1.79448223E+01   2.18807556E+02  -6.27808266E+01   1.64251404E+02  -4.76361122E+01  -4.66700411E+00
             2760                4   2.20000000E+02   1.64517578E+02   1.64517578E+02  -5.98860359E+01  -5.07970848E+01   1.64517578E+02   1.64517578E+02  -5.07970848E+01  -5.98860359E+01   2.24403625E+02  -1.79448204E+01   2.19576981E+02  -5.95063667E+01   1.64137909E+02  -5.07970848E+01  -9.22257519E+00
             2761                1   2.20000000E+02   1.76698792E+02   1.76698792E+02  -5.35025787E+01  -3.14368324E+01   1.76698792E+02   1.76698792E+02  -3.14368324E+01  -5.35025787E+01   2.30201370E+02  -3.05864620E+01   2.17489487E+02  -5.34285622E+01   1.76624771E+02  -3.14368324E+01   4.12720203E+00
             2761                2   2.20000015E+02   1.76978424E+02   1.76978424E+02  -5.03799553E+01  -3.48390884E+01   1.76978424E+02   1.76978424E+02  -3.48390884E+01  -5.03799553E+01   2.27358383E+02  -3.05864582E+01   2.18759918E+02  -5.03574066E+01   1.76955872E+02  -3.48390884E+01  -2.26412058E+00
             2761                3   2.20000000E+02   1.76398193E+02   1.76398193E+02  -5.60137405E+01  -2.86250973E+01   1.76398193E+02   1.76398193E+02  -2.86250973E+01  -5.60137405E+01   2.32411942E+02  -3.05864544E+01   2.16114487E+02  -5.59837608E+01   1.76368225E+02  -2.86250973E+01  -2.63923645E+00
             2761                4   2.20000000E+02   1.76722397E+02   1.76722397E+02  -5.32772369E+01  -3.16857929E+01   1.76722397E+02   1.76722397E+02  -3.16857929E+01  -5.32772369E+01   2.29999634E+02  -3.05864563E+01   2.17597107E+02  -5.29188232E+01   1.76363983E+02  -3.16857929E+01  -9.07227898E+00
             2762                1   2.20000000E+02   2.26170212E+02   2.26170212E+02  -6.63803053E+00   2.17306213E+01   2.26170212E+02   2.26170212E+02   2.17306213E+01  -6.63803053E+00   2.32808243E+02  -8.04209366E+01   2.15827469E+02  -6.45777178E+00   2.25989960E+02   2.17306213E+01  -6.47545528E+00
             2762                2   2.20000000E+02   2.26302841E+02   2.26302841E+02  -5.64195108E+00   2.06019077E+01   2.26302841E+02   2.26302841E+02   2.06019077E+01  -5.64195108E+00   2.31944794E+02  -8.04209366E+01   2.16436325E+02  -5.25736284E+00   2.25918259E+02   2.06019077E+01  -9.43682289E+00
             2762                3   2.20000000E+02   2.26022263E+02   2.26022263E+02  -7.66119528E+00   2.29017429E+01   2.26022263E+02   2.26022263E+02   2.29017429E+01  -7.66119528E+00   2.33683456E+02  -8.04209366E+01   2.15145966E+02  -7.31311369E+00   2.25674179E+02   2.29017429E+01  -9.01224136E+00
             2762                4   2.20000000E+02   2.26157028E+02   2.26157028E+02  -6.73266745E+00   2.18384552E+01   2.26157028E+02   2.26157028E+02   2.18384552E+01  -6.73266745E+00   2.32889694E+02  -8.04209366E+01   2.15766830E+02  -6.11711740E+00   2.25541473E+02   2.18384552E+01  -1.19573326E+01
             2763                1   2.20000000E+02   2.04583038E+02   2.04583038E+02  -3.07132187E+01   4.00873280E+00   2.04583038E+02   2.04583038E+02   4.00873280E+00  -3.07132187E+01   2.35296265E+02  -5.92928505E+01   2.13704712E+02  -3.07129345E+01   2.04582764E+02   4.00873280E+00  -2.57666141E-01
             2763                2   2.20000000E+02   2.04991852E+02   2.04991852E+02  -2.81231728E+01   1.00988340E+00   2.04991852E+02   2.04991852E+02   1.00988340E+00  -2.81231728E+01   2.33115036E+02  -5.92928581E+01   2.15596161E+02  -2.78414803E+01   2.04710159E+02   1.00988340E+00  -8.09867096E+00
             2763                3   2.20000000E+02   2.04207886E+02   2.04207886E+02  -3.27365150E+01   6.40718937E+00   2.04207886E+02   2.04207886E+02   6.40718937E+00  -3.27365150E+01   2.36944397E+02  -5.92928581E+01   2.11951843E+02  -3.24301491E+01   2.03901520E+02   6.40718937E+00  -8.51460171E+00
             2763                4   2.20000000E+02   2.04598251E+02   2.04598251E+02  -3.06251335E+01   3.90544224E+00   2.04598251E+02   2.04598251E+02   3.90544224E+00  -3.06251335E+01   2.35223373E+02  -5.92928505E+01   2.13775391E+02  -2.95077477E+01   2.03480865E+02   3.90544224E+00  -1.61736107E+01
             2764                1   2.20000000E+02   2.36456161E+02   2.36456161E+02  -1.43261302E+00   4.03321266E+01   2.36456161E+02   2.36456161E+02   4.03321266E+01  -1.43261302E+00   2.37888763E+02  -9.17852249E+01   2.10802216E+02  -1.41292512E+00   2.36436462E+02   4.03321266E+01  -2.16444325E+00
             2764                2   2.20000000E+02   2.36640030E+02   2.36640030E+02  -5.45637071E-01   3.92612839E+01   2.36640030E+02   2.36640030E+02   3.92612839E+01  -5.45637071E-01   2.37185669E+02  -9.17852249E+01   2.11668839E+02  -4.07384574E-01   2.36501770E+02   3.92612839E+01  -5.72483063E+00
             2764                3   2.20000000E+02   2.36226471E+02   2.36226471E+02  -2.47806787E+00   4.16072655E+01   2.36226471E+02   2.36226471E+02   4.16072655E+01  -2.47806787E+00   2.38704529E+02  -9.17852173E+01   2.09713745E+02  -2.38241053E+00   2.36130814E+02   4.16072655E+01  -4.77738667E+00
             2764                4   2.20000000E+02   2.36406555E+02   2.36406555E+02  -1.66390133E+00   4.06129951E+01   2.36406555E+02   2.36406555E+02   4.06129951E+01  -1.66390133E+00   2.38070465E+02  -9.17852173E+01   2.10567780E+02  -1.37448943E+00   2.36117157E+02   4.06129951E+01  -8.29547977E+00
             2765                1   2.20000000E+02   2.03023056E+02   2.03023056E+02  -1.62681637E+01  -1.76789131E+01   2.03023056E+02   2.03023056E+02  -1.62681637E+01  -1.76789131E+01   2.20701981E+02  -5.63586617E+01   2.19989807E+02  -1.61131477E+01   2.02868042E+02  -1.76789131E+01  -5.82842016E+00
             2765                2   2.20000000E+02   2.03016876E+02   2.03016876E+02  -1.83341656E+01  -1.56067209E+01   2.03016876E+02   2.03016876E+02  -1.56067209E+01  -1.83341656E+01   2.21351044E+02  -5.63586617E+01   2.19961945E+02  -1.82070789E+01   2.02889786E+02  -1.56067209E+01  -5.30237532E+00
             2765                3   2.20000000E+02   2.03021133E+02   2.03021133E+02  -1.60111923E+01  -1.79339409E+01   2.03021133E+02   2.03021133E+02  -1.60111923E+01  -1.79339409E+01   2.20955063E+02  -5.63586617E+01   2.19981094E+02  -1.59965734E+01   2.03006500E+02  -1.79339409E+01  -1.78977144E+00
             2765                4   2.20000000E+02   2.03019531E+02   2.03019531E+02  -1.81018791E+01  -1.58416519E+01   2.03019531E+02   2.03019531E+02  -1.58416519E+01  -1.81018791E+01   2.21121399E+02  -5.63586617E+01   2.19973877E+02  -1.80934200E+01   2.03011063E+02  -1.58416519E+01  -1.36803627E+00
             2766                1   2.20000000E+02   1.80962112E+02   1.80962112E+02  -3.77108421E+01  -4.03413582E+01   1.80962112E+02   1.80962112E+02  -3.77108421E+01  -4.03413582E+01   2.21303467E+02  -3.43033028E+01   2.19964615E+02  -3.76687775E+01   1.80920044E+02  -4.03413582E+01  -3.03262281E+00
             2766                2   2.20000000E+02   1.80961472E+02   1.80961472E+02  -4.03923874E+01  -3.76591911E+01   1.80961472E+02   1.80961472E+02  -3.76591911E+01  -4.03923874E+01   2.21353867E+02  -3.43032990E+01   2.19961807E+02  -4.03617554E+01   1.80930847E+02  -3.76591911E+01  -2.60373211E+00
             2766                3   2.20000000E+02   1.80959839E+02   1.80959839E+02  -3.75318451E+01  -4.05180855E+01   1.80959839E+02   1.80959839E+02  -3.75318451E+01  -4.05180855E+01   2.21477921E+02  -3.43033028E+01   2.19954391E+02  -3.75077972E+01   1.80935791E+02  -4.05180855E+01   2.29213572E+00
             2766                4   2.20000000E+02   1.80963333E+02   1.80963333E+02  -4.02347145E+01  -3.78187180E+01   1.80963333E+02   1.80963333E+02  -3.78187180E+01  -4.02347145E+01   2.21198059E+02  -3.43033028E+01   2.19970154E+02  -4.02053833E+01   1.80934006E+02  -3.78187180E+01   2.54705334E+00
             2767                1   2.19606277E+02   2.07948822E+02   2.07948822E+02  -2.56471710E+01   5.70143843E+00   2.07948822E+02   2.07948822E+02   5.70143843E+00  -2.56471710E+01   2.33595993E+02  -6.26676941E+01   2.14485611E+02  -2.55879269E+01   2.07889572E+02   5.70143843E+00   3.71983361E+00
             2767                2   2.19781479E+02   2.07559982E+02   2.07559982E+02  -2.86455784E+01   9.08869267E+00   2.07559982E+02   2.07559982E+02   9.08869267E+00  -2.86455784E+01   2.36205551E+02  -6.26676979E+01   2.12309372E+02  -2.82391853E+01   2.07153580E+02   9.08869267E+00  -9.78917503E+00
             2767                3   2.19902176E+02   2.07489899E+02   2.07489899E+02  -2.94635963E+01   9.97678471E+00   2.07489899E+02   2.07489899E+02   9.97678471E+00  -2.94635963E+01   2.36953491E+02  -6.26676979E+01   2.11724243E+02  -2.86020985E+01   2.06628403E+02   9.97678471E+00   1.42615929E+01
             2767                4   2.20011932E+02   2.07109390E+02   2.07109390E+02  -3.16332264E+01   1.25269213E+01   2.07109390E+02   2.07109390E+02   1.25269213E+01  -3.16332264E+01   2.38742615E+02  -6.26676941E+01   2.09690033E+02  -3.16312485E+01   2.07107407E+02   1.25269213E+01   6.88664436E-01
             2768                1   2.20000000E+02   1.79293045E+02   1.79293045E+02  -4.13237991E+01  -4.00848885E+01   1.79293045E+02   1.79293045E+02  -4.00848885E+01  -4.13237991E+01   2.20616837E+02  -3.26281166E+01   2.19992142E+02  -4.09444389E+01   1.78913681E+02  -4.00848885E+01  -9.14048672E+00
             2768                2   2.20000000E+02   1.79246506E+02   1.79246506E+02  -4.39398689E+01  -3.74222832E+01   1.79246506E+02   1.79246506E+02  -3.74222832E+01  -4.39398689E+01   2.23186386E+02  -3.26281166E+01   2.19782639E+02  -4.37017136E+01   1.79008362E+02  -3.74222832E+01  -7.28661966E+00
             2768                3   2.20000000E+02   1.79294296E+02   1.79294296E+02  -4.03785858E+01  -4.10313530E+01   1.79294296E+02   1.79294296E+02  -4.03785858E+01  -4.10313530E+01   2.20325653E+02  -3.26281166E+01   2.19997818E+02  -4.03165169E+01   1.79232224E+02  -4.10313530E+01  -3.69215798E+00
             2768                4   2.20000000E+02   1.79268234E+02   1.79268234E+02  -4.31085091E+01  -3.82753601E+01   1.79268234E+02   1.79268234E+02  -3.82753601E+01  -4.31085091E+01   2.22376755E+02  -3.26281242E+01   2.19880493E+02  -4.30905685E+01   1.79250290E+02  -3.82753601E+01  -1.99780560E+00
             2769                1   2.20000000E+02   2.18025497E+02   2.18025497E+02  -1.99758778E+01   2.21059818E+01   2.18025497E+02   2.18025497E+02   2.21059818E+01  -1.99758778E+01   2.38001373E+02  -7.33852005E+01   2.10657425E+02  -1.89795113E+01   2.17029129E+02   2.21059818E+01  -1.53670073E+01
             2769                2   2.20000000E+02   2.17641571E+02   2.17641571E+02  -2.16756458E+01   2.41896687E+01   2.17641571E+02   2.17641571E+02   2.41896687E+01  -2.16756458E+01   2.39317215E+02  -7.33852005E+01   2.08832794E+02  -2.13904877E+01   2.17356415E+02   2.41896687E+01  -8.25601482E+00
             2769                3   2.20000000E+02   2.18437851E+02   2.18437851E+02  -1.79328537E+01   1.96505985E+01   2.18437851E+02   2.18437851E+02   1.96505985E+01  -1.79328537E+01   2.36370712E+02  -7.33852005E+01   2.12596786E+02  -1.76957245E+01   2.18200729E+02   1.96505985E+01  -7.48291445E+00
             2769                4   2.20000000E+02   2.18025894E+02   2.18025894E+02  -1.99740887E+01   2.21037998E+01   2.18025894E+02   2.18025894E+02   2.21037998E+01  -1.99740887E+01   2.37999985E+02  -7.33852005E+01   2.10659256E+02  -1.99736462E+01   2.18025452E+02   2.21037998E+01  -3.23977947E-01
             2770                1   2.20000000E+02   1.64268478E+02   1.64268478E+02  -5.52410126E+01  -5.62187691E+01   1.64268478E+02   1.64268478E+02  -5.52410126E+01  -5.62187691E+01   2.20487244E+02  -1.76028996E+01   2.19995102E+02  -5.50567017E+01   1.64084167E+02  -5.62187691E+01  -6.35797215E+00
             2770                2   2.20000000E+02   1.64236984E+02   1.64236984E+02  -5.83911743E+01  -5.30371094E+01   1.64236984E+02   1.64236984E+02  -5.30371094E+01  -5.83911743E+01   2.22628159E+02  -1.76028996E+01   2.19853333E+02  -5.82938881E+01   1.64139694E+02  -5.30371094E+01  -4.65300369E+00
             2770                3   2.20000000E+02   1.64261322E+02   1.64261322E+02  -5.43803215E+01  -5.70723076E+01   1.64261322E+02   1.64261322E+02  -5.43803215E+01  -5.70723076E+01   2.21333633E+02  -1.76028996E+01   2.19962936E+02  -5.43802261E+01   1.64261230E+02  -5.70723076E+01   1.46745041E-01
             2770                4   2.20000000E+02   1.64252747E+02   1.64252747E+02  -5.76453285E+01  -5.37987213E+01   1.64252747E+02   1.64252747E+02  -5.37987213E+01  -5.76453285E+01   2.21898071E+02  -1.76028996E+01   2.19924316E+02  -5.76333046E+01   1.64240723E+02  -5.37987213E+01   1.63358963E+00
             2771                1   2.20000000E+02   1.67372559E+02   1.67372559E+02  -5.38238106E+01  -5.14112244E+01   1.67372559E+02   1.67372559E+02  -5.14112244E+01  -5.38238106E+01   2.21196381E+02  -2.07125092E+01   2.19970230E+02  -5.34848328E+01   1.67033585E+02  -5.14112244E+01  -8.65250778E+00
             2771                2   2.20000000E+02   1.67298141E+02   1.67298141E+02  -5.68019676E+01  -4.83586540E+01   1.67298141E+02   1.67298141E+02  -4.83586540E+01  -5.68019676E+01   2.24100098E+02  -2.07125053E+01   2.19635010E+02  -5.66399956E+01   1.67136169E+02  -4.83586540E+01  -6.02250862E+00
             2771                3   2.20000000E+02   1.67379089E+02   1.67379089E+02  -5.24835472E+01  -5.27580223E+01   1.67379089E+02   1.67379089E+02  -5.24835472E+01  -5.27580223E+01   2.20137115E+02  -2.07125072E+01   2.19999619E+02  -5.24594040E+01   1.67354950E+02  -5.27580223E+01  -2.30366921E+00
             2771                4   2.20000000E+02   1.67337234E+02   1.67337234E+02  -5.56376762E+01  -4.95620155E+01   1.67337234E+02   1.67337234E+02  -4.95620155E+01  -5.56376762E+01   2.22974899E+02  -2.07125130E+01   2.19811127E+02  -5.56375923E+01   1.67337143E+02  -4.95620155E+01   1.38592243E-01
             2772                1   2.20000000E+02   2.08635971E+02   2.08635971E+02  -2.73431225E+01   9.18846130E+00   2.08635971E+02   2.08635971E+02   9.18846130E+00  -2.73431225E+01   2.35979095E+02  -6.34937706E+01   2.13015244E+02  -2.73336639E+01   2.08626511E+02   9.18846130E+00   1.49398959E+00
             2772                2   2.20000000E+02   2.07988556E+02   2.07988556E+02  -3.05314865E+01   1.30242319E+01   2.07988556E+02   2.07988556E+02   1.30242319E+01  -3.05314865E+01   2.38520050E+02  -6.34937706E+01   2.09968079E+02  -2.97103062E+01   2.07167389E+02   1.30242319E+01  -1.39711170E+01
             2772                3   2.20000000E+02   2.07733353E+02   2.07733353E+02  -3.16377468E+01   1.43856983E+01   2.07733353E+02   2.07733353E+02   1.43856983E+01  -3.16377468E+01   2.39371109E+02  -6.34937706E+01   2.08752579E+02  -3.07740135E+01   2.06869629E+02   1.43856983E+01   1.43529110E+01
             2772                4   2.20000000E+02   2.07162262E+02   2.07162262E+02  -3.38915367E+01   1.72105770E+01   2.07162262E+02   2.07162262E+02   1.72105770E+01  -3.38915367E+01   2.41053802E+02  -6.34937630E+01   2.06001648E+02  -3.38895035E+01   2.07160233E+02   1.72105770E+01  -6.98818386E-01
             2773                1   2.20000000E+02   1.77065720E+02   1.77065720E+02  -4.23271370E+01  -4.35364227E+01   1.77065720E+02   1.77065720E+02  -4.23271370E+01  -4.35364227E+01   2.20602142E+02  -3.04007206E+01   2.19992508E+02  -4.21334724E+01   1.76872055E+02  -4.35364227E+01  -6.51549006E+00
             2773                2   2.20000000E+02   1.77046402E+02   1.77046402E+02  -4.50710564E+01  -4.07731781E+01   1.77046402E+02   1.77046402E+02  -4.07731781E+01  -4.50710564E+01   2.22117462E+02  -3.04007206E+01   2.19905518E+02  -4.49422531E+01   1.76917603E+02  -4.07731781E+01  -5.34709978E+00
             2773                3   2.20000000E+02   1.77060974E+02   1.77060974E+02  -4.17425270E+01  -4.41162910E+01   1.77060974E+02   1.77060974E+02  -4.17425270E+01  -4.41162910E+01   2.21177277E+02  -3.04007206E+01   2.19971176E+02  -4.17384644E+01   1.77056915E+02  -4.41162910E+01  -9.42857146E-01
             2773                4   2.20000000E+02   1.77055298E+02   1.77055298E+02  -4.45580978E+01  -4.12950134E+01   1.77055298E+02   1.77055298E+02  -4.12950134E+01  -4.45580978E+01   2.21613388E+02  -3.04007263E+01   2.19945541E+02  -4.45580978E+01   1.77055283E+02  -4.12950134E+01   4.54371423E-02
             2774                1   2.20000000E+02   2.19549011E+02   2.19549011E+02   1.72760233E-01  -1.06948292E+00   2.19549011E+02   2.19549011E+02   1.72760233E-01  -1.06948292E+00   2.20618500E+02  -7.28840942E+01   2.19992111E+02   5.01609862E-01   2.19220154E+02  -1.06948292E+00  -8.48736191E+00
             2774                2   2.20000000E+02   2.19545959E+02   2.19545959E+02   5.81976652E-01  -1.47564995E+00   2.19545959E+02   2.19545959E+02   5.81976652E-01  -1.47564995E+00   2.21021606E+02  -7.28840942E+01   2.19978348E+02   9.03778791E-01   2.19224152E+02  -1.47564995E+00  -8.38804913E+00
             2774                3   2.20000000E+02   2.19548782E+02   2.19548782E+02   2.12664336E-01  -1.10915971E+00   2.19548782E+02   2.19548782E+02   2.12664336E-01  -1.10915971E+00   2.20657944E+02  -7.28840942E+01   2.19991074E+02   6.01925671E-01   2.19159515E+02  -1.10915971E+00  -9.23191261E+00
             2774                4   2.20000000E+02   2.19545563E+02   2.19545563E+02   6.22687876E-01  -1.51596940E+00   2.19545563E+02   2.19545563E+02   6.22687876E-01  -1.51596940E+00   2.21061523E+02  -7.28840866E+01   2.19976608E+02   1.00463390E+00   2.19163605E+02  -1.51596940E+00  -9.13629436E+00
             2775                1   2.20000000E+02   1.82368881E+02   1.82368881E+02  -3.98407974E+01  -3.53527756E+01   1.82368881E+02   1.82368881E+02  -3.53527756E+01  -3.98407974E+01   2.22209671E+02  -3.57251015E+01   2.19896957E+02  -3.92594795E+01   1.81787552E+02  -3.53527756E+01  -1.13506594E+01
             2775                2   2.20000000E+02   1.82288956E+02   1.82288956E+02  -4.23117218E+01  -3.28019447E+01   1.82288956E+02   1.82288956E+02  -3.28019447E+01  -4.23117218E+01   2.24600677E+02  -3.57250977E+01   2.19536835E+02  -4.19572983E+01   1.81934540E+02  -3.28019447E+01  -8.91497135E+00
             2775                3   2.20000000E+02   1.82387146E+02   1.82387146E+02  -3.86137276E+01  -3.65981255E+01   1.82387146E+02   1.82387146E+02  -3.65981255E+01  -3.86137276E+01   2.21000885E+02  -3.57250977E+01   2.19979233E+02  -3.84485283E+01   1.82221954E+02  -3.65981255E+01  -6.03995895E+00
             2775                4   2.20000000E+02   1.82331131E+02   1.82331131E+02  -4.12300224E+01  -3.39258118E+01   1.82331131E+02   1.82331131E+02  -3.39258118E+01  -4.12300224E+01   2.23561142E+02  -3.57250977E+01   2.19726944E+02  -4.11674576E+01   1.82268570E+02  -3.39258118E+01  -3.73917317E+00
             2776                1   2.20000000E+02   2.26916168E+02   2.26916168E+02  -7.52742052E+00   2.49763107E+01   2.26916168E+02   2.26916168E+02   2.49763107E+01  -7.52742052E+00   2.34443588E+02  -8.14550171E+01   2.14498016E+02  -7.39147139E+00   2.26780212E+02   2.49763107E+01  -5.64407444E+00
             2776                2   2.20000000E+02   2.27073822E+02   2.27073822E+02  -6.51051092E+00   2.38017464E+01   2.27073822E+02   2.27073822E+02   2.38017464E+01  -6.51051092E+00   2.33584335E+02  -8.14550171E+01   2.15226578E+02  -6.15810776E+00   2.26721420E+02   2.38017464E+01  -9.06591320E+00
             2776                3   2.20000000E+02   2.26726074E+02   2.26726074E+02  -8.66117001E+00   2.63001518E+01   2.26726074E+02   2.26726074E+02   2.63001518E+01  -8.66117001E+00   2.35387253E+02  -8.14550247E+01   2.13615707E+02  -8.36278057E+00   2.26427689E+02   2.63001518E+01  -8.37547970E+00
             2776                4   2.20000000E+02   2.26882385E+02   2.26882385E+02  -7.73575974E+00   2.52184258E+01   2.26882385E+02   2.26882385E+02   2.52184258E+01  -7.73575974E+00   2.34618134E+02  -8.14550171E+01   2.14341507E+02  -7.14834118E+00   2.26294968E+02   2.52184258E+01  -1.17248821E+01
             2777                1   2.20000000E+02   1.89783737E+02   1.89783737E+02  -3.47523651E+01  -2.53806477E+01   1.89783737E+02   1.89783737E+02  -2.53806477E+01  -3.47523651E+01   2.24536102E+02  -4.32169075E+01   2.19550217E+02  -3.45943565E+01   1.89625732E+02  -2.53806477E+01  -5.95419264E+00
             2777                2   2.20000000E+02   1.89858810E+02   1.89858810E+02  -3.24386101E+01  -2.77694683E+01   1.89858810E+02   1.89858810E+02  -2.77694683E+01  -3.24386101E+01   2.22297409E+02  -4.32169075E+01   2.19888489E+02  -3.21188431E+01   1.89539047E+02  -2.77694683E+01  -8.42492294E+00
             2777                3   2.20000000E+02   1.89728302E+02   1.89728302E+02  -3.58818665E+01  -2.41957092E+01   1.89728302E+02   1.89728302E+02  -2.41957092E+01  -3.58818665E+01   2.25610168E+02  -4.32169075E+01   2.19300034E+02  -3.53796272E+01   1.89226059E+02  -2.41957092E+01  -1.06329050E+01
             2777                4   2.20000000E+02   1.89824066E+02   1.89824066E+02  -3.37044563E+01  -2.64688835E+01   1.89824066E+02   1.89824066E+02  -2.64688835E+01  -3.37044563E+01   2.23528534E+02  -4.32169075E+01   2.19732040E+02  -3.29216652E+01   1.89041275E+02  -2.64688835E+01  -1.32047138E+01
             2778                1   2.20000000E+02   2.14066040E+02   2.14066040E+02   2.33326507E+00  -1.33606977E+01   2.14066040E+02   2.14066040E+02   2.33326507E+00  -1.33606977E+01   2.27426743E+02  -6.76795349E+01   2.18735245E+02   2.57888174E+00   2.13820419E+02  -1.33606977E+01  -7.20736217E+00
             2778                2   2.20000000E+02   2.14050949E+02   2.14050949E+02   2.54945970E+00  -1.35617809E+01   2.14050949E+02   2.14050949E+02   2.54945970E+00  -1.35617809E+01   2.27612717E+02  -6.76795425E+01   2.18666809E+02   2.70064616E+00   2.13899750E+02  -1.35617809E+01  -5.65285254E+00
             2778                3   2.20000000E+02   2.14006500E+02   2.14006500E+02   3.15592599E+00  -1.41238232E+01   2.14006500E+02   2.14006500E+02   3.15592599E+00  -1.41238232E+01   2.28130325E+02  -6.76795349E+01   2.18465393E+02   3.42593789E+00   2.13736496E+02  -1.41238232E+01  -7.54045296E+00
             2778                4   2.20000000E+02   2.13989319E+02   2.13989319E+02   3.37995291E+00  -1.43306684E+01   2.13989319E+02   2.13989319E+02   3.37995291E+00  -1.43306684E+01   2.28319992E+02  -6.76795349E+01   2.18387482E+02   3.54935694E+00   2.13819916E+02  -1.43306684E+01  -5.97080040E+00
             2779                1   2.20000000E+02   2.37713593E+02   2.37713593E+02  -1.58446145E+00   4.42247009E+01   2.37713593E+02   2.37713593E+02   4.42247009E+01  -1.58446145E+00   2.39298065E+02  -9.34512711E+01   2.08861206E+02  -1.57573462E+00   2.37704865E+02   4.42247009E+01  -1.44550705E+00
             2779                2   2.20000000E+02   2.37932770E+02   2.37932770E+02  -6.33447945E-01   4.30545273E+01   2.37932770E+02   2.37932770E+02   4.30545273E+01  -6.33447945E-01   2.38566208E+02  -9.34512863E+01   2.09904877E+02  -5.11263192E-01   2.37810577E+02   4.30545273E+01  -5.39766121E+00
             2779                3   2.20000000E+02   2.37445831E+02   2.37445831E+02  -2.68125439E+00   4.55892677E+01   2.37445831E+02   2.37445831E+02   4.55892677E+01  -2.68125439E+00   2.40127075E+02  -9.34512863E+01   2.07577530E+02  -2.60069489E+00   2.37365265E+02   4.55892677E+01  -4.39755869E+00
             2779                4   2.20000000E+02   2.37658249E+02   2.37658249E+02  -1.81675053E+00   4.45123482E+01   2.37658249E+02   2.37658249E+02   4.45123482E+01  -1.81675053E+00   2.39474991E+02  -9.34512863E+01   2.08596588E+02  -1.52876699E+00   2.37370255E+02   4.45123482E+01  -8.29957390E+00
             2780                1   2.20000000E+02   1.74935913E+02   1.74935913E+02  -4.58434944E+01  -4.42762947E+01   1.74935913E+02   1.74935913E+02  -4.42762947E+01  -4.58434944E+01   2.20779419E+02  -2.82720432E+01   2.19987442E+02  -4.54752655E+01   1.74567688E+02  -4.42762947E+01  -9.00898838E+00
             2780                2   2.20000000E+02   1.74881226E+02   1.74881226E+02  -4.85883064E+01  -4.14767914E+01   1.74881226E+02   1.74881226E+02  -4.14767914E+01  -4.85883064E+01   2.23469543E+02  -2.82720432E+01   2.19741165E+02  -4.83721657E+01   1.74665085E+02  -4.14767914E+01  -6.94660187E+00
             2780                3   2.20000000E+02   1.74938385E+02   1.74938385E+02  -4.47919617E+01  -4.53302841E+01   1.74938385E+02   1.74938385E+02  -4.47919617E+01  -4.53302841E+01   2.20268661E+02  -2.82720470E+01   2.19998520E+02  -4.47440109E+01   1.74890427E+02  -4.53302841E+01  -3.24584270E+00
             2780                4   2.20000000E+02   1.74907440E+02   1.74907440E+02  -4.76680756E+01  -4.24232368E+01   1.74907440E+02   1.74907440E+02  -4.24232368E+01  -4.76680756E+01   2.22575516E+02  -2.82720432E+01   2.19859253E+02  -4.76598244E+01   1.74899185E+02  -4.24232368E+01  -1.35559869E+00
             2781                1   2.20000000E+02   1.75884338E+02   1.75884338E+02  -4.27275963E+01  -4.54779625E+01   1.75884338E+02   1.75884338E+02  -4.27275963E+01  -4.54779625E+01   2.21362289E+02  -2.92262573E+01   2.19961319E+02  -4.26846581E+01   1.75841400E+02  -4.54779625E+01  -3.06334043E+00
             2781                2   2.20000000E+02   1.75883423E+02   1.75883423E+02  -4.55490685E+01  -4.26555748E+01   1.75883423E+02   1.75883423E+02  -4.26555748E+01  -4.55490685E+01   2.21432480E+02  -2.92262573E+01   2.19957199E+02  -4.55204849E+01   1.75854843E+02  -4.26555748E+01  -2.51523685E+00
             2781                3   2.20000000E+02   1.75881134E+02   1.75881134E+02  -4.24908104E+01  -4.57115440E+01   1.75881134E+02   1.75881134E+02  -4.24908104E+01  -4.57115440E+01   2.21592682E+02  -2.92262573E+01   2.19946945E+02  -4.24606094E+01   1.75850922E+02  -4.57115440E+01   2.56827402E+00
             2781                4   2.20000000E+02   1.75885956E+02   1.75885956E+02  -4.53416214E+01  -4.28655548E+01   1.75885956E+02   1.75885956E+02  -4.28655548E+01  -4.53416214E+01   2.21227585E+02  -2.92262630E+01   2.19968643E+02  -4.53029099E+01   1.75847244E+02  -4.28655548E+01   2.92643118E+00
             2782                1   2.20000000E+02   1.86332352E+02   1.86332352E+02  -3.87058868E+01  -2.82570419E+01   1.86332352E+02   1.86332352E+02  -2.82570419E+01  -3.87058868E+01   2.25038239E+02  -3.97898064E+01   2.19440674E+02  -3.85908966E+01   1.86217361E+02  -2.82570419E+01  -5.08565092E+00
             2782                2   2.20000000E+02   1.86422638E+02   1.86422638E+02  -3.62548485E+01  -3.07983665E+01   1.86422638E+02   1.86422638E+02  -3.07983665E+01  -3.62548485E+01   2.22677490E+02  -3.97898064E+01   2.19847687E+02  -3.59666977E+01   1.86134491E+02  -3.07983665E+01  -8.00500393E+00
             2782                3   2.20000000E+02   1.86260330E+02   1.86260330E+02  -4.00122871E+01  -2.68786182E+01   1.86260330E+02   1.86260330E+02  -2.68786182E+01  -4.00122871E+01   2.26272614E+02  -3.97898102E+01   2.19115372E+02  -3.95627708E+01   1.85810822E+02  -2.68786182E+01  -1.00752268E+01
             2782                4   2.20000000E+02   1.86375153E+02   1.86375153E+02  -3.77322693E+01  -2.92734489E+01   1.86375153E+02   1.86375153E+02  -2.92734489E+01  -3.77322693E+01   2.24107422E+02  -3.97898102E+01   2.19633682E+02  -3.69646721E+01   1.85607559E+02  -2.92734489E+01  -1.30932741E+01
             2783                1   2.20000000E+02   1.78538101E+02   1.78538101E+02  -4.40273895E+01  -3.88033447E+01   1.78538101E+02   1.78538101E+02  -3.88033447E+01  -4.40273895E+01   2.22565491E+02  -3.19024563E+01   2.19860367E+02  -4.34730263E+01   1.77983734E+02  -3.88033447E+01  -1.10939617E+01
             2783                2   2.20000000E+02   1.78445236E+02   1.78445236E+02  -4.65882759E+01  -3.61496010E+01   1.78445236E+02   1.78445236E+02  -3.61496010E+01  -4.65882759E+01   2.25033508E+02  -3.19024563E+01   2.19441757E+02  -4.62795143E+01   1.78136475E+02  -3.61496010E+01  -8.32988262E+00
             2783                3   2.20000000E+02   1.78562454E+02   1.78562454E+02  -4.26387138E+01  -4.02163811E+01   1.78562454E+02   1.78562454E+02  -4.02163811E+01  -4.26387138E+01   2.21201172E+02  -3.19024506E+01   2.19970001E+02  -4.25005569E+01   1.78424301E+02  -4.02163811E+01  -5.52627850E+00
             2783                4   2.20000000E+02   1.78497330E+02   1.78497330E+02  -4.53686028E+01  -3.74213676E+01   1.78497330E+02   1.78497330E+02  -3.74213676E+01  -4.53686028E+01   2.23865936E+02  -3.19024506E+01   2.19676682E+02  -4.53309898E+01   1.78459717E+02  -3.74213676E+01  -2.90141869E+00
             2784                1   2.20000000E+02   2.31382965E+02   2.31382965E+02  -1.27749414E+01   4.85570869E+01   2.31382965E+02   2.31382965E+02   4.85570869E+01  -1.27749414E+01   2.44157898E+02  -8.90550308E+01   1.99362839E+02  -1.27393579E+01   2.31347382E+02   4.85570869E+01   2.94706535E+00
             2784                2   2.20000000E+02   2.31893570E+02   2.31893570E+02  -1.11947498E+01   4.64662971E+01   2.31893570E+02   2.31893570E+02   4.64662971E+01  -1.11947498E+01   2.43088318E+02  -8.90550461E+01   2.01923004E+02  -1.11272278E+01   2.31826050E+02   4.64662971E+01  -4.05084658E+00
             2784                3   2.20000000E+02   2.30825287E+02   2.30825287E+02  -1.43759394E+01   5.07157707E+01   2.30825287E+02   2.30825287E+02   5.07157707E+01  -1.43759394E+01   2.45201218E+02  -8.90550308E+01   1.96518967E+02  -1.43436680E+01   2.30793015E+02   5.07157707E+01  -2.81257129E+00
             2784                4   2.20000000E+02   2.31293839E+02   2.31293839E+02  -1.30389328E+01   4.89102058E+01   2.31293839E+02   2.31293839E+02   4.89102058E+01  -1.30389328E+01   2.44332779E+02  -8.90550461E+01   1.98911774E+02  -1.26530342E+01   2.30907944E+02   4.89102058E+01  -9.70255947E+00
             2785                1   2.20000000E+02   2.16010391E+02   2.16010391E+02  -2.55888252E+01   2.72228374E+01   2.16010391E+02   2.16010391E+02   2.72228374E+01  -2.55888252E+01   2.41599213E+02  -7.25481339E+01   2.04997345E+02  -2.51274414E+01   2.15549011E+02   2.72228374E+01   1.05478430E+01
             2785                2   2.20000000E+02   2.16832809E+02   2.16832809E+02  -2.23929577E+01   2.32045555E+01   2.16832809E+02   2.16832809E+02   2.32045555E+01  -2.23929577E+01   2.39225769E+02  -7.25481339E+01   2.08967911E+02  -2.23927746E+01   2.16832626E+02   2.32045555E+01  -2.08170757E-01
             2785                3   2.20000000E+02   2.15328949E+02   2.15328949E+02  -2.78864346E+01   3.02018909E+01   2.15328949E+02   2.15328949E+02   3.02018909E+01  -2.78864346E+01   2.43215393E+02  -7.25481339E+01   2.01635635E+02  -2.78820744E+01   2.15324600E+02   3.02018909E+01  -1.02910972E+00
             2785                4   2.20000000E+02   2.16107071E+02   2.16107071E+02  -2.52401505E+01   2.67774982E+01   2.16107071E+02   2.16107071E+02   2.67774982E+01  -2.52401505E+01   2.41347214E+02  -7.25481339E+01   2.05468826E+02  -2.46102009E+01   2.15477112E+02   2.67774982E+01  -1.23142300E+01
             2786                1   2.20000000E+02   2.21987961E+02   2.21987961E+02  -9.82967472E+00   1.61044674E+01   2.21987961E+02   2.21987961E+02   1.61044674E+01  -9.82967472E+00   2.31817627E+02  -7.60875778E+01   2.16520935E+02  -9.61155033E+00   2.21769836E+02   1.61044674E+01  -7.10746098E+00
             2786                2   2.20000000E+02   2.22132812E+02   2.22132812E+02  -8.61530590E+00   1.47452650E+01   2.22132812E+02   2.22132812E+02   1.47452650E+01  -8.61530590E+00   2.30748108E+02  -7.60875931E+01   2.17183350E+02  -8.11807919E+00   2.21635574E+02   1.47452650E+01  -1.06999311E+01
             2786                3   2.20000000E+02   2.21830276E+02   2.21830276E+02  -1.10187302E+01   1.74512119E+01   2.21830276E+02   2.21830276E+02   1.74512119E+01  -1.10187302E+01   2.32848999E+02  -7.60875854E+01   2.15797165E+02  -1.05554991E+01   2.21367035E+02   1.74512119E+01  -1.03754044E+01
             2786                4   2.20000000E+02   2.21978256E+02   2.21978256E+02  -9.90631866E+00   1.61908035E+01   2.21978256E+02   2.21978256E+02   1.61908035E+01  -9.90631866E+00   2.31884583E+02  -7.60875854E+01   2.16476517E+02  -9.06535149E+00   2.21137299E+02   1.61908035E+01  -1.39391403E+01
             2787                1   2.20000000E+02   1.62859665E+02   1.62859665E+02  -6.14290504E+01  -5.25848694E+01   1.62859665E+02   1.62859665E+02  -5.25848694E+01  -6.14290504E+01   2.24288727E+02  -1.62819157E+01   2.19599487E+02  -6.11157875E+01   1.62546402E+02  -5.25848694E+01  -8.37640762E+00
             2787                2   2.20000000E+02   1.62687164E+02   1.62687164E+02  -6.45009003E+01  -4.93405228E+01   1.62687164E+02   1.62687164E+02  -4.93405228E+01  -6.45009003E+01   2.27188065E+02  -1.62819157E+01   2.18820129E+02  -6.44422531E+01   1.62628525E+02  -4.93405228E+01  -3.64973164E+00
             2787                3   2.20000000E+02   1.62929352E+02   1.62929352E+02  -5.90983925E+01  -5.49852219E+01   1.62929352E+02   1.62929352E+02  -5.49852219E+01  -5.90983925E+01   2.22027756E+02  -1.62819138E+01   2.19913467E+02  -5.90885887E+01   1.62919556E+02  -5.49852219E+01  -1.47506738E+00
             2787                4   2.20000000E+02   1.62811234E+02   1.62811234E+02  -6.24784050E+01  -5.14870872E+01   1.62811234E+02   1.62811234E+02  -5.14870872E+01  -6.24784050E+01   2.25289642E+02  -1.62819118E+01   2.19380966E+02  -6.24351616E+01   1.62767990E+02  -5.14870872E+01   3.12088013E+00
             2788                1   2.20000000E+02   2.33258408E+02   2.33258408E+02  -5.19798803E+00   3.81756973E+01   2.33258408E+02   2.33258408E+02   3.81756973E+01  -5.19798803E+00   2.38456406E+02  -8.87453690E+01   2.10054688E+02  -5.16778421E+00   2.33228210E+02   3.81756973E+01  -2.68348551E+00
             2788                2   2.20000000E+02   2.33480194E+02   2.33480194E+02  -4.16966677E+00   3.69255943E+01   2.33480194E+02   2.33480194E+02   3.69255943E+01  -4.16966677E+00   2.37649872E+02  -8.87453690E+01   2.11103851E+02  -3.97682500E+00   2.33287354E+02   3.69255943E+01  -6.76700974E+00
             2788                3   2.20000000E+02   2.32987885E+02   2.32987885E+02  -6.37385845E+00   3.96221046E+01   2.32987885E+02   2.32987885E+02   3.96221046E+01  -6.37385845E+00   2.39361740E+02  -8.87453842E+01   2.08766525E+02  -6.23416519E+00   2.32848190E+02   3.96221046E+01  -5.78088474E+00
             2788                4   2.20000000E+02   2.33203232E+02   2.33203232E+02  -5.44438648E+00   3.84772835E+01   2.33203232E+02   2.33203232E+02   3.84772835E+01  -5.44438648E+00   2.38647629E+02  -8.87453842E+01   2.09792679E+02  -5.04106617E+00   2.32799911E+02   3.84772835E+01  -9.80254555E+00
             2789                1   2.20000000E+02   1.71190628E+02   1.71190628E+02  -5.65870819E+01  -4.01045189E+01   1.71190628E+02   1.71190628E+02  -4.01045189E+01  -5.65870819E+01   2.27777710E+02  -2.48330078E+01   2.18604370E+02  -5.65754395E+01   1.71178986E+02  -4.01045189E+01   1.62855482E+00
             2789                2   2.20000000E+02   1.71383041E+02   1.71383041E+02  -5.35063667E+01  -4.33776588E+01   1.71383041E+02   1.71383041E+02  -4.33776588E+01  -5.35063667E+01   2.24889420E+02  -2.48330078E+01   2.19474472E+02  -5.34476738E+01   1.71324356E+02  -4.33776588E+01  -3.63251758E+00
             2789                3   2.20000000E+02   1.70993835E+02   1.70993835E+02  -5.87874222E+01  -3.77073936E+01   1.70993835E+02   1.70993835E+02  -3.77073936E+01  -5.87874222E+01   2.29781265E+02  -2.48330078E+01   2.17710464E+02  -5.86863060E+01   1.70892731E+02  -3.77073936E+01  -4.81906652E+00
             2789                4   2.20000000E+02   1.71232010E+02   1.71232010E+02  -5.60366898E+01  -4.06963005E+01   1.71232010E+02   1.71232010E+02  -4.06963005E+01  -5.60366898E+01   2.27268707E+02  -2.48330078E+01   2.18791840E+02  -5.55812683E+01   1.70776596E+02  -4.06963005E+01  -1.01634378E+01
             2790                1   2.20000000E+02   1.71051056E+02   1.71051056E+02  -5.04548492E+01  -4.74114723E+01   1.71051056E+02   1.71051056E+02  -4.74114723E+01  -5.04548492E+01   2.21505905E+02  -2.43949127E+01   2.19952637E+02  -5.04270172E+01   1.71023224E+02  -4.74114723E+01  -2.48284221E+00
             2790                2   2.20000000E+02   1.71053787E+02   1.71053787E+02  -5.02431946E+01  -4.76258736E+01   1.71053787E+02   1.71053787E+02  -4.76258736E+01  -5.02431946E+01   2.21296982E+02  -2.43949070E+01   2.19964966E+02  -5.01950493E+01   1.71005646E+02  -4.76258736E+01   3.26363778E+00
             2790                3   2.20000000E+02   1.71052017E+02   1.71052017E+02  -4.74835434E+01  -5.03837471E+01   1.71052017E+02   1.71052017E+02  -4.74835434E+01  -5.03837471E+01   2.21435760E+02  -2.43949070E+01   2.19956970E+02  -4.74409180E+01   1.71009384E+02  -5.03837471E+01  -3.05178905E+00
             2790                4   2.20000000E+02   1.71048584E+02   1.71048584E+02  -4.72407951E+01  -5.06230583E+01   1.71048584E+02   1.71048584E+02  -4.72407951E+01  -5.06230583E+01   2.21671631E+02  -2.43949070E+01   2.19941498E+02  -4.72022247E+01   1.71010010E+02  -5.06230583E+01   2.90133286E+00
             2791                1   2.20000000E+02   2.38859528E+02   2.38859528E+02  -1.71281993E+00   4.79071579E+01   2.38859528E+02   2.38859528E+02   4.79071579E+01  -1.71281993E+00   2.40572357E+02  -9.50179520E+01   2.06839981E+02  -1.71028960E+00   2.38857010E+02   4.79071579E+01  -7.79121518E-01
             2791                2   2.20000000E+02   2.39110916E+02   2.39110916E+02  -7.19162285E-01   4.66621132E+01   2.39110916E+02   2.39110916E+02   4.66621132E+01  -7.19162285E-01   2.39830078E+02  -9.50179520E+01   2.08050430E+02  -6.11834347E-01   2.39003586E+02   4.66621132E+01  -5.07243490E+00
             2791                3   2.20000000E+02   2.38557388E+02   2.38557388E+02  -2.84117913E+00   4.93376732E+01   2.38557388E+02   2.38557388E+02   4.93376732E+01  -2.84117913E+00   2.41398560E+02  -9.50179520E+01   2.05373810E+02  -2.77399182E+00   2.38490189E+02   4.93376732E+01  -4.02686501E+00
             2791                4   2.20000000E+02   2.38798676E+02   2.38798676E+02  -1.94556642E+00   4.82007675E+01   2.38798676E+02   2.38798676E+02   4.82007675E+01  -1.94556642E+00   2.40744232E+02  -9.50179520E+01   2.06545654E+02  -1.66163409E+00   2.38514740E+02   4.82007675E+01  -8.26280308E+00
             2792                1   2.20000000E+02   2.17500641E+02   2.17500641E+02  -2.32402039E+01   2.68957233E+01   2.17500641E+02   2.17500641E+02   2.68957233E+01  -2.32402039E+01   2.40740845E+02  -7.37187195E+01   2.06551498E+02  -2.31834641E+01   2.17443893E+02   2.68957233E+01   3.69572902E+00
             2792                2   2.20000000E+02   2.18114410E+02   2.18114410E+02  -2.07444668E+01   2.37861938E+01   2.18114410E+02   2.18114410E+02   2.37861938E+01  -2.07444668E+01   2.38858887E+02  -7.37187119E+01   2.09497116E+02  -2.06131420E+01   2.17983093E+02   2.37861938E+01  -5.59914923E+00
             2792                3   2.20000000E+02   2.16976791E+02   2.16976791E+02  -2.51348896E+01   2.93142471E+01   2.16976791E+02   2.16976791E+02   2.93142471E+01  -2.51348896E+01   2.42111679E+02  -7.37187195E+01   2.03997101E+02  -2.50302734E+01   2.16872177E+02   2.93142471E+01  -5.03167677E+00
             2792                4   2.20000000E+02   2.17538422E+02   2.17538422E+02  -2.30959892E+01   2.67137108E+01   2.17538422E+02   2.17538422E+02   2.67137108E+01  -2.30959892E+01   2.40634399E+02  -7.37187119E+01   2.06734283E+02  -2.22437458E+01   2.16686172E+02   2.67137108E+01  -1.42952166E+01
             2793                1   2.20000000E+02   2.21061203E+02   2.21061203E+02   1.23972118E+00   8.83125782E-01   2.21061203E+02   2.21061203E+02   1.23972118E+00   8.83125782E-01   2.20178070E+02  -7.43946838E+01   2.19999329E+02   1.96567893E+00   2.20335236E+02   8.83125782E-01  -1.26117001E+01
             2793                2   2.20000000E+02   2.21060486E+02   2.21060486E+02   6.26083791E-01   1.49747503E+00   2.21060486E+02   2.21060486E+02   1.49747503E+00   6.26083791E-01   2.20434402E+02  -7.43946838E+01   2.19996109E+02   1.71466303E+00   2.19971909E+02   1.49747503E+00  -1.54523392E+01
             2793                3   2.20000000E+02   2.21058411E+02   2.21058411E+02   2.58690894E-01   1.86693990E+00   2.21058411E+02   2.21058411E+02   1.86693990E+00   2.58690894E-01   2.20799728E+02  -7.43946838E+01   2.19986786E+02   7.80814290E-01   2.20536301E+02   1.86693990E+00  -1.07242994E+01
             2793                4   2.20000000E+02   2.21052994E+02   2.21052994E+02  -2.90233374E-01   2.42129040E+00   2.21052994E+02   2.21052994E+02   2.42129040E+00  -2.90233374E-01   2.21343216E+02  -7.43946838E+01   2.19962387E+02   5.47863603E-01   2.20214890E+02   2.42129040E+00  -1.35943146E+01
             2794                1   2.20000000E+02   1.68152054E+02   1.68152054E+02  -5.13002205E+01  -5.23916092E+01   1.68152054E+02   1.68152054E+02  -5.13002205E+01  -5.23916092E+01   2.20543655E+02  -2.14867401E+01   2.19993912E+02  -5.11118546E+01   1.67963684E+02  -5.23916092E+01  -6.42669630E+00
             2794                2   2.20000000E+02   1.68125229E+02   1.68125229E+02  -5.43220749E+01  -4.93429298E+01   1.68125229E+02   1.68125229E+02  -4.93429298E+01  -5.43220749E+01   2.22447311E+02  -2.14867401E+01   2.19873169E+02  -5.42125626E+01   1.68015717E+02  -4.93429298E+01  -4.93455219E+00
             2794                3   2.20000000E+02   1.68145798E+02   1.68145798E+02  -5.05495644E+01  -5.31360168E+01   1.68145798E+02   1.68145798E+02  -5.05495644E+01  -5.31360168E+01   2.21281815E+02  -2.14867401E+01   2.19965790E+02  -5.05493469E+01   1.68145584E+02  -5.31360168E+01  -2.18951285E-01
             2794                4   2.20000000E+02   1.68138168E+02   1.68138168E+02  -5.36694946E+01  -5.00084534E+01   1.68138168E+02   1.68138168E+02  -5.00084534E+01  -5.36694946E+01   2.21807663E+02  -2.14867401E+01   2.19931427E+02  -5.36643867E+01   1.68133057E+02  -5.00084534E+01   1.06488693E+00
             2795                1   2.20000000E+02   1.60732498E+02   1.60732498E+02  -5.88592796E+01  -5.96734772E+01   1.60732498E+02   1.60732498E+02  -5.88592796E+01  -5.96734772E+01   2.20405975E+02  -1.40665789E+01   2.19996613E+02  -5.86774292E+01   1.60550644E+02  -5.96734772E+01  -6.31664848E+00
             2795                2   2.20000000E+02   1.60695465E+02   1.60695465E+02  -6.21307831E+01  -5.63649406E+01   1.60695465E+02   1.60695465E+02  -5.63649406E+01  -6.21307831E+01   2.22826248E+02  -1.40665808E+01   2.19829910E+02  -6.20440979E+01   1.60608780E+02  -5.63649406E+01  -4.39414644E+00
             2795                3   2.20000000E+02   1.60724625E+02   1.60724625E+02  -5.78853302E+01  -6.06395569E+01   1.60724625E+02   1.60724625E+02  -5.78853302E+01  -6.06395569E+01   2.21364182E+02  -1.40665789E+01   2.19961212E+02  -5.78843231E+01   1.60723618E+02  -6.06395569E+01   4.69569266E-01
             2795                4   2.20000000E+02   1.60714493E+02   1.60714493E+02  -6.12885551E+01  -5.72262077E+01   1.60714493E+02   1.60714493E+02  -5.72262077E+01  -6.12885551E+01   2.22003052E+02  -1.40665779E+01   2.19915588E+02  -6.12674026E+01   1.60693344E+02  -5.72262077E+01   2.16666341E+00
             2796                1   2.20000000E+02   2.18927505E+02   2.18927505E+02  -8.83639240E+00   7.61503315E+00   2.18927505E+02   2.18927505E+02   7.61503315E+00  -8.83639240E+00   2.27763901E+02  -7.25687180E+01   2.18609650E+02  -8.47903252E+00   2.18570145E+02   7.61503315E+00  -9.01473427E+00
             2796                2   2.20000000E+02   2.19023422E+02   2.19023422E+02  -7.48483181E+00   6.16755915E+00   2.19023422E+02   2.19023422E+02   6.16755915E+00  -7.48483181E+00   2.26508255E+02  -7.25687180E+01   2.19043869E+02  -6.82637596E+00   2.18364960E+02   6.16755915E+00  -1.21948090E+01
             2796                3   2.20000000E+02   2.18848053E+02   2.18848053E+02  -9.79606056E+00   8.65416145E+00   2.18848053E+02   2.18848053E+02   8.65416145E+00  -9.79606056E+00   2.28644104E+02  -7.25687180E+01   2.18249207E+02  -9.06591225E+00   2.18117905E+02   8.65416145E+00  -1.28999920E+01
             2796                4   2.20000000E+02   2.18938690E+02   2.18938690E+02  -8.69129944E+00   7.45874977E+00   2.18938690E+02   2.18938690E+02   7.45874977E+00  -8.69129944E+00   2.27629990E+02  -7.25687180E+01   2.18660355E+02  -7.60175562E+00   2.17849152E+02   7.45874977E+00  -1.57106524E+01
             2797                1   2.20000000E+02   2.34201523E+02   2.34201523E+02  -5.58533716E+00   4.16671867E+01   2.34201523E+02   2.34201523E+02   4.16671867E+01  -5.58533716E+00   2.39786850E+02  -9.00944519E+01   2.08118073E+02  -5.57009363E+00   2.34186279E+02   4.16671867E+01  -1.91147780E+00
             2797                2   2.20000000E+02   2.34456863E+02   2.34456863E+02  -4.51335716E+00   4.03398438E+01   2.34456863E+02   2.34456863E+02   4.03398438E+01  -4.51335716E+00   2.38970230E+02  -9.00944519E+01   2.09338654E+02  -4.34503937E+00   2.34288559E+02   4.03398438E+01  -6.33978271E+00
             2797                3   2.20000000E+02   2.33894287E+02   2.33894287E+02  -6.79625416E+00   4.31853294E+01   2.33894287E+02   2.33894287E+02   4.31853294E+01  -6.79625416E+00   2.40690552E+02  -9.00944519E+01   2.06638184E+02  -6.67995596E+00   2.33778000E+02   4.31853294E+01  -5.28931999E+00
             2797                4   2.20000000E+02   2.34140259E+02   2.34140259E+02  -5.83322668E+00   4.19763451E+01   2.34140259E+02   2.34140259E+02   4.19763451E+01  -5.83322668E+00   2.39973495E+02  -9.00944595E+01   2.07823975E+02  -5.44394493E+00   2.33750977E+02   4.19763451E+01  -9.65749168E+00
             2798                1   2.20000015E+02   2.02848312E+02   2.02848312E+02  -3.48408241E+01   6.36414766E+00   2.02848312E+02   2.02848312E+02   6.36414766E+00  -3.48408241E+01   2.37689148E+02  -5.81238823E+01   2.11054810E+02  -3.47779541E+01   2.02785446E+02   6.36414766E+00   3.86520410E+00
             2798                2   2.20000000E+02   2.03413361E+02   2.03413361E+02  -3.18862514E+01   2.84451032E+00   2.03413361E+02   2.03413361E+02   2.84451032E+00  -3.18862514E+01   2.35299622E+02  -5.81238747E+01   2.13701447E+02  -3.17540836E+01   2.03281204E+02   2.84451032E+00  -5.57494497E+00
             2798                3   2.20000000E+02   2.02346893E+02   2.02346893E+02  -3.70771294E+01   9.10187721E+00   2.02346893E+02   2.02346893E+02   9.10187721E+00  -3.70771294E+01   2.39424026E+02  -5.81238823E+01   2.08673340E+02  -3.69745369E+01   2.02244293E+02   9.10187721E+00  -4.95515966E+00
             2798                4   2.20000000E+02   2.02881332E+02   2.02881332E+02  -3.46826019E+01   6.17291021E+00   2.02881332E+02   2.02881332E+02   6.17291021E+00  -3.46826019E+01   2.37563934E+02  -5.81238823E+01   2.11210526E+02  -3.38239784E+01   2.02022705E+02   6.17291021E+00  -1.42562780E+01
             2799                1   2.20000000E+02   1.66612915E+02   1.66612915E+02  -5.49751053E+01  -5.17638931E+01   1.66612915E+02   1.66612915E+02  -5.17638931E+01  -5.49751053E+01   2.21588028E+02  -1.99579754E+01   2.19947266E+02  -5.49498405E+01   1.66587662E+02  -5.17638931E+01  -2.36577153E+00
             2799                2   2.20000000E+02   1.66616379E+02   1.66616379E+02  -5.47184372E+01  -5.20240326E+01   1.66616379E+02   1.66616379E+02  -5.20240326E+01  -5.47184372E+01   2.21334824E+02  -1.99579716E+01   2.19962875E+02  -5.46569328E+01   1.66554886E+02  -5.20240326E+01   3.68892455E+00
             2799                3   2.20000000E+02   1.66614212E+02   1.66614212E+02  -5.18548050E+01  -5.48854713E+01   1.66614212E+02   1.66614212E+02  -5.18548050E+01  -5.48854713E+01   2.21499680E+02  -1.99579792E+01   2.19953033E+02  -5.18123398E+01   1.66571747E+02  -5.48854713E+01  -3.04548788E+00
             2799                4   2.20000000E+02   1.66609772E+02   1.66609772E+02  -5.15591011E+01  -5.51767426E+01   1.66609772E+02   1.66609772E+02  -5.15591011E+01  -5.51767426E+01   2.21786514E+02  -1.99579754E+01   2.19933060E+02  -5.15112381E+01   1.66561905E+02  -5.51767426E+01   3.23095345E+00
             2800                1   2.20000000E+02   2.39900024E+02   2.39900024E+02  -1.83719599E+00   5.14123535E+01   2.39900024E+02   2.39900024E+02   5.14123535E+01  -1.83719599E+00   2.41737228E+02  -9.64917297E+01   2.04733582E+02  -1.83715189E+00   2.39899994E+02   5.14123535E+01  -9.55978483E-02
             2800                2   2.20000000E+02   2.40185364E+02   2.40185364E+02  -7.99908340E-01   5.00897408E+01   2.40185364E+02   2.40185364E+02   5.00897408E+01  -7.99908340E-01   2.40985275E+02  -9.64917297E+01   2.06123642E+02  -7.06463754E-01   2.40091919E+02   5.00897408E+01  -4.74439955E+00
             2800                3   2.20000000E+02   2.39563065E+02   2.39563065E+02  -2.99524617E+00   5.29073715E+01   2.39563065E+02   2.39563065E+02   5.29073715E+01  -2.99524617E+00   2.42558319E+02  -9.64917297E+01   2.03077179E+02  -2.93999362E+00   2.39507812E+02   5.29073715E+01  -3.66066742E+00
             2800                4   2.20000000E+02   2.39834290E+02   2.39834290E+02  -2.06852818E+00   5.17094307E+01   2.39834290E+02   2.39834290E+02   5.17094307E+01  -2.06852818E+00   2.41902817E+02  -9.64917297E+01   2.04411697E+02  -1.78719556E+00   2.39552963E+02   5.17094307E+01  -8.24467754E+00
             2801                1   2.20000000E+02   2.24067047E+02   2.24067047E+02  -1.94925861E+01   3.97650108E+01   2.24067047E+02   2.24067047E+02   3.97650108E+01  -1.94925861E+01   2.43559631E+02  -8.14464951E+01   2.00835007E+02  -1.91308212E+01   2.23705276E+02   3.97650108E+01  -9.37989521E+00
             2801                2   2.20000000E+02   2.23441818E+02   2.23441818E+02  -2.13525696E+01   4.22502174E+01   2.23441818E+02   2.23441818E+02   4.22502174E+01  -2.13525696E+01   2.44794388E+02  -8.14464874E+01   1.97672943E+02  -2.13499012E+01   2.23439148E+02   4.22502174E+01  -8.08446765E-01
             2801                3   2.20000000E+02   2.24807922E+02   2.24807922E+02  -1.70476379E+01   3.65791817E+01   2.24807922E+02   2.24807922E+02   3.65791817E+01  -1.70476379E+01   2.41855560E+02  -8.14464874E+01   2.04504166E+02  -1.70392895E+01   2.24799576E+02   3.65791817E+01  -1.42080998E+00
             2801                4   2.20000000E+02   2.24130875E+02   2.24130875E+02  -1.92930946E+01   3.95016708E+01   2.24130875E+02   2.24130875E+02   3.95016708E+01  -1.92930946E+01   2.43423981E+02  -8.14464798E+01   2.01154419E+02  -1.90809422E+01   2.23918732E+02   3.95016708E+01   7.18308926E+00
             2802                1   2.20000000E+02   1.85679123E+02   1.85679123E+02  -4.74437790E+01  -1.82910614E+01   1.85679123E+02   1.85679123E+02  -1.82910614E+01  -4.74437790E+01   2.33122894E+02  -3.99814262E+01   2.15590134E+02  -4.74086418E+01   1.85643982E+02  -1.82910614E+01   2.86171889E+00
             2802                2   2.19999985E+02   1.86029037E+02   1.86029037E+02  -4.47000961E+01  -2.13846741E+01   1.86029037E+02   1.86029037E+02  -2.13846741E+01  -4.47000961E+01   2.30729141E+02  -3.99814262E+01   2.17194321E+02  -4.46326561E+01   1.85961609E+02  -2.13846741E+01  -3.94394493E+00
             2802                3   2.20000000E+02   1.85292709E+02   1.85292709E+02  -4.99022675E+01  -1.54461632E+01   1.85292709E+02   1.85292709E+02  -1.54461632E+01  -4.99022675E+01   2.35194977E+02  -3.99814262E+01   2.13802780E+02  -4.98453522E+01   1.85235794E+02  -1.54461632E+01  -3.65826368E+00
             2802                4   2.20000000E+02   1.85668320E+02   1.85668320E+02  -4.75190773E+01  -1.82049656E+01   1.85668320E+02   1.85668320E+02  -1.82049656E+01  -4.75190773E+01   2.33187408E+02  -3.99814262E+01   2.15540436E+02  -4.70455589E+01   1.85194809E+02  -1.82049656E+01  -1.04973240E+01
             2803                1   2.20000000E+02   2.29107590E+02   2.29107590E+02  -9.78949356E+00   3.48517036E+01   2.29107590E+02   2.29107590E+02   3.48517036E+01  -9.78949356E+00   2.38897095E+02  -8.47232666E+01   2.09442963E+02  -9.76232624E+00   2.29080429E+02   3.48517036E+01  -2.54730988E+00
             2803                2   2.20000015E+02   2.29384888E+02   2.29384888E+02  -8.53826046E+00   3.33231773E+01   2.29384888E+02   2.29384888E+02   3.33231773E+01  -8.53826046E+00   2.37923157E+02  -8.47232742E+01   2.10758209E+02  -8.31195450E+00   2.29158585E+02   3.33231773E+01  -7.33438301E+00
             2803                3   2.20000000E+02   2.28790192E+02   2.28790192E+02  -1.11193190E+01   3.64989281E+01   2.28790192E+02   2.28790192E+02   3.64989281E+01  -1.11193190E+01   2.39909500E+02  -8.47232666E+01   2.07925430E+02  -1.09459057E+01   2.28616776E+02   3.64989281E+01  -6.44770527E+00
             2803                4   2.20000000E+02   2.29058472E+02   2.29058472E+02  -1.00019102E+01   3.51132355E+01   2.29058472E+02   2.29058472E+02   3.51132355E+01  -1.00019102E+01   2.39060379E+02  -8.47232666E+01   2.09208984E+02  -9.47711182E+00   2.28533676E+02   3.51132355E+01  -1.11885223E+01
             2804                1   2.19999985E+02   1.79926910E+02   1.79926910E+02  -4.60938377E+01  -3.35123634E+01   1.79926910E+02   1.79926910E+02  -3.35123634E+01  -4.60938377E+01   2.26020752E+02  -3.34402351E+01   2.19188370E+02  -4.60527153E+01   1.79885788E+02  -3.35123634E+01  -3.04832220E+00
             2804                2   2.20000000E+02   1.80049057E+02   1.80049057E+02  -4.34314651E+01  -3.62968597E+01   1.80049057E+02   1.80049057E+02  -3.62968597E+01  -4.34314651E+01   2.23480515E+02  -3.34402428E+01   2.19739471E+02  -4.32303085E+01   1.79847885E+02  -3.62968597E+01  -6.70193672E+00
             2804                3   2.20000000E+02   1.79820053E+02   1.79820053E+02  -4.76898041E+01  -3.18095226E+01   1.79820053E+02   1.79820053E+02  -3.18095226E+01  -4.76898041E+01   2.27509857E+02  -3.34402428E+01   2.18704910E+02  -4.73677750E+01   1.79498016E+02  -3.18095226E+01  -8.55353737E+00
             2804                4   2.20000000E+02   1.79973206E+02   1.79973206E+02  -4.52486954E+01  -3.44037781E+01   1.79973206E+02   1.79973206E+02  -3.44037781E+01  -4.52486954E+01   2.25221893E+02  -3.34402428E+01   2.19397385E+02  -4.45739632E+01   1.79298462E+02  -3.44037781E+01  -1.23089428E+01
             2805                1   2.20000000E+02   2.24643250E+02   2.24643250E+02  -1.81129284E+01   3.84416885E+01   2.24643250E+02   2.24643250E+02   3.84416885E+01  -1.81129284E+01   2.42756180E+02  -8.16573410E+01   2.02654556E+02  -1.76173363E+01   2.24147659E+02   3.84416885E+01  -1.09572525E+01
             2805                2   2.20000000E+02   2.24189774E+02   2.24189774E+02  -1.95539913E+01   4.03362122E+01   2.24189774E+02   2.24189774E+02   4.03362122E+01  -1.95539913E+01   2.43743774E+02  -8.16573334E+01   2.00393173E+02  -1.94877129E+01   2.24123505E+02   4.03362122E+01  -4.01867628E+00
             2805                3   2.20000000E+02   2.25233551E+02   2.25233551E+02  -1.60679054E+01   3.58063431E+01   2.25233551E+02   2.25233551E+02   3.58063431E+01  -1.60679054E+01   2.41301453E+02  -8.16573257E+01   2.05553055E+02  -1.59726486E+01   2.25138306E+02   3.58063431E+01  -4.79317093E+00
             2805                4   2.20000000E+02   2.24731445E+02   2.24731445E+02  -1.78203793E+01   3.80609322E+01   2.24731445E+02   2.24731445E+02   3.80609322E+01  -1.78203793E+01   2.42551834E+02  -8.16573334E+01   2.03090881E+02  -1.77967854E+01   2.24707855E+02   3.80609322E+01   2.39220762E+00
             2806                1   2.20000000E+02   1.62525925E+02   1.62525925E+02  -5.91415939E+01  -5.57677498E+01   1.62525925E+02   1.62525925E+02  -5.57677498E+01  -5.91415939E+01   2.21667526E+02  -1.58721962E+01   2.19941788E+02  -5.91178131E+01   1.62502151E+02  -5.57677498E+01  -2.29577470E+00
             2806                2   2.20000000E+02   1.62529831E+02   1.62529831E+02  -5.88663483E+01  -5.60468941E+01   1.62529831E+02   1.62529831E+02  -5.60468941E+01  -5.88663483E+01   2.21396179E+02  -1.58721962E+01   2.19959351E+02  -5.87912903E+01   1.62454773E+02  -5.60468941E+01   4.07579374E+00
             2806                3   2.20000000E+02   1.62527390E+02   1.62527390E+02  -5.58663139E+01  -5.90444794E+01   1.62527390E+02   1.62527390E+02  -5.58663139E+01  -5.90444794E+01   2.21571869E+02  -1.58721972E+01   2.19948334E+02  -5.58242989E+01   1.62485367E+02  -5.90444794E+01  -3.02899218E+00
             2806                4   2.20000000E+02   1.62522369E+02   1.62522369E+02  -5.55480003E+01  -5.93577843E+01   1.62522369E+02   1.62522369E+02  -5.55480003E+01  -5.93577843E+01   2.21880157E+02  -1.58721933E+01   2.19925766E+02  -5.54892578E+01   1.62463623E+02  -5.93577843E+01   3.57863379E+00
             2807                1   2.20000000E+02   2.40817215E+02   2.40817215E+02  -1.96127069E+00   5.46671944E+01   2.40817215E+02   2.40817215E+02   5.46671944E+01  -1.96127069E+00   2.42778488E+02  -9.78410416E+01   2.02606293E+02  -1.95952237E+00   2.40815460E+02   5.46671944E+01   6.52223408E-01
             2807                2   2.20000000E+02   2.41140961E+02   2.41140961E+02  -8.67786586E-01   5.32499504E+01   2.41140961E+02   2.41140961E+02   5.32499504E+01  -8.67786586E-01   2.42008759E+02  -9.78410416E+01   2.04202591E+02  -7.87996590E-01   2.41061172E+02   5.32499504E+01  -4.39363670E+00
             2807                3   2.20000000E+02   2.40443253E+02   2.40443253E+02  -3.15505433E+00   5.62349319E+01   2.40443253E+02   2.40443253E+02   5.62349319E+01  -3.15505433E+00   2.43598297E+02  -9.78410416E+01   2.00743073E+02  -3.11069679E+00   2.40398895E+02   5.62349319E+01  -3.28664470E+00
             2807                4   2.20000000E+02   2.40747971E+02   2.40747971E+02  -2.18762040E+00   5.49627724E+01   2.40747971E+02   2.40747971E+02   5.49627724E+01  -2.18762040E+00   2.42935593E+02  -9.78410416E+01   2.02262909E+02  -1.90642667E+00   2.40466782E+02   5.49627724E+01  -8.26022530E+00
             2808                1   2.20000000E+02   1.56877167E+02   1.56877167E+02  -6.47914658E+01  -6.14153519E+01   1.56877167E+02   1.56877167E+02  -6.14153519E+01  -6.47914658E+01   2.21668625E+02  -1.02234468E+01   2.19941711E+02  -6.45742188E+01   1.56659912E+02  -6.14153519E+01  -6.93617201E+00
             2808                2   2.20000015E+02   1.56778519E+02   1.56778519E+02  -6.80082779E+01  -5.80998993E+01   1.56778519E+02   1.56778519E+02  -5.80998993E+01  -6.80082779E+01   2.24786789E+02  -1.02234468E+01   2.19497147E+02  -6.79593582E+01   1.56729599E+02  -5.80998993E+01  -3.31558323E+00
             2808                3   2.20000000E+02   1.56890015E+02   1.56890015E+02  -6.29642334E+01  -6.32554436E+01   1.56890015E+02   1.56890015E+02  -6.29642334E+01  -6.32554436E+01   2.20145462E+02  -1.02234459E+01   2.19999573E+02  -6.29642334E+01   1.56890015E+02  -6.32554436E+01  -1.62682664E-02
             2808                4   2.20000000E+02   1.56839554E+02   1.56839554E+02  -6.64196167E+01  -5.97495995E+01   1.56839554E+02   1.56839554E+02  -5.97495995E+01  -6.64196167E+01   2.23259171E+02  -1.02234459E+01   2.19772339E+02  -6.63668213E+01   1.56786758E+02  -5.97495995E+01   3.43276095E+00
             2809                1   2.20000000E+02   1.64174927E+02   1.64174927E+02  -5.72860413E+01  -5.43343964E+01   1.64174927E+02   1.64174927E+02  -5.43343964E+01  -5.72860413E+01   2.21460968E+02  -1.75181599E+01   2.19955444E+02  -5.69621048E+01   1.63850983E+02  -5.43343964E+01  -8.46376133E+00
             2809                2   2.20000000E+02   1.64089172E+02   1.64089172E+02  -6.03539162E+01  -5.11807709E+01   1.64089172E+02   1.64089172E+02  -5.11807709E+01  -6.03539162E+01   2.24443100E+02  -1.75181637E+01   2.19569092E+02  -6.02193298E+01   1.63954590E+02  -5.11807709E+01  -5.49446726E+00
             2809                3   2.20000000E+02   1.64184830E+02   1.64184830E+02  -5.57734032E+01  -5.58569336E+01   1.64184830E+02   1.64184830E+02  -5.57734032E+01  -5.58569336E+01   2.20041763E+02  -1.75181637E+01   2.19999969E+02  -5.57573242E+01   1.64168747E+02  -5.58569336E+01  -1.88057411E+00
             2809                4   2.20000000E+02   1.64136780E+02   1.64136780E+02  -5.90420418E+01  -5.25402527E+01   1.64136780E+02   1.64136780E+02  -5.25402527E+01  -5.90420418E+01   2.23178818E+02  -1.75181637E+01   2.19783676E+02  -5.90384102E+01   1.64133148E+02  -5.25402527E+01   9.00546968E-01
             2810                1   2.20000000E+02   1.52644287E+02   1.52644287E+02  -6.69618454E+01  -6.77474823E+01   1.52644287E+02   1.52644287E+02  -6.69618454E+01  -6.77474823E+01   2.20391769E+02  -5.97831726E+00   2.19996841E+02  -6.68427734E+01   1.52525208E+02  -6.77474823E+01  -5.11227417E+00
             2810                2   2.20000000E+02   1.52605713E+02   1.52605713E+02  -7.02743530E+01  -6.43964081E+01   1.52605713E+02   1.52605713E+02  -6.43964081E+01  -7.02743530E+01   2.22880066E+02  -5.97831726E+00   2.19823212E+02  -7.02357025E+01   1.52567062E+02  -6.43964081E+01  -2.93476224E+00
             2810                3   2.19987259E+02   1.52626541E+02   1.52626541E+02  -6.58652649E+01  -6.88263168E+01   1.52626541E+02   1.52626541E+02  -6.58652649E+01  -6.88263168E+01   2.21452850E+02  -5.97831726E+00   2.19942429E+02  -6.58509445E+01   1.52612213E+02  -6.88263168E+01   1.76861012E+00
             2810                4   2.20000000E+02   1.52627197E+02   1.52627197E+02  -6.93233490E+01  -6.53689117E+01   1.52627197E+02   1.52627197E+02  -6.53689117E+01  -6.93233490E+01   2.21950546E+02  -5.97831488E+00   2.19920013E+02  -6.92602158E+01   1.52564072E+02  -6.53689117E+01   3.74285293E+00
             2811                1   2.01347183E+02   1.64055191E+02   1.64055191E+02  -3.70653801E+01  -3.75178375E+01   1.64055191E+02   1.64055191E+02  -3.70653801E+01  -3.75178375E+01   2.01573029E+02  -2.98239899E+01   2.01346039E+02  -3.69861908E+01   1.63975998E+02  -3.75178375E+01   3.99002981E+00
             2811                2   2.01736847E+02   1.64314270E+02   1.64314270E+02  -3.78586807E+01  -3.69836197E+01   1.64314270E+02   1.64314270E+02  -3.69836197E+01  -3.78586807E+01   2.02172958E+02  -2.98239899E+01   2.01732574E+02  -3.78559952E+01   1.64311584E+02  -3.69836197E+01   7.37543583E-01
             2811                3   2.02029816E+02   1.64500458E+02   1.64500458E+02  -3.89410400E+01  -3.60874443E+01   1.64500458E+02   1.64500458E+02  -3.60874443E+01  -3.89410400E+01   2.03441498E+02  -2.98239899E+01   2.01984467E+02  -3.87987785E+01   1.64358200E+02  -3.60874443E+01   5.37784481E+00
             2811                4   2.02400955E+02   1.64737061E+02   1.64737061E+02  -3.96891327E+01  -3.55759468E+01   1.64737061E+02   1.64737061E+02  -3.55759468E+01  -3.96891327E+01   2.04426193E+02  -2.98239956E+01   2.02306870E+02  -3.96664162E+01   1.64714340E+02  -3.55759468E+01   2.15504003E+00
             2812                1   2.20000000E+02   1.93820511E+02   1.93820511E+02  -3.21709137E+01  -1.96535778E+01   1.93820511E+02   1.93820511E+02  -1.96535778E+01  -3.21709137E+01   2.25991425E+02  -4.73320045E+01   2.19196640E+02  -3.19532547E+01   1.93602844E+02  -1.96535778E+01  -7.01021290E+00
             2812                2   2.20000000E+02   1.93923599E+02   1.93923599E+02  -3.00269394E+01  -2.19006557E+01   1.93923599E+02   1.93923599E+02  -2.19006557E+01  -3.00269394E+01   2.23950546E+02  -4.73320045E+01   2.19661926E+02  -2.95828075E+01   1.93479477E+02  -2.19006557E+01  -9.96322441E+00
             2812                3   2.20000000E+02   1.93736542E+02   1.93736542E+02  -3.34608803E+01  -1.82796440E+01   1.93736542E+02   1.93736542E+02  -1.82796440E+01  -3.34608803E+01   2.27197418E+02  -4.73320045E+01   2.18816879E+02  -3.28763580E+01   1.93152023E+02  -1.82796440E+01  -1.15091248E+01
             2812                4   2.20000000E+02   1.93859558E+02   1.93859558E+02  -3.14627171E+01  -2.04008217E+01   1.93859558E+02   1.93859558E+02  -2.04008217E+01  -3.14627171E+01   2.25322266E+02  -4.73320045E+01   2.19372971E+02  -3.05206261E+01   1.92917465E+02  -2.04008217E+01  -1.45391150E+01
             2813                1   2.20000000E+02   1.68964233E+02   1.68964233E+02  -5.48285370E+01  -4.70359268E+01   1.68964233E+02   1.68964233E+02  -4.70359268E+01  -5.48285370E+01   2.23792770E+02  -2.23665905E+01   2.19689163E+02  -5.43685760E+01   1.68504272E+02  -4.70359268E+01  -1.01353197E+01
             2813                2   2.20000000E+02   1.68821869E+02   1.68821869E+02  -5.76782341E+01  -4.40438576E+01   1.68821869E+02   1.68821869E+02  -4.40438576E+01  -5.76782341E+01   2.26500092E+02  -2.23665924E+01   2.19046417E+02  -5.75034637E+01   1.68647095E+02  -4.40438576E+01  -6.28924179E+00
             2813                3   2.20000000E+02   1.69015839E+02   1.69015839E+02  -5.29155464E+01  -4.90005226E+01   1.69015839E+02   1.69015839E+02  -4.90005226E+01  -5.29155464E+01   2.21931396E+02  -2.23665924E+01   2.19921600E+02  -5.28518639E+01   1.68952164E+02  -4.90005226E+01  -3.75880957E+00
             2813                4   2.20000000E+02   1.68914627E+02   1.68914627E+02  -5.60150757E+01  -4.57997780E+01   1.68914627E+02   1.68914627E+02  -4.57997780E+01  -5.60150757E+01   2.24929703E+02  -2.23665924E+01   2.19465439E+02  -5.60150642E+01   1.68914612E+02  -4.57997780E+01  -5.75699136E-02
             2814                1   2.20000000E+02   2.17758911E+02   2.17758911E+02  -2.35454559E+01   2.83378830E+01   2.17758911E+02   2.17758911E+02   2.83378830E+01  -2.35454559E+01   2.41304367E+02  -7.41837769E+01   2.05547729E+02  -2.27620811E+01   2.16975540E+02   2.83378830E+01  -1.37265139E+01
             2814                2   2.20000000E+02   2.17225082E+02   2.17225082E+02  -2.54032822E+01   3.07295494E+01   2.17225082E+02   2.17225082E+02   3.07295494E+01  -2.54032822E+01   2.42628357E+02  -7.41837845E+01   2.02928650E+02  -2.52994900E+01   2.17121277E+02   3.07295494E+01  -5.01733923E+00
             2814                3   2.20000000E+02   2.18369797E+02   2.18369797E+02  -2.11714153E+01   2.53529682E+01   2.18369797E+02   2.18369797E+02   2.53529682E+01  -2.11714153E+01   2.39541214E+02  -7.41837845E+01   2.08496323E+02  -2.10847816E+01   2.18283157E+02   2.53529682E+01  -4.55473900E+00
             2814                4   2.20000000E+02   2.17790054E+02   2.17790054E+02  -2.34313869E+01   2.81926651E+01   2.17790054E+02   2.17790054E+02   2.81926651E+01  -2.34313869E+01   2.41221451E+02  -7.41837769E+01   2.05699310E+02  -2.33629761E+01   2.17721649E+02   2.81926651E+01   4.06169462E+00
             2815                1   2.20000000E+02   2.41608109E+02   2.41608109E+02  -2.07642341E+00   5.76097069E+01   2.41608109E+02   2.41608109E+02   5.76097069E+01  -2.07642341E+00   2.43684540E+02  -9.90471268E+01   2.00536407E+02  -2.06838918E+00   2.41600082E+02   5.76097069E+01   1.39914358E+00
             2815                2   2.20000000E+02   2.41970932E+02   2.41970932E+02  -9.26605701E-01   5.60970802E+01   2.41970932E+02   2.41970932E+02   5.60970802E+01  -9.26605701E-01   2.42897537E+02  -9.90471420E+01   2.02346619E+02  -8.59866858E-01   2.41904190E+02   5.60970802E+01  -4.02580547E+00
             2815                3   2.20000000E+02   2.41199142E+02   2.41199142E+02  -3.30088615E+00   5.92431412E+01   2.41199142E+02   2.41199142E+02   5.92431412E+01  -3.30088615E+00   2.44500031E+02  -9.90471268E+01   1.98471268E+02  -3.26595950E+00   2.41164215E+02   5.92431412E+01  -2.92199135E+00
             2815                4   2.20000000E+02   2.41537476E+02   2.41537476E+02  -2.29304790E+00   5.78969612E+01   2.41537476E+02   2.41537476E+02   5.78969612E+01  -2.29304790E+00   2.43830521E+02  -9.90471268E+01   2.00181610E+02  -2.01229525E+00   2.41256729E+02   5.78969612E+01  -8.26900578E+00
             2816                1   2.20000000E+02   1.58852631E+02   1.58852631E+02  -5.94833488E+01  -6.27744713E+01   1.58852631E+02   1.58852631E+02  -5.94833488E+01  -6.27744713E+01   2.21627090E+02  -1.21982689E+01   2.19944595E+02  -5.94414330E+01   1.58810715E+02  -6.27744713E+01  -3.02472878E+00
             2816                2   2.20000000E+02   1.58850754E+02   1.58850754E+02  -6.28950272E+01  -5.93609047E+01   1.58850754E+02   1.58850754E+02  -5.93609047E+01  -6.28950272E+01   2.21745773E+02  -1.21982737E+01   2.19936127E+02  -6.28738327E+01   1.58829559E+02  -5.93609047E+01  -2.16755915E+00
             2816                3   2.20000000E+02   1.58846375E+02   1.58846375E+02  -5.91042442E+01  -6.31473045E+01   1.58846375E+02   1.58846375E+02  -5.91042442E+01  -6.31473045E+01   2.21993668E+02  -1.21982737E+01   2.19916397E+02  -5.90352135E+01   1.58777344E+02  -6.31473045E+01   3.87808967E+00
             2816                4   2.20000000E+02   1.58855530E+02   1.58855530E+02  -6.25679474E+01  -5.96927757E+01   1.58855530E+02   1.58855530E+02  -5.96927757E+01  -6.25679474E+01   2.21423477E+02  -1.21982718E+01   2.19957718E+02  -6.24768753E+01   1.58764465E+02  -5.96927757E+01   4.48973942E+00
             2817                1   2.20000000E+02   1.61357330E+02   1.61357330E+02  -6.03304100E+01  -5.69151917E+01   1.61357330E+02   1.61357330E+02  -5.69151917E+01  -6.03304100E+01   2.21687729E+02  -1.47039080E+01   2.19940353E+02  -6.00243797E+01   1.61051300E+02  -5.69151917E+01  -8.23095608E+00
             2817                2   2.20000000E+02   1.61260712E+02   1.61260712E+02  -6.34897804E+01  -5.36592102E+01   1.61260712E+02   1.61260712E+02  -5.36592102E+01  -6.34897804E+01   2.24750488E+02  -1.47039080E+01   2.19505005E+02  -6.33800392E+01   1.61150970E+02  -5.36592102E+01  -4.96515846E+00
             2817                3   2.20000000E+02   1.61370575E+02   1.61370575E+02  -5.86680527E+01  -5.85907936E+01   1.61370575E+02   1.61370575E+02  -5.85907936E+01  -5.86680527E+01   2.20038635E+02  -1.47039099E+01   2.19999969E+02  -5.86588821E+01   1.61361404E+02  -5.85907936E+01  -1.42025399E+00
             2817                4   2.20000000E+02   1.61316544E+02   1.61316544E+02  -6.20499001E+01  -5.51549225E+01   1.61316544E+02   1.61316544E+02  -5.51549225E+01  -6.20499001E+01   2.23366455E+02  -1.47039080E+01   2.19756714E+02  -6.20375938E+01   1.61304245E+02  -5.51549225E+01   1.65765035E+00
             2818                1   2.15924088E+02   1.54995651E+02   1.54995651E+02  -6.19578476E+01  -5.98841057E+01   1.54995651E+02   1.54995651E+02  -5.98841057E+01  -6.19578476E+01   2.16953491E+02  -1.10512304E+01   2.15901688E+02  -6.18985443E+01   1.54936340E+02  -5.98841057E+01  -3.58648467E+00
             2818                2   2.16430145E+02   1.55266541E+02   1.55266541E+02  -6.49887848E+01  -5.71240501E+01   1.55266541E+02   1.55266541E+02  -5.71240501E+01  -6.49887848E+01   2.20255325E+02  -1.10512323E+01   2.16108292E+02  -6.49857864E+01   1.55263535E+02  -5.71240501E+01  -8.12529445E-01
             2818                3   2.15355377E+02   1.54621002E+02   1.54621002E+02  -6.04112587E+01  -6.10560417E+01   1.54621002E+02   1.54621002E+02  -6.04112587E+01  -6.10560417E+01   2.15677032E+02  -1.10512323E+01   2.15353210E+02  -6.03842697E+01   1.54594009E+02  -6.10560417E+01   2.40898061E+00
             2818                4   2.16155487E+02   1.55121033E+02   1.55121033E+02  -6.36887550E+01  -5.82785721E+01   1.55121033E+02   1.55121033E+02  -5.82785721E+01  -6.36887550E+01   2.18809799E+02  -1.10512362E+01   2.16003067E+02  -6.35716286E+01   1.55003906E+02  -5.82785721E+01   5.06117964E+00
             2819                1   2.20000000E+02   2.22420578E+02   2.22420578E+02  -1.72555504E+01   2.96680679E+01   2.22420578E+02   2.22420578E+02   2.96680679E+01  -1.72555504E+01   2.39676117E+02  -7.82777023E+01   2.08289749E+02  -1.68551979E+01   2.22020218E+02   2.96680679E+01   9.78752041E+00
             2819                2   2.19880783E+02   2.22945740E+02   2.22945740E+02  -1.45311890E+01   2.64185238E+01   2.22945740E+02   2.22945740E+02   2.64185238E+01  -1.45311890E+01   2.37476929E+02  -7.82776871E+01   2.11044403E+02  -1.45261049E+01   2.22940659E+02   2.64185238E+01   1.09844148E+00
             2819                3   2.20000000E+02   2.21838623E+02   2.21838623E+02  -1.95032978E+01   3.24977531E+01   2.21838623E+02   2.21838623E+02   3.24977531E+01  -1.95032978E+01   2.41341919E+02  -7.82776947E+01   2.05478577E+02  -1.94865551E+01   2.21821884E+02   3.24977531E+01   2.00996280E+00
             2819                4   2.20000000E+02   2.22440826E+02   2.22440826E+02  -1.71721478E+01   2.95644112E+01   2.22440826E+02   2.22440826E+02   2.95644112E+01  -1.71721478E+01   2.39612976E+02  -7.82776947E+01   2.08386795E+02  -1.69717178E+01   2.22240387E+02   2.95644112E+01  -6.92726994E+00
             2820                1   2.20000000E+02   2.03629181E+02   2.03629181E+02  -3.24633865E+01   4.37189150E+00   2.03629181E+02   2.03629181E+02   4.37189150E+00  -3.24633865E+01   2.36092560E+02  -5.85125580E+01   2.12895767E+02  -3.14854488E+01   2.02651230E+02   4.37189150E+00  -1.51634054E+01
             2820                2   2.20000000E+02   2.03214798E+02   2.03214798E+02  -3.45576286E+01   6.88049269E+00   2.03214798E+02   2.03214798E+02   6.88049269E+00  -3.45576286E+01   2.37772415E+02  -5.85125542E+01   2.10950073E+02  -3.43297653E+01   2.02986938E+02   6.88049269E+00  -7.35702896E+00
             2820                3   2.20000000E+02   2.04063248E+02   2.04063248E+02  -2.99018478E+01   1.37627411E+00   2.04063248E+02   2.04063248E+02   1.37627411E+00  -2.99018478E+01   2.33965103E+02  -5.85125618E+01   2.14912170E+02  -2.96935329E+01   2.03854935E+02   1.37627411E+00  -6.97827625E+00
             2820                4   2.20000000E+02   2.03635468E+02   2.03635468E+02  -3.24292755E+01   4.33146858E+00   2.03635468E+02   2.03635468E+02   4.33146858E+00  -3.24292755E+01   2.36064743E+02  -5.85125542E+01   2.12925201E+02  -3.24261284E+01   2.03632324E+02   4.33146858E+00   8.61177623E-01
             2821                1   2.20000000E+02   1.57595062E+02   1.57595062E+02  -6.21162796E+01  -6.26924667E+01   1.57595062E+02   1.57595062E+02  -6.21162796E+01  -6.26924667E+01   2.20287521E+02  -1.09287720E+01   2.19998306E+02  -6.19386978E+01   1.57417480E+02  -6.26924667E+01  -6.24386787E+00
             2821                2   2.20000000E+02   1.57552444E+02   1.57552444E+02  -6.54587479E+01  -5.93073807E+01   1.57552444E+02   1.57552444E+02  -5.93073807E+01  -6.54587479E+01   2.23011185E+02  -1.09287720E+01   2.19806381E+02  -6.53846054E+01   1.57478302E+02  -5.93073807E+01  -4.06541681E+00
             2821                3   2.19999985E+02   1.57586624E+02   1.57586624E+02  -6.10081940E+01  -6.37921219E+01   1.57586624E+02   1.57586624E+02  -6.10081940E+01  -6.37921219E+01   2.21378738E+02  -1.09287691E+01   2.19960358E+02  -6.10058441E+01   1.57584274E+02  -6.37921219E+01   7.16589570E-01
             2821                4   2.20000000E+02   1.57575287E+02   1.57575287E+02  -6.45000381E+01  -6.02889366E+01   1.57575287E+02   1.57575287E+02  -6.02889366E+01  -6.45000381E+01   2.22075317E+02  -1.09287682E+01   2.19909286E+02  -6.44678955E+01   1.57543137E+02  -6.02889366E+01   2.67156434E+00
             2822                1   2.14869400E+02   1.60573135E+02   1.60573135E+02  -5.70897179E+01  -5.13893929E+01   1.60573135E+02   1.60573135E+02  -5.13893929E+01  -5.70897179E+01   2.17662842E+02  -1.73646736E+01   2.14699173E+02  -5.70439758E+01   1.60527390E+02  -5.13893929E+01  -3.15502667E+00
             2822                2   2.15598648E+02   1.60952118E+02   1.60952118E+02  -6.00184555E+01  -4.88396492E+01   1.60952118E+02   1.60952118E+02  -4.88396492E+01  -6.00184555E+01   2.20970581E+02  -1.73646736E+01   2.14945129E+02  -6.00179176E+01   1.60951584E+02  -4.88396492E+01   3.45485032E-01
             2822                3   2.14612091E+02   1.60433228E+02   1.60433228E+02  -5.53212204E+01  -5.30179863E+01   1.60433228E+02   1.60433228E+02  -5.30179863E+01  -5.53212204E+01   2.15754440E+02  -1.73646736E+01   2.14584290E+02  -5.52907791E+01   1.60402786E+02  -5.30179863E+01   2.56243563E+00
             2822                4   2.15373016E+02   1.60870483E+02   1.60870483E+02  -5.84387054E+01  -5.03377571E+01   1.60870483E+02   1.60870483E+02  -5.03377571E+01  -5.84387054E+01   2.19309189E+02  -1.73646736E+01   2.15029831E+02  -5.82757072E+01   1.60707489E+02  -5.03377571E+01   5.97660208E+00
             2823                1   2.20000000E+02   2.31525711E+02   2.31525711E+02  -1.33729334E+01   5.06085129E+01   2.31525711E+02   2.31525711E+02   5.06085129E+01  -1.33729334E+01   2.44898636E+02  -8.95870972E+01   1.97382965E+02  -1.32194767E+01   2.31372253E+02   5.06085129E+01   6.12832260E+00
             2823                2   2.20000000E+02   2.32168427E+02   2.32168427E+02  -1.14736443E+01   4.80665131E+01   2.32168427E+02   2.32168427E+02   4.80665131E+01  -1.14736443E+01   2.43642075E+02  -8.95870972E+01   2.00638428E+02  -1.14581127E+01   2.32152893E+02   4.80665131E+01  -1.94511819E+00
             2823                3   2.20000000E+02   2.30855362E+02   2.30855362E+02  -1.51907101E+01   5.30966301E+01   2.30855362E+02   2.30855362E+02   5.30966301E+01  -1.51907101E+01   2.46046082E+02  -8.95870972E+01   1.93913940E+02  -1.51873884E+01   2.30852051E+02   5.30966301E+01  -9.03353572E-01
             2823                4   2.20000000E+02   2.31435272E+02   2.31435272E+02  -1.36271763E+01   5.09531975E+01   2.31435272E+02   2.31435272E+02   5.09531975E+01  -1.36271763E+01   2.45062439E+02  -8.95870972E+01   1.96919449E+02  -1.33115635E+01   2.31119659E+02   5.09531975E+01  -8.78884888E+00
             2824                1   2.20000000E+02   2.09905045E+02   2.09905045E+02  -3.10994377E+01   1.98497257E+01   2.09905045E+02   2.09905045E+02   1.98497257E+01  -3.10994377E+01   2.41004471E+02  -6.62184448E+01   2.06089523E+02  -3.09280968E+01   2.09733704E+02   1.98497257E+01  -6.42366552E+00
             2824                2   2.20000000E+02   2.10382065E+02   2.10382065E+02  -2.92293892E+01   1.75026703E+01   2.10382065E+02   2.10382065E+02   1.75026703E+01  -2.92293892E+01   2.39611450E+02  -6.62184525E+01   2.08389130E+02  -2.90044022E+01   2.10157074E+02   1.75026703E+01   7.33897924E+00
             2824                3   2.20000000E+02   2.10574738E+02   2.10574738E+02  -2.84158459E+01   1.64964447E+01   2.10574738E+02   2.10574738E+02   1.64964447E+01  -2.84158459E+01   2.38990585E+02  -6.62184448E+01   2.09309464E+02  -2.69580097E+01   2.09116898E+02   1.64964447E+01  -1.86087132E+01
             2824                4   2.20000000E+02   2.11140045E+02   2.11140045E+02  -2.57777710E+01   1.32930717E+01   2.11140045E+02   2.11140045E+02   1.32930717E+01  -2.57777710E+01   2.36917816E+02  -6.62184525E+01   2.11982620E+02  -2.56905670E+01   2.11052841E+02   1.32930717E+01  -4.54449558E+00
             2825                1   2.20000000E+02   2.24735474E+02   2.24735474E+02  -1.86696377E+01   4.00610123E+01   2.24735474E+02   2.24735474E+02   4.00610123E+01  -1.86696377E+01   2.43405121E+02  -8.20422897E+01   2.01198380E+02  -1.85888844E+01   2.24654724E+02   4.00610123E+01   4.43281651E+00
             2825                2   2.20000000E+02   2.25343826E+02   2.25343826E+02  -1.66609192E+01   3.74439392E+01   2.25343826E+02   2.25343826E+02   3.74439392E+01  -1.66609192E+01   2.42004745E+02  -8.20422821E+01   2.04210556E+02  -1.66027050E+01   2.25285614E+02   3.74439392E+01  -3.75289750E+00
             2825                3   2.20000000E+02   2.24126801E+02   2.24126801E+02  -2.05011826E+01   4.25012245E+01   2.24126801E+02   2.24126801E+02   4.25012245E+01  -2.05011826E+01   2.44627991E+02  -8.20422821E+01   1.98127899E+02  -2.04730015E+01   2.24098633E+02   4.25012245E+01  -2.62519073E+00
             2825                4   2.20000000E+02   2.24685349E+02   2.24685349E+02  -1.88267002E+01   4.02682037E+01   2.24685349E+02   2.24685349E+02   4.02682037E+01  -1.88267002E+01   2.43512039E+02  -8.20422821E+01   2.00947678E+02  -1.83521080E+01   2.24210754E+02   4.02682037E+01  -1.07397652E+01
             2826                1   2.20000000E+02   1.74862457E+02   1.74862457E+02  -5.21917229E+01  -3.73297119E+01   1.74862457E+02   1.74862457E+02  -3.73297119E+01  -5.21917229E+01   2.27054184E+02  -2.84470062E+01   2.18866272E+02  -5.21892853E+01   1.74860016E+02  -3.73297119E+01  -7.44190335E-01
             2826                2   2.20000000E+02   1.75023300E+02   1.75023300E+02  -4.92994537E+01  -4.03828201E+01   1.75023300E+02   1.75023300E+02  -4.03828201E+01  -4.92994537E+01   2.24322754E+02  -2.84470081E+01   2.19592896E+02  -4.91758842E+01   1.74899734E+02  -4.03828201E+01  -5.26342106E+00
             2826                3   2.20000000E+02   1.74708939E+02   1.74708939E+02  -5.41136055E+01  -3.52543068E+01   1.74708939E+02   1.74708939E+02  -3.52543068E+01  -5.41136055E+01   2.28822556E+02  -2.84470119E+01   2.18170212E+02  -5.39122963E+01   1.74507629E+02  -3.52543068E+01  -6.78413153E+00
             2826                4   2.20000000E+02   1.74908234E+02   1.74908234E+02  -5.15041008E+01  -3.80631065E+01   1.74908234E+02   1.74908234E+02  -3.80631065E+01  -5.15041008E+01   2.26412338E+02  -2.84470062E+01   2.19073349E+02  -5.09289284E+01   1.74333054E+02  -3.80631065E+01  -1.13972101E+01
             2827                1   2.20000000E+02   1.66558411E+02   1.66558411E+02  -5.76086197E+01  -4.90232086E+01   1.66558411E+02   1.66558411E+02  -4.90232086E+01  -5.76086197E+01   2.24167023E+02  -1.99755249E+01   2.19622604E+02  -5.71856117E+01   1.66135391E+02  -4.90232086E+01  -9.72863865E+00
             2827                2   2.20000000E+02   1.66400055E+02   1.66400055E+02  -6.05323410E+01  -4.59411392E+01   1.66400055E+02   1.66400055E+02  -4.59411392E+01  -6.05323410E+01   2.26932388E+02  -1.99755230E+01   2.18907364E+02  -6.03986969E+01   1.66266403E+02  -4.59411392E+01  -5.50551891E+00
             2827                3   2.20000000E+02   1.66620834E+02   1.66620834E+02  -5.55146484E+01  -5.11796112E+01   1.66620834E+02   1.66620834E+02  -5.11796112E+01  -5.55146484E+01   2.22135483E+02  -1.99755249E+01   2.19903870E+02  -5.54699860E+01   1.66576172E+02  -5.11796112E+01  -3.14943767E+00
             2827                4   2.20000000E+02   1.66508438E+02   1.66508438E+02  -5.87140961E+01  -4.78677750E+01   1.66508438E+02   1.66508438E+02  -4.78677750E+01  -5.87140961E+01   2.25222534E+02  -1.99755230E+01   2.19397217E+02  -5.87102203E+01   1.66504562E+02  -4.78677750E+01   9.34336007E-01
             2828                1   2.20000000E+02   2.36328079E+02   2.36328079E+02  -6.62904406E+00   5.05931702E+01   2.36328079E+02   2.36328079E+02   5.05931702E+01  -6.62904406E+00   2.42957123E+02  -9.34307327E+01   2.02215332E+02  -6.62733698E+00   2.36326370E+02   5.05931702E+01   6.44456863E-01
             2828                2   2.20000000E+02   2.36695602E+02   2.36695602E+02  -5.39937496E+00   4.89959564E+01   2.36695602E+02   2.36695602E+02   4.89959564E+01  -5.39937496E+00   2.42094986E+02  -9.34307251E+01   2.04030579E+02  -5.29716778E+00   2.36593399E+02   4.89959564E+01  -4.97333384E+00
             2828                3   2.20000000E+02   2.35904739E+02   2.35904739E+02  -7.95925283E+00   5.23467216E+01   2.35904739E+02   2.35904739E+02   5.23467216E+01  -7.95925283E+00   2.43863983E+02  -9.34307327E+01   2.00099380E+02  -7.90095997E+00   2.35846436E+02   5.23467216E+01  -3.77005434E+00
             2828                4   2.20000000E+02   2.36248276E+02   2.36248276E+02  -6.88645411E+00   5.09303818E+01   2.36248276E+02   2.36248276E+02   5.09303818E+01  -6.88645411E+00   2.43134720E+02  -9.34307327E+01   2.01818527E+02  -6.53025866E+00   2.35892075E+02   5.09303818E+01  -9.29928780E+00
             2829                1   2.20000000E+02   2.23448166E+02   2.23448166E+02  -1.43301096E+01   2.71244297E+01   2.23448166E+02   2.23448166E+02   2.71244297E+01  -1.43301096E+01   2.37778275E+02  -7.87474976E+01   2.10942673E+02  -1.42987757E+01   2.23416840E+02   2.71244297E+01  -2.72909164E+00
             2829                2   2.20000000E+02   2.23754349E+02   2.23754349E+02  -1.28110123E+01   2.52991867E+01   2.23754349E+02   2.23754349E+02   2.52991867E+01  -1.28110123E+01   2.36565353E+02  -7.87475052E+01   2.12382294E+02  -1.25272741E+01   2.23470596E+02   2.52991867E+01  -8.18802261E+00
             2829                3   2.20000000E+02   2.23110031E+02   2.23110031E+02  -1.58598242E+01   2.89922905E+01   2.23110031E+02   2.23110031E+02   2.89922905E+01  -1.58598242E+01   2.38969864E+02  -7.87475052E+01   2.09339188E+02  -1.56362276E+01   2.22886444E+02   2.89922905E+01  -7.30631018E+00
             2829                4   2.20000000E+02   2.23413498E+02   2.23413498E+02  -1.44934912E+01   2.73224869E+01   2.23413498E+02   2.23413498E+02   2.73224869E+01  -1.44934912E+01   2.37906998E+02  -7.87474976E+01   2.10778931E+02  -1.37991762E+01   2.22719193E+02   2.73224869E+01  -1.28335400E+01
             2830                1   2.20000000E+02   2.42315750E+02   2.42315750E+02  -2.16529608E+00   6.03109932E+01   2.42315750E+02   2.42315750E+02   6.03109932E+01  -2.16529608E+00   2.44481049E+02  -1.00153816E+02   1.98521683E+02  -2.14846277E+00   2.42298920E+02   6.03109932E+01   2.02826881E+00
             2830                2   2.20000000E+02   2.42709229E+02   2.42709229E+02  -9.86853063E-01   5.87390709E+01   2.42709229E+02   2.42709229E+02   5.87390709E+01  -9.86853063E-01   2.43696091E+02  -1.00153816E+02   2.00508484E+02  -9.29967761E-01   2.42652344E+02   5.87390709E+01  -3.72301698E+00
             2830                3   2.20000000E+02   2.41875916E+02   2.41875916E+02  -3.40997171E+00   6.19955139E+01   2.41875916E+02   2.41875916E+02   6.19955139E+01  -3.40997171E+00   2.45285889E+02  -1.00153816E+02   1.96270996E+02  -3.38285804E+00   2.41848801E+02   6.19955139E+01  -2.57872057E+00
             2830                4   2.20000000E+02   2.42239868E+02   2.42239868E+02  -2.38523936E+00   6.06068268E+01   2.42239868E+02   2.42239868E+02   6.06068268E+01  -2.38523936E+00   2.44625107E+02  -1.00153816E+02   1.98135666E+02  -2.10705328E+00   2.41961685E+02   6.06068268E+01  -8.24459267E+00
             2831                1   2.20000000E+02   1.55499710E+02   1.55499710E+02  -6.28046722E+01  -6.61575928E+01   1.55499710E+02   1.55499710E+02  -6.28046722E+01  -6.61575928E+01   2.21657303E+02  -8.84581470E+00   2.19942505E+02  -6.27615051E+01   1.55456543E+02  -6.61575928E+01  -3.06945109E+00
             2831                2   2.20000000E+02   1.55497269E+02   1.55497269E+02  -6.63093414E+01  -6.26504898E+01   1.55497269E+02   1.55497269E+02  -6.26504898E+01  -6.63093414E+01   2.21806610E+02  -8.84581470E+00   2.19931534E+02  -6.62900772E+01   1.55478012E+02  -6.26504898E+01  -2.06662989E+00
             2831                3   2.20000000E+02   1.55491913E+02   1.55491913E+02  -6.23500977E+01  -6.66043701E+01   1.55491913E+02   1.55491913E+02  -6.23500977E+01  -6.66043701E+01   2.22096283E+02  -8.84581470E+00   2.19907425E+02  -6.22751579E+01   1.55416977E+02  -6.66043701E+01   4.03965902E+00
             2831                4   2.20000000E+02   1.55503143E+02   1.55503143E+02  -6.59167175E+01  -6.30489616E+01   1.55503143E+02   1.55503143E+02  -6.30489616E+01  -6.59167175E+01   2.21419861E+02  -8.84581852E+00   2.19957947E+02  -6.58128433E+01   1.55399261E+02  -6.30489616E+01   4.79482174E+00
             2832                1   2.20000000E+02   2.21346619E+02   2.21346619E+02   1.01353109E-01   2.61337423E+00   2.21346619E+02   2.21346619E+02   2.61337423E+00   1.01353109E-01   2.21245255E+02  -7.46871109E+01   2.19967743E+02   5.80628216E-01   2.20867340E+02   2.61337423E+00  -1.02862759E+01
             2832                2   2.20000000E+02   2.21353775E+02   2.21353775E+02   1.32224274E+00   1.38531661E+00   2.21353775E+02   2.21353775E+02   1.38531661E+00   1.32224274E+00   2.20031525E+02  -7.46871109E+01   2.19999985E+02   1.83624518E+00   2.20839767E+02   1.38531661E+00  -1.06222410E+01
             2832                3   2.20000000E+02   2.21344284E+02   2.21344284E+02  -8.70031491E-02   2.80405664E+00   2.21344284E+02   2.21344284E+02   2.80405664E+00  -8.70031491E-02   2.21431290E+02  -7.46871109E+01   2.19957245E+02   6.27336383E-01   2.20629944E+02   2.80405664E+00  -1.25565300E+01
             2832                4   2.20000000E+02   2.21353531E+02   2.21353531E+02   1.12013733E+00   1.58766127E+00   2.21353531E+02   2.21353531E+02   1.58766127E+00   1.12013733E+00   2.20233383E+02  -7.46871109E+01   2.19998886E+02   1.88144624E+00   2.20592224E+02   1.58766127E+00  -1.29261179E+01
             2833                1   2.20000000E+02   2.37696152E+02   2.37696152E+02  -7.37777662E+00   5.72447968E+01   2.37696152E+02   2.37696152E+02   5.72447968E+01  -7.37777662E+00   2.45073929E+02  -9.58543930E+01   1.96886551E+02  -7.34011889E+00   2.37658493E+02   5.72447968E+01   3.03770280E+00
             2833                2   2.20000000E+02   2.38182632E+02   2.38182632E+02  -5.97461462E+00   5.53551445E+01   2.38182632E+02   2.38182632E+02   5.53551445E+01  -5.97461462E+00   2.44157257E+02  -9.58543930E+01   1.99364471E+02  -5.92027426E+00   2.38128296E+02   5.53551445E+01  -3.64211822E+00
             2833                3   2.20000000E+02   2.37166840E+02   2.37166840E+02  -8.80813026E+00   5.92044754E+01   2.37166840E+02   2.37166840E+02   5.92044754E+01  -8.80813026E+00   2.45974960E+02  -9.58543930E+01   1.94144958E+02  -8.78363609E+00   2.37142334E+02   5.92044754E+01  -2.45475292E+00
             2833                4   2.20000000E+02   2.37611465E+02   2.37611465E+02  -7.61295033E+00   5.75646515E+01   2.37611465E+02   2.37611465E+02   5.75646515E+01  -7.61295033E+00   2.45224426E+02  -9.58543930E+01   1.96451218E+02  -7.27948666E+00   2.37278000E+02   5.75646515E+01  -9.03680420E+00
             2834                1   2.19009308E+02   1.51475830E+02   1.51475830E+02  -6.71579514E+01  -6.79070816E+01   1.51475830E+02   1.51475830E+02  -6.71579514E+01  -6.79070816E+01   2.19382904E+02  -5.47026587E+00   2.19006424E+02  -6.70741653E+01   1.51392044E+02  -6.79070816E+01  -4.27906752E+00
             2834                2   2.19349136E+02   1.51667221E+02   1.51667221E+02  -7.04305725E+01  -6.48258514E+01   1.51667221E+02   1.51667221E+02  -6.48258514E+01  -7.04305725E+01   2.22097794E+02  -5.47026587E+00   2.19187943E+02  -7.04086151E+01   1.51645264E+02  -6.48258514E+01  -2.20822859E+00
             2834                3   2.18825073E+02   1.51344727E+02   1.51344727E+02  -6.60695801E+01  -6.88643417E+01   1.51344727E+02   1.51344727E+02  -6.60695801E+01  -6.88643417E+01   2.20209061E+02  -5.47026587E+00   2.18784912E+02  -6.60462112E+01   1.51321350E+02  -6.88643417E+01   2.25413656E+00
             2834                4   2.19178070E+02   1.51572723E+02   1.51572723E+02  -6.94688568E+01  -6.56930695E+01   1.51572723E+02   1.51572723E+02  -6.56930695E+01  -6.94688568E+01   2.21041580E+02  -5.47026587E+00   2.19104874E+02  -6.93908081E+01   1.51494675E+02  -6.56930695E+01   4.15271950E+00
             2835                1   2.20000000E+02   1.54899887E+02   1.54899887E+02  -6.47974701E+01  -6.54014969E+01   1.54899887E+02   1.54899887E+02  -6.47974701E+01  -6.54014969E+01   2.20301392E+02  -8.23364258E+00   2.19998123E+02  -6.46355515E+01   1.54737976E+02  -6.54014969E+01  -5.96204901E+00
             2835                2   2.20000000E+02   1.54855957E+02   1.54855957E+02  -6.82009506E+01  -6.19540787E+01   1.54855957E+02   1.54855957E+02  -6.19540787E+01  -6.82009506E+01   2.23056915E+02  -8.23364544E+00   2.19800323E+02  -6.81413269E+01   1.54796341E+02  -6.19540787E+01  -3.64624405E+00
             2835                3   2.20000000E+02   1.54890442E+02   1.54890442E+02  -6.36210175E+01  -6.65684967E+01   1.54890442E+02   1.54890442E+02  -6.36210175E+01  -6.65684967E+01   2.21458939E+02  -8.23363972E+00   2.19955566E+02  -6.36151352E+01   1.54884552E+02  -6.65684967E+01   1.13339484E+00
             2835                4   2.20000000E+02   1.54880402E+02   1.54880402E+02  -6.71824112E+01  -6.29970627E+01   1.54880402E+02   1.54880402E+02  -6.29970627E+01  -6.71824112E+01   2.22062820E+02  -8.23364544E+00   2.19910400E+02  -6.71354370E+01   1.54833435E+02  -6.29970627E+01   3.22935915E+00
             2836                1   2.20000000E+02   2.18367249E+02   2.18367249E+02  -3.48585558E+00   2.68416315E-01   2.18367249E+02   2.18367249E+02   2.68416315E-01  -3.48585558E+00   2.21853104E+02  -7.17166061E+01   2.19927902E+02  -2.98677754E+00   2.17868164E+02   2.68416315E-01  -1.05106821E+01
             2836                2   2.20000000E+02   2.18381897E+02   2.18381897E+02  -2.16364050E+00  -1.06845880E+00   2.18381897E+02   2.18381897E+02  -1.06845880E+00  -2.16364050E+00   2.20545547E+02  -7.17165985E+01   2.19993866E+02  -1.59129465E+00   2.17809555E+02  -1.06845880E+00  -1.12205639E+01
             2836                3   2.20000000E+02   2.18360367E+02   2.18360367E+02  -3.84953260E+00   6.38963580E-01   2.18360367E+02   2.18360367E+02   6.38963580E-01  -3.84953260E+00   2.22209900E+02  -7.17165985E+01   2.19896942E+02  -3.07827663E+00   2.17589111E+02   6.38963580E-01  -1.30684996E+01
             2836                4   2.20000000E+02   2.18379410E+02   2.18379410E+02  -2.53642273E+00  -6.93177104E-01   2.18379410E+02   2.18379410E+02  -6.93177104E-01  -2.53642273E+00   2.20915833E+02  -7.17166061E+01   2.19982620E+02  -1.66763604E+00   2.17510620E+02  -6.93177104E-01  -1.38265905E+01
             2837                1   2.20000000E+02   2.24089279E+02   2.24089279E+02  -1.48805590E+01   2.99715347E+01   2.24089279E+02   2.24089279E+02   2.99715347E+01  -1.48805590E+01   2.38969849E+02  -7.97267532E+01   2.09339172E+02  -1.48642321E+01   2.24072952E+02   2.99715347E+01  -1.97547936E+00
             2837                2   2.20000000E+02   2.24410812E+02   2.24410812E+02  -1.34293690E+01   2.81988144E+01   2.24410812E+02   2.24410812E+02   2.81988144E+01  -1.34293690E+01   2.37840179E+02  -7.97267532E+01   2.10864212E+02  -1.31856203E+01   2.24167068E+02   2.81988144E+01  -7.61006594E+00
             2837                3   2.20000000E+02   2.23719498E+02   2.23719498E+02  -1.64129505E+01   3.18736992E+01   2.23719498E+02   2.23719498E+02   3.18736992E+01  -1.64129505E+01   2.40132446E+02  -7.97267532E+01   2.07568893E+02  -1.62171097E+01   2.23523666E+02   3.18736992E+01  -6.85474586E+00
             2837                4   2.20000000E+02   2.24022583E+02   2.24022583E+02  -1.51669254E+01   3.03246002E+01   2.24022583E+02   2.24022583E+02   3.03246002E+01  -1.51669254E+01   2.39189499E+02  -7.97267532E+01   2.09021149E+02  -1.45287886E+01   2.23384445E+02   3.03246002E+01  -1.23380384E+01
             2838                1   2.20000000E+02   1.72463623E+02   1.72463623E+02  -4.69639931E+01  -4.81043129E+01   1.72463623E+02   1.72463623E+02  -4.69639931E+01  -4.81043129E+01   2.20567947E+02  -2.57984409E+01   2.19993347E+02  -4.67718544E+01   1.72271484E+02  -4.81043129E+01  -6.49036264E+00
             2838                2   2.20000000E+02   1.72440659E+02   1.72440659E+02  -4.98410988E+01  -4.52042618E+01   1.72440659E+02   1.72440659E+02  -4.52042618E+01  -4.98410988E+01   2.22281769E+02  -2.57984333E+01   2.19890015E+02  -4.97222404E+01   1.72321808E+02  -4.52042618E+01  -5.13860369E+00
             2838                3   2.20000000E+02   1.72458054E+02   1.72458054E+02  -4.62850609E+01  -4.87776718E+01   1.72458054E+02   1.72458054E+02  -4.62850609E+01  -4.87776718E+01   2.21235718E+02  -2.57984390E+01   2.19968231E+02  -4.62833557E+01   1.72456345E+02  -4.87776718E+01  -6.10408366E-01
             2838                4   2.20000000E+02   1.72451645E+02   1.72451645E+02  -4.92481995E+01  -4.58081398E+01   1.72451645E+02   1.72451645E+02  -4.58081398E+01  -4.92481995E+01   2.21699844E+02  -2.57984371E+01   2.19939468E+02  -4.92468491E+01   1.72450302E+02  -4.58081398E+01   5.47620058E-01
             2839                1   2.20000000E+02   2.36888351E+02   2.36888351E+02  -6.90981579E+00   5.31681938E+01   2.36888351E+02   2.36888351E+02   5.31681938E+01  -6.90981579E+00   2.43798157E+02  -9.43822403E+01   2.00260818E+02  -6.90090275E+00   2.36879440E+02   5.31681938E+01   1.47352374E+00
             2839                2   2.20000000E+02   2.37298050E+02   2.37298050E+02  -5.61748219E+00   5.14661446E+01   2.37298050E+02   2.37298050E+02   5.14661446E+01  -5.61748219E+00   2.42915543E+02  -9.43822403E+01   2.02307037E+02  -5.53508997E+00   2.37215668E+02   5.14661446E+01  -4.47284222E+00
             2839                3   2.20000000E+02   2.36431671E+02   2.36431671E+02  -8.26212025E+00   5.49771729E+01   2.36431671E+02   2.36431671E+02   5.49771729E+01  -8.26212025E+00   2.44693802E+02  -9.43822403E+01   1.97949081E+02  -8.21673584E+00   2.36386292E+02   5.49771729E+01  -3.33214045E+00
             2839                4   2.20000000E+02   2.36811569E+02   2.36811569E+02  -7.14330530E+00   5.34784660E+01   2.36811569E+02   2.36811569E+02   5.34784660E+01  -7.14330530E+00   2.43954865E+02  -9.43822403E+01   1.99874466E+02  -6.79659700E+00   2.36464859E+02   5.34784660E+01  -9.19021988E+00
             2840                1   2.20000000E+02   2.43367432E+02   2.43367432E+02  -1.02694619E+00   6.11407433E+01   2.43367432E+02   2.43367432E+02   6.11407433E+01  -1.02694619E+00   2.44394379E+02  -1.01160408E+02   1.98750610E+02  -9.80042934E-01   2.43320526E+02   6.11407433E+01  -3.38541532E+00
             2840                2   2.20000000E+02   2.42860596E+02   2.42860596E+02  -2.46351910E+00   6.30841370E+01   2.42860596E+02   2.42860596E+02   6.30841370E+01  -2.46351910E+00   2.45324112E+02  -1.01160400E+02   1.96158096E+02  -2.18479943E+00   2.42581879E+02   6.30841370E+01  -8.26432228E+00
             2840                3   2.20000000E+02   2.42936401E+02   2.42936401E+02  -2.25464344E+00   6.27994652E+01   2.42936401E+02   2.42936401E+02   6.27994652E+01  -2.25464344E+00   2.45191055E+02  -1.01160408E+02   1.96548553E+02  -2.22485065E+00   2.42906616E+02   6.27994652E+01   2.70246720E+00
             2840                4   2.20000000E+02   2.42465057E+02   2.42465057E+02  -3.52249169E+00   6.45386505E+01   2.42465057E+02   2.42465057E+02   6.45386505E+01  -3.52249169E+00   2.45987549E+02  -1.01160400E+02   1.94104279E+02  -3.50162792E+00   2.42444199E+02   6.45386505E+01  -2.26508880E+00
             2841                1   2.20000000E+02   1.52527252E+02   1.52527252E+02  -6.92648697E+01  -6.56357193E+01   1.52527252E+02   1.52527252E+02  -6.56357193E+01  -6.92648697E+01   2.21792114E+02  -5.87555456E+00   2.19932632E+02  -6.92499008E+01   1.52512283E+02  -6.56357193E+01  -1.82215846E+00
             2841                2   2.20000000E+02   1.52533218E+02   1.52533218E+02  -6.88599014E+01  -6.60466614E+01   1.52533218E+02   1.52533218E+02  -6.60466614E+01  -6.88599014E+01   2.21393127E+02  -5.87555456E+00   2.19959518E+02  -6.87476654E+01   1.52420990E+02  -6.60466614E+01   4.98347664E+00
             2841                3   2.19999985E+02   1.52529770E+02   1.52529770E+02  -6.57969513E+01  -6.91061630E+01   1.52529770E+02   1.52529770E+02  -6.57969513E+01  -6.91061630E+01   2.21635925E+02  -5.87555170E+00   2.19943985E+02  -6.57597046E+01   1.52492523E+02  -6.91061630E+01  -2.85135651E+00
             2841                4   2.20000000E+02   1.52521835E+02   1.52521835E+02  -6.53296432E+01  -6.95655289E+01   1.52521835E+02   1.52521835E+02  -6.53296432E+01  -6.95655289E+01   2.22087357E+02  -5.87555170E+00   2.19908218E+02  -6.52490692E+01   1.52441254E+02  -6.95655289E+01   4.18888187E+00
             2842                1   2.20000000E+02   1.85657059E+02   1.85657059E+02  -4.24201202E+01  -2.52608452E+01   1.85657059E+02   1.85657059E+02  -2.52608452E+01  -4.24201202E+01   2.28077179E+02  -3.93253632E+01   2.18486832E+02  -4.23568077E+01   1.85593750E+02  -2.52608452E+01  -3.79941177E+00
             2842                2   2.20000000E+02   1.85827713E+02   1.85827713E+02  -3.99367943E+01  -2.79148216E+01   1.85827713E+02   1.85827713E+02  -2.79148216E+01  -3.99367943E+01   2.25764496E+02  -3.93253632E+01   2.19259155E+02  -3.96511497E+01   1.85542068E+02  -2.79148216E+01  -8.02531147E+00
             2842                3   2.20000000E+02   1.85498932E+02   1.85498932E+02  -4.41681137E+01  -2.33547249E+01   1.85498932E+02   1.85498932E+02  -2.33547249E+01  -4.41681137E+01   2.29667038E+02  -3.93253632E+01   2.17768417E+02  -4.38022156E+01   1.85133026E+02  -2.33547249E+01  -9.15975571E+00
             2842                4   2.20000000E+02   1.85696350E+02   1.85696350E+02  -4.19214897E+01  -2.57987595E+01   1.85696350E+02   1.85696350E+02  -2.57987595E+01  -4.19214897E+01   2.27617844E+02  -3.93253670E+01   2.18664902E+02  -4.11238708E+01   1.84898727E+02  -2.57987595E+01  -1.34505081E+01
             2843                1   2.20000000E+02   2.18252686E+02   2.18252686E+02  -1.59016237E+01   1.58595247E+01   2.18252686E+02   2.18252686E+02   1.58595247E+01  -1.59016237E+01   2.34154312E+02  -7.27368622E+01   2.14750992E+02  -1.58332033E+01   2.18184265E+02   1.58595247E+01  -4.00194740E+00
             2843                2   2.20000000E+02   2.18523270E+02   2.18523270E+02  -1.40515680E+01   1.37388926E+01   2.18523270E+02   2.18523270E+02   1.37388926E+01  -1.40515680E+01   2.32574829E+02  -7.27368622E+01   2.15998077E+02  -1.36203909E+01   2.18092087E+02   1.37388926E+01  -1.00047407E+01
             2843                3   2.20000000E+02   2.18016953E+02   2.18016953E+02  -1.73274689E+01   1.75211163E+01   2.18016953E+02   2.18016953E+02   1.75211163E+01  -1.73274689E+01   2.35344421E+02  -7.27368698E+01   2.13657700E+02  -1.68826218E+01   2.17572098E+02   1.75211163E+01  -1.02223291E+01
             2843                4   2.20000000E+02   2.18259323E+02   2.18259323E+02  -1.58592224E+01   1.58104858E+01   2.18259323E+02   2.18259323E+02   1.58104858E+01  -1.58592224E+01   2.34118546E+02  -7.27368622E+01   2.14781708E+02  -1.48055592E+01   2.17205658E+02   1.58104858E+01  -1.56707487E+01
             2844                1   2.20000000E+02   1.83461975E+02   1.83461975E+02  -4.52656136E+01  -2.66241550E+01   1.83461975E+02   1.83461975E+02  -2.66241550E+01  -4.52656136E+01   2.28727585E+02  -3.71907387E+01   2.18212494E+02  -4.52379112E+01   1.83434280E+02  -2.66241550E+01  -2.51684713E+00
             2844                2   2.20000000E+02   1.83654633E+02   1.83654633E+02  -4.27179832E+01  -2.93644276E+01   1.83654633E+02   1.83654633E+02  -2.93644276E+01  -4.27179832E+01   2.26372604E+02  -3.71907387E+01   2.19085388E+02  -4.24901772E+01   1.83426819E+02  -2.93644276E+01  -7.17760134E+00
             2844                3   2.20000000E+02   1.83274689E+02   1.83274689E+02  -4.71624603E+01  -2.45400124E+01   1.83274689E+02   1.83274689E+02  -2.45400124E+01  -4.71624603E+01   2.30437149E+02  -3.71907387E+01   2.17360077E+02  -4.68793030E+01   1.82991531E+02  -2.45400124E+01  -8.07276535E+00
             2844                4   2.20000000E+02   1.83495789E+02   1.83495789E+02  -4.48755531E+01  -2.70480270E+01   1.83495789E+02   1.83495789E+02  -2.70480270E+01  -4.48755531E+01   2.28371353E+02  -3.71907387E+01   2.18365997E+02  -4.41568794E+01   1.82777115E+02  -2.70480270E+01  -1.27909689E+01
             2845                1   2.13807938E+02   1.55345047E+02   1.55345047E+02  -5.93797951E+01  -5.75340309E+01   1.55345047E+02   1.55345047E+02  -5.75340309E+01  -5.93797951E+01   2.14724854E+02  -1.28104086E+01   2.13790009E+02  -5.93468513E+01   1.55312103E+02  -5.75340309E+01  -2.65962315E+00
             2845                2   2.14418793E+02   1.55695145E+02   1.55695145E+02  -6.22518311E+01  -5.50120964E+01   1.55695145E+02   1.55695145E+02  -5.50120964E+01  -6.22518311E+01   2.17946976E+02  -1.28104057E+01   2.14143539E+02  -6.22518120E+01   1.55695129E+02  -5.50120964E+01  -5.40018864E-02
             2845                3   2.13540726E+02   1.55170334E+02   1.55170334E+02  -5.80258675E+01  -5.87132416E+01   1.55170334E+02   1.55170334E+02  -5.80258675E+01  -5.87132416E+01   2.13883575E+02  -1.28104095E+01   2.13538239E+02  -5.79866486E+01   1.55131119E+02  -5.87132416E+01   2.89129925E+00
             2845                4   2.14176392E+02   1.55566238E+02   1.55566238E+02  -6.10350418E+01  -5.60999718E+01   1.55566238E+02   1.55566238E+02  -5.60999718E+01  -6.10350418E+01   2.16601288E+02  -1.28104086E+01   2.14048401E+02  -6.09005203E+01   1.55431717E+02  -5.60999718E+01   5.39619589E+00
             2846                1   2.20000000E+02   1.88234848E+02   1.88234848E+02  -3.91836052E+01  -2.35082169E+01   1.88234848E+02   1.88234848E+02  -2.35082169E+01  -3.91836052E+01   2.27418457E+02  -4.18476753E+01   2.18738251E+02  -3.90753670E+01   1.88126602E+02  -2.35082169E+01  -4.96031952E+00
             2846                2   2.20000000E+02   1.88382568E+02   1.88382568E+02  -3.68028488E+01  -2.60366859E+01   1.88382568E+02   1.88382568E+02  -2.60366859E+01  -3.68028488E+01   2.25185410E+02  -4.18476753E+01   2.19406097E+02  -3.64563828E+01   1.88036087E+02  -2.60366859E+01  -8.82614994E+00
             2846                3   2.20000000E+02   1.88101639E+02   1.88101639E+02  -4.08013000E+01  -2.17573128E+01   1.88101639E+02   1.88101639E+02  -2.17573128E+01  -4.08013000E+01   2.28902939E+02  -4.18476753E+01   2.18133987E+02  -4.03596001E+01   1.87659943E+02  -2.17573128E+01  -1.00454044E+01
             2846                4   2.20000000E+02   1.88273972E+02   1.88273972E+02  -3.86344070E+01  -2.40965500E+01   1.88273972E+02   1.88273972E+02  -2.40965500E+01  -3.86344070E+01   2.26908386E+02  -4.18476753E+01   2.18915390E+02  -3.77709160E+01   1.87410492E+02  -2.40965500E+01  -1.39709263E+01
             2847                1   2.20000000E+02   2.30898254E+02   2.30898254E+02  -1.20255041E+01   4.50854874E+01   2.30898254E+02   2.30898254E+02   4.50854874E+01  -1.20255041E+01   2.42923767E+02  -8.79860840E+01   2.02288971E+02  -1.20195398E+01   2.30892303E+02   4.50854874E+01   1.20297146E+00
             2847                2   2.20000000E+02   2.31329102E+02   2.31329102E+02  -1.05725279E+01   4.32016754E+01   2.31329102E+02   2.31329102E+02   4.32016754E+01  -1.05725279E+01   2.41901627E+02  -8.79860840E+01   2.04413971E+02  -1.04633856E+01   2.31219955E+02   4.32016754E+01  -5.13724804E+00
             2847                3   2.20000000E+02   2.30415634E+02   2.30415634E+02  -1.35387716E+01   4.70813904E+01   2.30415634E+02   2.30415634E+02   4.70813904E+01  -1.35387716E+01   2.43954407E+02  -8.79860840E+01   1.99875610E+02  -1.34759254E+01   2.30352783E+02   4.70813904E+01  -3.91516399E+00
             2847                4   2.20000000E+02   2.30818207E+02   2.30818207E+02  -1.22842922E+01   4.54243317E+01   2.30818207E+02   2.30818207E+02   4.54243317E+01  -1.22842922E+01   2.43102509E+02  -8.79860840E+01   2.01891144E+02  -1.18561239E+01   2.30390045E+02   4.54243317E+01  -1.01933937E+01
             2848                1   2.20000000E+02   2.01931732E+02   2.01931732E+02  -3.61544495E+01   6.16686869E+00   2.01931732E+02   2.01931732E+02   6.16686869E+00  -3.61544495E+01   2.38086182E+02  -5.73147163E+01   2.10547272E+02  -3.54542046E+01   2.01231491E+02   6.16686869E+00  -1.28929043E+01
             2848                2   2.20000000E+02   2.01413071E+02   2.01413071E+02  -3.84005051E+01   8.93159389E+00   2.01413071E+02   2.01413071E+02   8.93159389E+00  -3.84005051E+01   2.39813583E+02  -5.73147240E+01   2.08076279E+02  -3.83228340E+01   2.01335403E+02   8.93159389E+00  -4.31523943E+00
             2848                3   2.20000000E+02   2.02493622E+02   2.02493622E+02  -3.33204727E+01   2.77100873E+00   2.02493622E+02   2.02493622E+02   2.77100873E+00  -3.33204727E+01   2.35814087E+02  -5.73147163E+01   2.13186447E+02  -3.32569389E+01   2.02430084E+02   2.77100873E+00  -3.87007022E+00
             2848                4   2.20000000E+02   2.01951141E+02   2.01951141E+02  -3.60643654E+01   6.05737734E+00   2.01951141E+02   2.01951141E+02   6.05737734E+00  -3.60643654E+01   2.38015518E+02  -5.73147163E+01   2.10639130E+02  -3.59705238E+01   2.01857300E+02   6.05737734E+00   4.72528076E+00
             2849                1   2.20000000E+02   2.43441101E+02   2.43441101E+02  -2.34257054E+00   6.49363861E+01   2.43441101E+02   2.43441101E+02   6.49363861E+01  -2.34257054E+00   2.45783661E+02  -1.02011635E+02   1.94755280E+02  -2.29566741E+00   2.43394196E+02   6.49363861E+01   3.39489698E+00
             2849                2   2.20000000E+02   2.43909378E+02   2.43909378E+02  -1.06364715E+00   6.31891747E+01   2.43909378E+02   2.43909378E+02   6.31891747E+01  -1.06364715E+00   2.44973022E+02  -1.02011635E+02   1.97173691E+02  -1.02448654E+00   2.43870224E+02   6.31891747E+01  -3.09690547E+00
             2849                3   2.20000000E+02   2.42932785E+02   2.42932785E+02  -3.65198016E+00   6.67540970E+01   2.42932785E+02   2.42932785E+02   6.67540970E+01  -3.65198016E+00   2.46584763E+02  -1.02011635E+02   1.92086029E+02  -3.63696218E+00   2.42917770E+02   6.67540970E+01  -1.92427421E+00
             2849                4   2.20000000E+02   2.43359055E+02   2.43359055E+02  -2.55917883E+00   6.52350388E+01   2.43359055E+02   2.43359055E+02   6.52350388E+01  -2.55917883E+00   2.45918243E+02  -1.02011635E+02   1.94327652E+02  -2.27749991E+00   2.43077377E+02   6.52350388E+01  -8.31814289E+00
             2850                1   2.19705154E+02   1.50122452E+02   1.50122452E+02  -6.79448776E+01  -7.11846924E+01   1.50122452E+02   1.50122452E+02  -6.79448776E+01  -7.11846924E+01   2.21307144E+02  -3.66429639E+00   2.19651398E+02  -6.79173431E+01   1.50094925E+02  -7.11846924E+01  -2.45016050E+00
             2850                2   2.19999985E+02   1.50316895E+02   1.50316895E+02  -7.14211349E+01  -6.79028625E+01   1.50316895E+02   1.50316895E+02  -6.79028625E+01  -7.14211349E+01   2.21738022E+02  -3.66429639E+00   2.19936676E+02  -7.14104462E+01   1.50306198E+02  -6.79028625E+01  -1.53973174E+00
             2850                3   2.19677124E+02   1.50097153E+02   1.50097153E+02  -6.75326233E+01  -7.15716400E+01   1.50097153E+02   1.50097153E+02  -6.75326233E+01  -7.15716400E+01   2.21668793E+02  -3.66429400E+00   2.19593552E+02  -6.74437485E+01   1.50008270E+02  -7.15716400E+01   4.39695787E+00
             2850                4   2.20000000E+02   1.50321991E+02   1.50321991E+02  -7.10696182E+01  -6.82594757E+01   1.50321991E+02   1.50321991E+02  -6.82594757E+01  -7.10696182E+01   2.21391617E+02  -3.66430163E+00   2.19959610E+02  -7.09520416E+01   1.50204422E+02  -6.82594757E+01   5.10061598E+00
             2851                1   2.13218063E+02   1.68472641E+02   1.68472641E+02  -4.96777534E+01  -3.94445648E+01   1.68472641E+02   1.68472641E+02  -3.94445648E+01  -4.96777534E+01   2.18150391E+02  -2.64501095E+01   2.12664490E+02  -4.94487610E+01   1.68243652E+02  -3.94445648E+01   7.06413889E+00
             2851                2   2.12305664E+02   1.67956192E+02   1.67956192E+02  -4.68694382E+01  -4.17364159E+01   1.67956192E+02   1.67956192E+02  -4.17364159E+01  -4.68694382E+01   2.14825623E+02  -2.64501133E+01   2.12165985E+02  -4.68119278E+01   1.67898682E+02  -4.17364159E+01   3.51456928E+00
             2851                3   2.13739532E+02   1.68733429E+02   1.68733429E+02  -5.13839912E+01  -3.79991112E+01   1.68733429E+02   1.68733429E+02  -3.79991112E+01  -5.13839912E+01   2.20117416E+02  -2.64501095E+01   2.12793533E+02  -5.13637466E+01   1.68713181E+02  -3.79991112E+01   2.11069131E+00
             2851                4   2.12872314E+02   1.68278824E+02   1.68278824E+02  -4.87462883E+01  -4.01822052E+01   1.68278824E+02   1.68278824E+02  -4.01822052E+01  -4.87462883E+01   2.17025116E+02  -2.64501095E+01   2.12484192E+02  -4.87360420E+01   1.68268570E+02  -4.01822052E+01  -1.49150789E+00
             2852                1   2.19182846E+02   1.55496216E+02   1.55496216E+02  -6.51376801E+01  -6.22062111E+01   1.55496216E+02   1.55496216E+02  -6.22062111E+01  -6.51376801E+01   2.20633896E+02  -9.38410568E+00   2.19138733E+02  -6.49933243E+01   1.55351852E+02  -6.22062111E+01  -5.64165735E+00
             2852                2   2.19471085E+02   1.55601776E+02   1.55601776E+02  -6.83233566E+01  -5.91261063E+01   1.55601776E+02   1.55601776E+02  -5.91261063E+01  -6.83233566E+01   2.23925125E+02  -9.38410473E+00   2.19036865E+02  -6.82981796E+01   1.55576599E+02  -5.91261063E+01  -2.37408257E+00
             2852                3   2.19229462E+02   1.55536942E+02   1.55536942E+02  -6.35206795E+01  -6.38639565E+01   1.55536942E+02   1.55536942E+02  -6.35206795E+01  -6.38639565E+01   2.19400909E+02  -9.38410282E+00   2.19228867E+02  -6.35166893E+01   1.55532959E+02  -6.38639565E+01   9.34530497E-01
             2852                4   2.19522934E+02   1.55687714E+02   1.55687714E+02  -6.69104462E+01  -6.06249619E+01   1.55687714E+02   1.55687714E+02  -6.06249619E+01  -6.69104462E+01   2.22598160E+02  -9.38410473E+00   2.19320328E+02  -6.68366165E+01   1.55613892E+02  -6.06249619E+01   4.05335140E+00
             2853                1   2.20000000E+02   2.24439758E+02   2.24439758E+02  -1.91121483E+01   4.01189690E+01   2.24439758E+02   2.24439758E+02   4.01189690E+01  -1.91121483E+01   2.43551895E+02  -8.18155289E+01   2.00853394E+02  -1.89790134E+01   2.24306625E+02   4.01189690E+01   5.69262695E+00
             2853                2   2.20000000E+02   2.25090408E+02   2.25090408E+02  -1.69800282E+01   3.73361969E+01   2.25090408E+02   2.25090408E+02   3.73361969E+01  -1.69800282E+01   2.42070435E+02  -8.18155289E+01   2.04079697E+02  -1.69469185E+01   2.25057297E+02   3.73361969E+01  -2.83103418E+00
             2853                3   2.20000000E+02   2.23788681E+02   2.23788681E+02  -2.10465965E+01   4.27045021E+01   2.23788681E+02   2.23788681E+02   4.27045021E+01  -2.10465965E+01   2.44835281E+02  -8.18155289E+01   1.97559631E+02  -2.10294094E+01   2.23771484E+02   4.27045021E+01  -2.05162430E+00
             2853                4   2.20000000E+02   2.24404434E+02   2.24404434E+02  -1.92217464E+01   4.02638893E+01   2.24404434E+02   2.24404434E+02   4.02638893E+01  -1.92217464E+01   2.43626190E+02  -8.18155289E+01   2.00676468E+02  -1.87386017E+01   2.23921295E+02   4.02638893E+01  -1.08385096E+01
             2854                1   2.20000000E+02   2.31147766E+02   2.31147766E+02  -4.29513788E+00   3.08129063E+01   2.31147766E+02   2.31147766E+02   3.08129063E+01  -4.29513788E+00   2.35442902E+02  -8.58885117E+01   2.13560822E+02  -4.21370029E+00   2.31066330E+02   3.08129063E+01  -4.37807465E+00
             2854                2   2.20000000E+02   2.31301727E+02   2.31301727E+02  -3.38865185E+00   2.97524757E+01   2.31301727E+02   2.31301727E+02   2.97524757E+01  -3.38865185E+00   2.34690369E+02  -8.58885193E+01   2.14275864E+02  -3.13947988E+00   2.31052551E+02   2.97524757E+01  -7.64303493E+00
             2854                3   2.20000000E+02   2.30956924E+02   2.30956924E+02  -5.34593582E+00   3.20545502E+01   2.30956924E+02   2.30956924E+02   3.20545502E+01  -5.34593582E+00   2.36302856E+02  -8.58885117E+01   2.12670532E+02  -5.14795303E+00   2.30758942E+02   3.20545502E+01  -6.83707476E+00
             2854                4   2.20000000E+02   2.31110107E+02   2.31110107E+02  -4.50844383E+00   3.10638714E+01   2.31110107E+02   2.31110107E+02   3.10638714E+01  -4.50844383E+00   2.35618561E+02  -8.58885117E+01   2.13385498E+02  -4.07764101E+00   2.30679306E+02   3.10638714E+01  -1.00658102E+01
             2855                1   2.19948624E+02   1.61635925E+02   1.61635925E+02  -6.21628609E+01  -5.42489319E+01   1.61635925E+02   1.61635925E+02  -5.42489319E+01  -6.21628609E+01   2.23798782E+02  -1.50747118E+01   2.19627960E+02  -6.19498863E+01   1.61422958E+02  -5.42489319E+01  -6.90052223E+00
             2855                2   2.20000000E+02   1.61512939E+02   1.61512939E+02  -6.52307510E+01  -5.10580521E+01   1.61512939E+02   1.61512939E+02  -5.10580521E+01  -6.52307510E+01   2.26743698E+02  -1.50747118E+01   2.18969360E+02  -6.52047043E+01   1.61486893E+02  -5.10580521E+01  -2.43040776E+00
             2855                3   2.19545212E+02   1.61424469E+02   1.61424469E+02  -5.98354683E+01  -5.63648643E+01   1.61424469E+02   1.61424469E+02  -5.63648643E+01  -5.98354683E+01   2.21259949E+02  -1.50747137E+01   2.19483475E+02  -5.98353920E+01   1.61424393E+02  -5.63648643E+01  -1.34389922E-01
             2855                4   2.20000000E+02   1.61622025E+02   1.61622025E+02  -6.33221931E+01  -5.30756874E+01   1.61622025E+02   1.61622025E+02  -5.30756874E+01  -6.33221931E+01   2.24944214E+02  -1.50747137E+01   2.19462173E+02  -6.32435226E+01   1.61543350E+02  -5.30756874E+01   4.20612669E+00
             2856                1   2.20000000E+02   2.31337189E+02   2.31337189E+02  -1.22908087E+01   4.72010384E+01   2.31337189E+02   2.31337189E+02   4.72010384E+01  -1.22908087E+01   2.43628006E+02  -8.87491455E+01   2.00672134E+02  -1.22751541E+01   2.31321548E+02   4.72010384E+01   1.95237684E+00
             2856                2   2.20000000E+02   2.31798172E+02   2.31798172E+02  -1.08122091E+01   4.52614708E+01   2.31798172E+02   2.31798172E+02   4.52614708E+01  -1.08122091E+01   2.42610382E+02  -8.87491455E+01   2.02966888E+02  -1.07247839E+01   2.31710739E+02   4.52614708E+01  -4.60479498E+00
             2856                3   2.20000000E+02   2.30826782E+02   2.30826782E+02  -1.38141422E+01   4.92347908E+01   2.30826782E+02   2.30826782E+02   4.92347908E+01  -1.38141422E+01   2.44640915E+02  -8.87491455E+01   1.98092819E+02  -1.37654428E+01   2.30778076E+02   4.92347908E+01  -3.45132542E+00
             2856                4   2.20000000E+02   2.31249146E+02   2.31249146E+02  -1.25615444E+01   4.75598183E+01   2.31249146E+02   2.31249146E+02   4.75598183E+01  -1.25615444E+01   2.43810699E+02  -8.87491455E+01   2.00230164E+02  -1.21623487E+01   2.30849960E+02   4.75598183E+01  -9.85735989E+00
             2857                1   2.20000000E+02   1.69848282E+02   1.69848282E+02  -5.79411774E+01  -4.14321175E+01   1.69848282E+02   1.69848282E+02  -4.14321175E+01  -5.79411774E+01   2.27789459E+02  -2.34916630E+01   2.18599838E+02  -5.79042206E+01   1.69811325E+02  -4.14321175E+01   2.90125537E+00
             2857                2   2.20000000E+02   1.70047653E+02   1.70047653E+02  -5.47199936E+01  -4.48526611E+01   1.70047653E+02   1.70047653E+02  -4.48526611E+01  -5.47199936E+01   2.24767639E+02  -2.34916630E+01   2.19501297E+02  -5.46899376E+01   1.70017593E+02  -4.48526611E+01  -2.59888124E+00
             2857                3   2.20000000E+02   1.69642212E+02   1.69642212E+02  -6.02299957E+01  -3.89372292E+01   1.69642212E+02   1.69642212E+02  -3.89372292E+01  -6.02299957E+01   2.29872208E+02  -2.34916630E+01   2.17663635E+02  -6.01671867E+01   1.69579407E+02  -3.89372292E+01  -3.79910398E+00
             2857                4   2.20000000E+02   1.69891846E+02   1.69891846E+02  -5.73617249E+01  -4.20551224E+01   1.69891846E+02   1.69891846E+02  -4.20551224E+01  -5.73617249E+01   2.27253571E+02  -2.34916668E+01   2.18797165E+02  -5.69738350E+01   1.69503952E+02  -4.20551224E+01  -9.38082695E+00
             2858                1   2.20000000E+02   2.29639709E+02   2.29639709E+02  -1.23305569E+01   4.16636162E+01   2.29639709E+02   2.29639709E+02   4.16636162E+01  -1.23305569E+01   2.41970276E+02  -8.63242569E+01   2.04278824E+02  -1.20284729E+01   2.29337631E+02   4.16636162E+01   8.54424667E+00
             2858                2   2.20000000E+02   2.30257507E+02   2.30257507E+02  -1.00503073E+01   3.87655678E+01   2.30257507E+02   2.30257507E+02   3.87655678E+01  -1.00503073E+01   2.40307816E+02  -8.63242569E+01   2.07282379E+02  -1.00501051E+01   2.30257309E+02   3.87655678E+01   2.17866451E-01
             2858                3   2.20000000E+02   2.28957993E+02   2.28957993E+02  -1.45738068E+01   4.45885887E+01   2.28957993E+02   2.28957993E+02   4.45885887E+01  -1.45738068E+01   2.43531799E+02  -8.63242569E+01   2.00900986E+02  -1.45623741E+01   2.28946564E+02   4.45885887E+01   1.66829205E+00
             2858                4   2.20000000E+02   2.29558716E+02   2.29558716E+02  -1.26105900E+01   4.20246658E+01   2.29558716E+02   2.29558716E+02   4.20246658E+01  -1.26105900E+01   2.42169296E+02  -8.63242569E+01   2.03881012E+02  -1.24227514E+01   2.29370865E+02   4.20246658E+01  -6.74204350E+00
             2859                1   2.20000000E+02   2.25781021E+02   2.25781021E+02  -2.17518783E+00   1.47103043E+01   2.25781021E+02   2.25781021E+02   1.47103043E+01  -2.17518783E+00   2.27956207E+02  -7.94387131E+01   2.18534958E+02  -1.94507074E+00   2.25550903E+02   1.47103043E+01  -7.23907423E+00
             2859                2   2.20000000E+02   2.25830353E+02   2.25830353E+02  -1.53211331E+00   1.40179110E+01   2.25830353E+02   2.25830353E+02   1.40179110E+01  -1.53211331E+00   2.27362457E+02  -7.94387131E+01   2.18758438E+02  -1.19043720E+00   2.25488663E+02   1.40179110E+01  -8.80734253E+00
             2859                3   2.20000000E+02   2.25728622E+02   2.25728622E+02  -2.80457807E+00   1.53920965E+01   2.25728622E+02   2.25728622E+02   1.53920965E+01  -2.80457807E+00   2.28533203E+02  -7.94387131E+01   2.18297256E+02  -2.47605109E+00   2.25400085E+02   1.53920965E+01  -8.65869904E+00
             2859                4   2.20000000E+02   2.25780243E+02   2.25780243E+02  -2.18498254E+00   1.47208738E+01   2.25780243E+02   2.25780243E+02   1.47208738E+01  -2.18498254E+00   2.27965225E+02  -7.94387131E+01   2.18531418E+02  -1.72556448E+00   2.25320831E+02   1.47208738E+01  -1.02234478E+01
             2860                1   2.17381363E+02   1.54833908E+02   1.54833908E+02  -6.37758179E+01  -6.12979050E+01   1.54833908E+02   1.54833908E+02  -6.12979050E+01  -6.37758179E+01   2.18609726E+02  -9.92006207E+00   2.17349579E+02  -6.36821632E+01   1.54740250E+02  -6.12979050E+01  -4.52389860E+00
             2860                2   2.17990616E+02   1.55163513E+02   1.55163513E+02  -6.69704361E+01  -5.84328842E+01   1.55163513E+02   1.55163513E+02  -5.84328842E+01  -6.69704361E+01   2.22133957E+02  -9.92006397E+00   2.17613968E+02  -6.69591141E+01   1.55152191E+02  -5.84328842E+01  -1.58634019E+00
             2860                3   2.17160004E+02   1.54693192E+02   1.54693192E+02  -6.22504311E+01  -6.26825714E+01   1.54693192E+02   1.54693192E+02  -6.22504311E+01  -6.26825714E+01   2.17375763E+02  -9.92006207E+00   2.17159042E+02  -6.22357864E+01   1.54678543E+02  -6.26825714E+01   1.78210497E+00
             2860                4   2.17792725E+02   1.55074875E+02   1.55074875E+02  -6.56209335E+01  -5.96937485E+01   1.55074875E+02   1.55074875E+02  -5.96937485E+01  -6.56209335E+01   2.20695801E+02  -9.92006397E+00   2.17611145E+02  -6.55256119E+01   1.54979553E+02  -5.96937485E+01   4.58568430E+00
             2861                1   2.20000000E+02   2.43867325E+02   2.43867325E+02  -2.40161419E+00   6.67540894E+01   2.43867325E+02   2.43867325E+02   6.67540894E+01  -2.40161419E+00   2.46268936E+02  -1.02739929E+02   1.93174789E+02  -2.33610511E+00   2.43801819E+02   6.67540894E+01   4.01602840E+00
             2861                2   2.20000000E+02   2.44372543E+02   2.44372543E+02  -1.06858277E+00   6.49158478E+01   2.44372543E+02   2.44372543E+02   6.49158478E+01  -1.06858277E+00   2.45441116E+02  -1.02739929E+02   1.95809082E+02  -1.03711581E+00   2.44341064E+02   6.49158478E+01  -2.77918458E+00
             2861                3   2.20000000E+02   2.43328613E+02   2.43328613E+02  -3.74071312E+00   6.86318893E+01   2.43328613E+02   2.43328613E+02   6.86318893E+01  -3.74071312E+00   2.47069336E+02  -1.02739929E+02   1.90313919E+02  -3.72982788E+00   2.43317734E+02   6.86318893E+01  -1.63990593E+00
             2861                4   2.20000000E+02   2.43785812E+02   2.43785812E+02  -2.60939193E+00   6.70433731E+01   2.43785812E+02   2.43785812E+02   6.70433731E+01  -2.60939193E+00   2.46395203E+02  -1.02739929E+02   1.92745438E+02  -2.32704329E+00   2.43503464E+02   6.70433731E+01  -8.33606720E+00
             2862                1   2.18343781E+02   1.48897812E+02   1.48897812E+02  -6.78668671E+01  -7.09915466E+01   1.48897812E+02   1.48897812E+02  -6.78668671E+01  -7.09915466E+01   2.19889359E+02  -3.34646606E+00   2.18293472E+02  -6.78475800E+01   1.48878525E+02  -7.09915466E+01  -2.04449630E+00
             2862                2   2.18799637E+02   1.49199799E+02   1.49199799E+02  -7.12718582E+01  -6.78885574E+01   1.49199799E+02   1.49199799E+02  -6.78885574E+01  -7.12718582E+01   2.20471664E+02  -3.34646106E+00   2.18740768E+02  -7.12653732E+01   1.49193314E+02  -6.78885574E+01  -1.19616258E+00
             2862                3   2.18186020E+02   1.48786804E+02   1.48786804E+02  -6.74471664E+01  -7.13002472E+01   1.48786804E+02   1.48786804E+02  -6.74471664E+01  -7.13002472E+01   2.20087051E+02  -3.34646344E+00   2.18109451E+02  -6.73517532E+01   1.48691391E+02  -7.13002472E+01   4.54104185E+00
             2862                4   2.18713348E+02   1.49146835E+02   1.49146835E+02  -7.09193954E+01  -6.81880493E+01   1.49146835E+02   1.49146835E+02  -6.81880493E+01  -7.09193954E+01   2.20066223E+02  -3.34646344E+00   2.18674973E+02  -7.07961197E+01   1.49023560E+02  -6.81880493E+01   5.20710850E+00
             2863                1   2.12659241E+02   1.51400665E+02   1.51400665E+02  -6.07723351E+01  -6.17415047E+01   1.51400665E+02   1.51400665E+02  -6.07723351E+01  -6.17415047E+01   2.13142166E+02  -9.62894058E+00   2.12654266E+02  -6.07486382E+01   1.51376968E+02  -6.17415047E+01  -2.24193025E+00
             2863                2   2.13308456E+02   1.51811401E+02   1.51811401E+02  -6.36858177E+01  -5.92387543E+01   1.51811401E+02   1.51811401E+02  -5.92387543E+01  -6.36858177E+01   2.15497208E+02  -9.62894154E+00   2.13204117E+02  -6.36834259E+01   1.51809006E+02  -5.92387543E+01  -7.17783988E-01
             2863                3   2.12323608E+02   1.51171127E+02   1.51171127E+02  -5.99330254E+01  -6.23512802E+01   1.51171127E+02   1.51171127E+02  -5.99330254E+01  -6.23512802E+01   2.13522415E+02  -9.62894154E+00   2.12292618E+02  -5.98823318E+01   1.51120438E+02  -6.23512802E+01   3.27079320E+00
             2863                4   2.12994217E+02   1.51613647E+02   1.51613647E+02  -6.29250336E+01  -5.98017693E+01   1.51613647E+02   1.51613647E+02  -5.98017693E+01  -6.29250336E+01   2.14538681E+02  -9.62894535E+00   2.12942673E+02  -6.28227768E+01   1.51511383E+02  -5.98017693E+01   4.68261909E+00
             2864                1   2.20000000E+02   2.23807068E+02   2.23807068E+02  -1.91543636E+01   3.80822525E+01   2.23807068E+02   2.23807068E+02   3.80822525E+01  -1.91543636E+01   2.42961441E+02  -8.09116516E+01   2.02205795E+02  -1.88921356E+01   2.23544846E+02   3.80822525E+01   7.97762918E+00
             2864                2   2.20000000E+02   2.24484436E+02   2.24484436E+02  -1.68261433E+01   3.50766678E+01   2.24484436E+02   2.24484436E+02   3.50766678E+01  -1.68261433E+01   2.41310577E+02  -8.09116516E+01   2.05536301E+02  -1.68245831E+01   2.24482880E+02   3.50766678E+01  -6.13185406E-01
             2864                3   2.20000000E+02   2.23116608E+02   2.23116608E+02  -2.12817726E+01   4.09001274E+01   2.23116608E+02   2.23116608E+02   4.09001274E+01  -2.12817726E+01   2.44398392E+02  -8.09116592E+01   1.98740112E+02  -2.12817669E+01   2.23116608E+02   4.09001274E+01  -3.24115381E-02
             2864                4   2.20000000E+02   2.23729156E+02   2.23729156E+02  -1.94056454E+01   3.84114418E+01   2.23729156E+02   2.23729156E+02   3.84114418E+01  -1.94056454E+01   2.43134811E+02  -8.09116516E+01   2.01818390E+02  -1.91204453E+01   2.23443970E+02   3.84114418E+01  -8.32218361E+00
             2865                1   2.20000000E+02   2.08401871E+02   2.08401871E+02  -3.38074150E+01   2.09572487E+01   2.08401871E+02   2.08401871E+02   2.09572487E+01  -3.38074150E+01   2.42209290E+02  -6.51838989E+01   2.03799973E+02  -3.37683182E+01   2.08362762E+02   2.09572487E+01  -3.07736015E+00
             2865                2   2.19999985E+02   2.08957748E+02   2.08957748E+02  -3.18056526E+01   1.83995876E+01   2.08957748E+02   2.08957748E+02   1.83995876E+01  -3.18056526E+01   2.40763397E+02  -6.51838913E+01   2.06512482E+02  -3.11139927E+01   2.08266098E+02   1.83995876E+01   1.28859015E+01
             2865                3   2.20000000E+02   2.09224121E+02   2.09224121E+02  -3.07662048E+01   1.70937748E+01   2.09224121E+02   2.09224121E+02   1.70937748E+01  -3.07662048E+01   2.39990326E+02  -6.51838989E+01   2.07797165E+02  -2.96580276E+01   2.08115952E+02   1.70937748E+01  -1.62702770E+01
             2865                4   2.20000000E+02   2.09911880E+02   2.09911880E+02  -2.77638988E+01   1.34037132E+01   2.09911880E+02   2.09911880E+02   1.34037132E+01  -2.77638988E+01   2.37675781E+02  -6.51838989E+01   2.11071533E+02  -2.77638168E+01   2.09911804E+02   1.34037132E+01  -1.32514730E-01
             2866                1   2.20000000E+02   2.12038101E+02   2.12038101E+02  -1.11558886E+01  -4.62235594E+00   2.12038101E+02   2.12038101E+02  -4.62235594E+00  -1.11558886E+01   2.23194000E+02  -6.54199524E+01   2.19781555E+02  -1.06580267E+01   2.11540237E+02  -4.62235594E+00  -1.05296440E+01
             2866                2   2.20000000E+02   2.12072617E+02   2.12072617E+02  -9.66141129E+00  -6.15135622E+00   2.12072617E+02   2.12072617E+02  -6.15135622E+00  -9.66141129E+00   2.21734039E+02  -6.54199524E+01   2.19936981E+02  -9.02973747E+00   2.11440948E+02  -6.15135622E+00  -1.18179598E+01
             2866                3   2.20000000E+02   2.12018539E+02   2.12018539E+02  -1.17491236E+01  -4.00955868E+00   2.12018539E+02   2.12018539E+02  -4.00955868E+00  -1.17491236E+01   2.23767654E+02  -6.54199524E+01   2.19693375E+02  -1.09295797E+01   2.11198990E+02  -4.00955868E+00  -1.35172348E+01
             2866                4   2.20000000E+02   2.12060516E+02   2.12060516E+02  -1.02963371E+01  -5.50432920E+00   2.12060516E+02   2.12060516E+02  -5.50432920E+00  -1.02963371E+01   2.22356842E+02  -6.54199448E+01   2.19882523E+02  -9.29916763E+00   2.11063339E+02  -5.50432920E+00  -1.48571177E+01
             2867                1   2.16614334E+02   1.50719757E+02   1.50719757E+02  -6.55394363E+01  -6.62480011E+01   1.50719757E+02   1.50719757E+02  -6.55394363E+01  -6.62480011E+01   2.16967758E+02  -6.31077051E+00   2.16611740E+02  -6.54797211E+01   1.50660034E+02  -6.62480011E+01  -3.59316444E+00
             2867                2   2.17223984E+02   1.51093628E+02   1.51093628E+02  -6.87631302E+01  -6.33981857E+01   1.51093628E+02   1.51093628E+02  -6.33981857E+01  -6.87631302E+01   2.19856766E+02  -6.31077051E+00   2.17074844E+02  -6.87508011E+01   1.51081299E+02  -6.33981857E+01  -1.64679742E+00
             2867                3   2.16483292E+02   1.50625076E+02   1.50625076E+02  -6.45390854E+01  -6.71536713E+01   1.50625076E+02   1.50625076E+02  -6.45390854E+01  -6.71536713E+01   2.17778748E+02  -6.31077051E+00   2.16447769E+02  -6.45069122E+01   1.50592896E+02  -6.71536713E+01   2.63102150E+00
             2867                4   2.17108063E+02   1.51034119E+02   1.51034119E+02  -6.78765945E+01  -6.42252350E+01   1.51034119E+02   1.51034119E+02  -6.42252350E+01  -6.78765945E+01   2.18910721E+02  -6.31076574E+00   2.17038971E+02  -6.77868652E+01   1.50944397E+02  -6.42252350E+01   4.43103123E+00
             2868                1   2.20000000E+02   1.80014389E+02   1.80014389E+02  -4.99382095E+01  -2.84570961E+01   1.80014389E+02   1.80014389E+02  -2.84570961E+01  -4.99382095E+01   2.29952606E+02  -3.38730316E+01   2.17621796E+02  -4.99381447E+01   1.80014328E+02  -2.84570961E+01   1.24760807E-01
             2868                2   2.20000000E+02   1.80259155E+02   1.80259155E+02  -4.71724548E+01  -3.14676247E+01   1.80259155E+02   1.80259155E+02  -3.14676247E+01  -4.71724548E+01   2.27431610E+02  -3.38730278E+01   2.18733505E+02  -4.70418320E+01   1.80128540E+02  -3.14676247E+01  -5.44873381E+00
             2868                3   2.20000000E+02   1.79760773E+02   1.79760773E+02  -5.21441498E+01  -2.59975243E+01   1.79760773E+02   1.79760773E+02  -2.59975243E+01  -5.21441498E+01   2.31904922E+02  -3.38730316E+01   2.16462997E+02  -5.19910660E+01   1.79607681E+02  -2.59975243E+01  -5.95624733E+00
             2868                4   2.20000000E+02   1.80038391E+02   1.80038391E+02  -4.97025375E+01  -2.87167473E+01   1.80038391E+02   1.80038391E+02  -2.87167473E+01  -4.97025375E+01   2.29740921E+02  -3.38730316E+01   2.17731033E+02  -4.91186142E+01   1.79454453E+02  -2.87167473E+01  -1.15677147E+01
             2869                1   1.99998642E+02   1.66445969E+02   1.66445969E+02  -3.39494171E+01  -3.31535568E+01   1.66445969E+02   1.66445969E+02  -3.31535568E+01  -3.39494171E+01   2.00395386E+02  -3.31143303E+01   1.99995087E+02  -3.39436913E+01   1.66440247E+02  -3.31535568E+01   1.07065678E+00
             2869                2   2.00870682E+02   1.67011154E+02   1.67011154E+02  -3.56802635E+01  -3.19878902E+01   1.67011154E+02   1.67011154E+02  -3.19878902E+01  -3.56802635E+01   2.02691422E+02  -3.31143303E+01   2.00794312E+02  -3.56536102E+01   1.66984497E+02  -3.19878902E+01   2.32421231E+00
             2869                3   1.99529236E+02   1.66133652E+02   1.66133652E+02  -3.32082291E+01  -3.35824242E+01   1.66133652E+02   1.66133652E+02  -3.32082291E+01  -3.35824242E+01   1.99716064E+02  -3.31143303E+01   1.99528442E+02  -3.31292038E+01   1.66054611E+02  -3.35824242E+01   3.96844411E+00
             2869                4   2.00420090E+02   1.66719467E+02   1.66719467E+02  -3.49750137E+01  -3.24014549E+01   1.66719467E+02   1.66719467E+02  -3.24014549E+01  -3.49750137E+01   2.01694473E+02  -3.31143303E+01   2.00382904E+02  -3.48407974E+01   1.66585236E+02  -3.24014549E+01   5.20138121E+00
             2870                1   2.20000000E+02   2.24544785E+02   2.24544785E+02  -1.72856750E+01   3.62610168E+01   2.24544785E+02   2.24544785E+02   3.62610168E+01  -1.72856750E+01   2.41830460E+02  -8.11733780E+01   2.04553040E+02  -1.72812653E+01   2.24540375E+02   3.62610168E+01   1.03269708E+00
             2870                2   2.20000015E+02   2.25002014E+02   2.25002014E+02  -1.56071062E+01   3.41252174E+01   2.25002014E+02   2.25002014E+02   3.41252174E+01  -1.56071062E+01   2.40609131E+02  -8.11733780E+01   2.06777466E+02  -1.54679079E+01   2.24862823E+02   3.41252174E+01  -5.78552580E+00
             2870                3   2.20000000E+02   2.24046341E+02   2.24046341E+02  -1.89654179E+01   3.84392166E+01   2.24046341E+02   2.24046341E+02   3.84392166E+01  -1.89654179E+01   2.43011749E+02  -8.11733780E+01   2.02094162E+02  -1.88839550E+01   2.23964874E+02   3.84392166E+01  -4.44851780E+00
             2870                4   2.20000000E+02   2.24489334E+02   2.24489334E+02  -1.74796791E+01   3.65104561E+01   2.24489334E+02   2.24489334E+02   3.65104561E+01  -1.74796791E+01   2.41969009E+02  -8.11733704E+01   2.04281326E+02  -1.69389439E+01   2.23948608E+02   3.65104561E+01  -1.14257259E+01
             2871                1   2.18986084E+02   2.26652100E+02   2.26652100E+02  -9.24896812E+00   2.98477859E+01   2.26652100E+02   2.26652100E+02   2.98477859E+01  -9.24896812E+00   2.35901077E+02  -8.24169693E+01   2.10918518E+02  -8.93306065E+00   2.26336197E+02   2.98477859E+01   8.62689209E+00
             2871                2   2.18761566E+02   2.26860931E+02   2.26860931E+02  -7.24534416E+00   2.76353397E+01   2.26860931E+02   2.26860931E+02   2.76353397E+01  -7.24534416E+00   2.34106277E+02  -8.24169769E+01   2.12369766E+02  -7.21978855E+00   2.26835373E+02   2.76353397E+01   2.44587708E+00
             2871                3   2.19237396E+02   2.26396576E+02   2.26396576E+02  -1.13462982E+01   3.22006454E+01   2.26396576E+02   2.26396576E+02   3.22006454E+01  -1.13462982E+01   2.37742874E+02  -8.24169693E+01   2.09172302E+02  -1.12914228E+01   2.26341705E+02   3.22006454E+01   3.61137009E+00
             2871                4   2.19031555E+02   2.26625183E+02   2.26625183E+02  -9.55171871E+00   3.01774654E+01   2.26625183E+02   2.26625183E+02   3.01774654E+01  -9.55171871E+00   2.36176910E+02  -8.24169769E+01   2.10695038E+02  -9.52359009E+00   2.26597061E+02   3.01774654E+01  -2.57733440E+00
             2872                1   2.20000000E+02   2.37874451E+02   2.37874451E+02  -7.63722610E+00   5.86118889E+01   2.37874451E+02   2.37874451E+02   5.86118889E+01  -7.63722610E+00   2.45511673E+02  -9.62830429E+01   1.95595978E+02  -7.57412863E+00   2.37811356E+02   5.86118889E+01   3.93541551E+00
             2872                2   2.20000000E+02   2.38407288E+02   2.38407288E+02  -6.14556694E+00   5.65874023E+01   2.38407288E+02   2.38407288E+02   5.65874023E+01  -6.14556694E+00   2.44552856E+02  -9.62830429E+01   1.98330109E+02  -6.10398006E+00   2.38365692E+02   5.65874023E+01  -3.18906283E+00
             2872                3   2.20000000E+02   2.37302338E+02   2.37302338E+02  -9.13364220E+00   6.06804314E+01   2.37302338E+02   2.37302338E+02   6.06804314E+01  -9.13364220E+00   2.46435989E+02  -9.62830429E+01   1.92605133E+02  -9.11779022E+00   2.37286484E+02   6.06804314E+01  -1.97688425E+00
             2872                4   2.20000000E+02   2.37786636E+02   2.37786636E+02  -7.87359858E+00   5.89360886E+01   2.37786636E+02   2.37786636E+02   5.89360886E+01  -7.87359858E+00   2.45660233E+02  -9.62830429E+01   1.95140686E+02  -7.54297018E+00   2.37456009E+02   5.89360886E+01  -9.00628853E+00
             2873                1   2.16848007E+02   1.48821716E+02   1.48821716E+02  -6.96192551E+01  -6.63974152E+01   1.48821716E+02   1.48821716E+02  -6.63974152E+01  -6.96192551E+01   2.18440964E+02  -4.26834631E+00   2.16794144E+02  -6.96159668E+01   1.48818420E+02  -6.63974152E+01  -8.47965956E-01
             2873                2   2.16890625E+02   1.48854980E+02   1.48854980E+02  -6.92667618E+01  -6.67831726E+01   1.48854980E+02   1.48854980E+02  -6.67831726E+01  -6.92667618E+01   2.18121750E+02  -4.26834869E+00   2.16858627E+02  -6.91421890E+01   1.48730408E+02  -6.67831726E+01   5.21133327E+00
             2873                3   2.16313583E+02   1.48467560E+02   1.48467560E+02  -6.63723526E+01  -6.92901688E+01   1.48467560E+02   1.48467560E+02  -6.63723526E+01  -6.92901688E+01   2.17757736E+02  -4.26834631E+00   2.16269302E+02  -6.63576279E+01   1.48452835E+02  -6.92901688E+01  -1.77878690E+00
             2873                4   2.16353516E+02   1.48487839E+02   1.48487839E+02  -6.59705887E+01  -6.97122192E+01   1.48487839E+02   1.48487839E+02  -6.59705887E+01  -6.97122192E+01   2.18200058E+02  -4.26834631E+00   2.16280701E+02  -6.58787231E+01   1.48395981E+02  -6.97122192E+01   4.43762350E+00
             2874                1   1.97173737E+02   1.66427048E+02   1.66427048E+02  -3.05195274E+01  -3.09730606E+01   1.66427048E+02   1.66427048E+02  -3.05195274E+01  -3.09730606E+01   1.97400101E+02  -3.49781532E+01   1.97172546E+02  -3.05181026E+01   1.66425613E+02  -3.09730606E+01   5.30790985E-01
             2874                2   1.97786316E+02   1.66830338E+02   1.66830338E+02  -3.19765835E+01  -2.99193211E+01   1.66830338E+02   1.66830338E+02  -2.99193211E+01  -3.19765835E+01   1.98806931E+02  -3.49781456E+01   1.97762253E+02  -3.19689102E+01   1.66822678E+02  -2.99193211E+01   1.23448992E+00
             2874                3   1.96913574E+02   1.66252319E+02   1.66252319E+02  -3.01061993E+01  -3.12116756E+01   1.66252319E+02   1.66252319E+02  -3.01061993E+01  -3.12116756E+01   1.97463989E+02  -3.49781456E+01   1.96906601E+02  -3.00589085E+01   1.66205032E+02  -3.12116756E+01   3.04673791E+00
             2874                4   1.97535080E+02   1.66665604E+02   1.66665604E+02  -3.15807705E+01  -3.01503983E+01   1.66665604E+02   1.66665604E+02  -3.01503983E+01  -3.15807705E+01   1.98246384E+02  -3.49781456E+01   1.97523422E+02  -3.15104618E+01   1.66595306E+02  -3.01503983E+01   3.73263097E+00
             2875                1   2.20000000E+02   2.44697525E+02   2.44697525E+02  -1.07627237E+00   6.61650467E+01   2.44697525E+02   2.44697525E+02   6.61650467E+01  -1.07627237E+00   2.45773788E+02  -1.03262093E+02   1.94786331E+02  -1.05058622E+00   2.44671829E+02   6.61650467E+01  -2.51259899E+00
             2875                2   2.20000000E+02   2.44065552E+02   2.44065552E+02  -2.69415116E+00   6.84148865E+01   2.44065552E+02   2.44065552E+02   6.84148865E+01  -2.69415116E+00   2.46759705E+02  -1.03262093E+02   1.91461105E+02  -2.40838456E+00   2.43779785E+02   6.84148865E+01  -8.39247322E+00
             2875                3   2.20000000E+02   2.44154480E+02   2.44154480E+02  -2.47342157E+00   6.81052322E+01   2.44154480E+02   2.44154480E+02   6.81052322E+01  -2.47342157E+00   2.46627899E+02  -1.03262093E+02   1.91933517E+02  -2.38477755E+00   2.44065842E+02   6.81052322E+01   4.67476463E+00
             2875                4   2.20000000E+02   2.43577057E+02   2.43577057E+02  -3.86994576E+00   7.00791779E+01   2.43577057E+02   2.43577057E+02   7.00791779E+01  -3.86994576E+00   2.47447006E+02  -1.03262093E+02   1.88838516E+02  -3.86297369E+00   2.43570084E+02   7.00791779E+01  -1.31323349E+00
             2876                1   2.20000000E+02   1.78629974E+02   1.78629974E+02  -5.17058029E+01  -2.93229771E+01   1.78629974E+02   1.78629974E+02  -2.93229771E+01  -5.17058029E+01   2.30335785E+02  -3.25337334E+01   2.17416183E+02  -5.16970367E+01   1.78621216E+02  -2.93229771E+01   1.42088735E+00
             2876                2   2.20000000E+02   1.78894333E+02   1.78894333E+02  -4.88482323E+01  -3.24448891E+01   1.78894333E+02   1.78894333E+02  -3.24448891E+01  -4.88482323E+01   2.27742554E+02  -3.25337372E+01   2.18617813E+02  -4.87615166E+01   1.78807617E+02  -3.24448891E+01  -4.44298077E+00
             2876                3   2.20000000E+02   1.78352448E+02   1.78352448E+02  -5.40141335E+01  -2.67371120E+01   1.78352448E+02   1.78352448E+02  -2.67371120E+01  -5.40141335E+01   2.32366592E+02  -3.25337334E+01   2.16146484E+02  -5.39115791E+01   1.78249893E+02  -2.67371120E+01  -4.88064480E+00
             2876                4   2.20000000E+02   1.78652176E+02   1.78652176E+02  -5.14974060E+01  -2.95535660E+01   1.78652176E+02   1.78652176E+02  -2.95535660E+01  -5.14974060E+01   2.30149582E+02  -3.25337334E+01   2.17517365E+02  -5.09905739E+01   1.78145340E+02  -2.95535660E+01  -1.07884865E+01
             2877                1   2.20000000E+02   2.13470474E+02   2.13470474E+02  -1.64883232E+01   5.00731945E+00   2.13470474E+02   2.13470474E+02   5.00731945E+00  -1.64883232E+01   2.29958801E+02  -6.73298264E+01   2.17618546E+02  -1.59463224E+01   2.12928467E+02   5.00731945E+00  -1.11510057E+01
             2877                2   2.20000000E+02   2.13253403E+02   2.13253403E+02  -1.84016438E+01   7.13770533E+00   2.13253403E+02   2.13253403E+02   7.13770533E+00  -1.84016438E+01   2.31655045E+02  -6.73298264E+01   2.16627213E+02  -1.70284271E+01   2.11880188E+02   7.13770533E+00  -1.77827625E+01
             2877                3   2.20000000E+02   2.13247467E+02   2.13247467E+02  -1.84493732E+01   7.19137096E+00   2.13247467E+02   2.13247467E+02   7.19137096E+00  -1.84493732E+01   2.31696838E+02  -6.73298264E+01   2.16600067E+02  -1.83336868E+01   2.13131775E+02   7.19137096E+00  -5.17617083E+00
             2877                4   2.20000000E+02   2.13029358E+02   2.13029358E+02  -2.00824032E+01   9.04249477E+00   2.13029358E+02   2.13029358E+02   9.04249477E+00  -2.00824032E+01   2.33111771E+02  -6.73298187E+01   2.15598679E+02  -1.94779758E+01   2.12424942E+02   9.04249477E+00  -1.18546324E+01
             2878                1   2.16924103E+02   1.60520462E+02   1.60520462E+02  -5.95549850E+01  -5.31085663E+01   1.60520462E+02   1.60520462E+02  -5.31085663E+01  -5.95549850E+01   2.20075455E+02  -1.59523058E+01   2.16708420E+02  -5.94724464E+01   1.60437927E+02  -5.31085663E+01  -4.26127577E+00
             2878                2   2.17373840E+02   1.60699234E+02   1.60699234E+02  -6.24795914E+01  -5.03627357E+01   1.60699234E+02   1.60699234E+02  -5.03627357E+01  -6.24795914E+01   2.23178833E+02  -1.59523048E+01   2.16612061E+02  -6.24788551E+01   1.60698502E+02  -5.03627357E+01  -4.06310260E-01
             2878                3   2.16691315E+02   1.60404938E+02   1.60404938E+02  -5.76109734E+01  -5.49370537E+01   1.60404938E+02   1.60404938E+02  -5.49370537E+01  -5.76109734E+01   2.18015915E+02  -1.59523020E+01   2.16654205E+02  -5.75973930E+01   1.60391357E+02  -5.49370537E+01   1.72042298E+00
             2878                4   2.17165497E+02   1.60641754E+02   1.60641754E+02  -6.07521782E+01  -5.20326576E+01   1.60641754E+02   1.60641754E+02  -5.20326576E+01  -6.07521782E+01   2.21393936E+02  -1.59523048E+01   2.16771118E+02  -6.06165733E+01   1.60506149E+02  -5.20326576E+01   5.47750664E+00
             2879                1   2.20000000E+02   2.38242981E+02   2.38242981E+02  -7.80285883E+00   6.04836121E+01   2.38242981E+02   2.38242981E+02   6.04836121E+01  -7.80285883E+00   2.46045837E+02  -9.69745789E+01   1.93914658E+02  -7.67369223E+00   2.38113815E+02   6.04836121E+01   5.63600922E+00
             2879                2   2.20000000E+02   2.38857437E+02   2.38857437E+02  -6.14253235E+00   5.82088394E+01   2.38857437E+02   2.38857437E+02   5.82088394E+01  -6.14253235E+00   2.44999969E+02  -9.69745789E+01   1.97097382E+02  -6.12440538E+00   2.38839310E+02   5.82088394E+01  -2.10733938E+00
             2879                3   2.20000000E+02   2.37587479E+02   2.37587479E+02  -9.44758415E+00   6.27838516E+01   2.37587479E+02   2.37587479E+02   6.27838516E+01  -9.44758415E+00   2.47035065E+02  -9.69745789E+01   1.90443649E+02  -9.44459152E+00   2.37584488E+02   6.27838516E+01  -8.59242141E-01
             2879                4   2.20000000E+02   2.38144958E+02   2.38144958E+02  -8.05660057E+00   6.08353882E+01   2.38144958E+02   2.38144958E+02   6.08353882E+01  -8.05660057E+00   2.46201569E+02  -9.69745865E+01   1.93400665E+02  -7.76207304E+00   2.37850433E+02   6.08353882E+01  -8.51042461E+00
             2880                1   2.20000015E+02   2.15874344E+02   2.15874344E+02  -2.46545467E+01   2.48328400E+01   2.15874344E+02   2.15874344E+02   2.48328400E+01  -2.46545467E+01   2.40528900E+02  -7.20175476E+01   2.06913513E+02  -2.40474205E+01   2.15267227E+02   2.48328400E+01  -1.20690413E+01
             2880                2   2.20000000E+02   2.15131042E+02   2.15131042E+02  -2.73282032E+01   2.82497978E+01   2.15131042E+02   2.15131042E+02   2.82497978E+01  -2.73282032E+01   2.42459244E+02  -7.20175476E+01   2.03285294E+02  -2.73251019E+01   2.15127945E+02   2.82497978E+01  -8.66911888E-01
             2880                3   2.20000000E+02   2.16592850E+02   2.16592850E+02  -2.16434288E+01   2.11032181E+01   2.16592850E+02   2.16592850E+02   2.11032181E+01  -2.16434288E+01   2.38236282E+02  -7.20175476E+01   2.10349823E+02  -2.16378040E+01   2.16587219E+02   2.11032181E+01   1.15781403E+00
             2880                4   2.20000000E+02   2.15792450E+02   2.15792450E+02  -2.49679947E+01   2.52281742E+01   2.15792450E+02   2.15792450E+02   2.52281742E+01  -2.49679947E+01   2.40760452E+02  -7.20175476E+01   2.06517578E+02  -2.43684082E+01   2.15192871E+02   2.52281742E+01   1.19998837E+01
             2881                1   2.20000000E+02   2.38139282E+02   2.38139282E+02  -7.68146849E+00   5.97390518E+01   2.38139282E+02   2.38139282E+02   5.97390518E+01  -7.68146849E+00   2.45820740E+02  -9.67322922E+01   1.94638260E+02  -7.59954643E+00   2.38057358E+02   5.97390518E+01   4.48675251E+00
             2881                2   2.20000000E+02   2.38697586E+02   2.38697586E+02  -6.15215969E+00   5.76514359E+01   2.38697586E+02   2.38697586E+02   5.76514359E+01  -6.15215969E+00   2.44849747E+02  -9.67322922E+01   1.97519455E+02  -6.11938572E+00   2.38664810E+02   5.76514359E+01  -2.83263445E+00
             2881                3   2.20000000E+02   2.37541718E+02   2.37541718E+02  -9.20917416E+00   6.18643112E+01   2.37541718E+02   2.37541718E+02   6.18643112E+01  -9.20917416E+00   2.46750900E+02  -9.67322922E+01   1.91492920E+02  -9.19844246E+00   2.37530991E+02   6.18643112E+01  -1.62742496E+00
             2881                4   2.20000000E+02   2.38046799E+02   2.38046799E+02  -7.92483330E+00   6.00748901E+01   2.38046799E+02   2.38046799E+02   6.00748901E+01  -7.92483330E+00   2.45971634E+02  -9.67322769E+01   1.94155792E+02  -7.60720348E+00   2.37729172E+02   6.00748901E+01  -8.83322716E+00
             2882                1   2.14675476E+02   1.49054337E+02   1.49054337E+02  -6.71016769E+01  -6.41093369E+01   1.49054337E+02   1.49054337E+02  -6.41093369E+01  -6.71016769E+01   2.16156006E+02  -5.94777155E+00   2.14628555E+02  -6.70993652E+01   1.49052017E+02  -6.41093369E+01  -7.07436919E-01
             2882                2   2.14561523E+02   1.48981842E+02   1.48981842E+02  -6.67899551E+01  -6.43485794E+01   1.48981842E+02   1.48981842E+02  -6.43485794E+01  -6.67899551E+01   2.15771790E+02  -5.94776917E+00   2.14530273E+02  -6.66751328E+01   1.48867020E+02  -6.43485794E+01   4.97621012E+00
             2882                3   2.13854126E+02   1.48508255E+02   1.48508255E+02  -6.39502678E+01  -6.67146683E+01   1.48508255E+02   1.48508255E+02  -6.39502678E+01  -6.67146683E+01   2.15222916E+02  -5.94777155E+00   2.13813904E+02  -6.39407387E+01   1.48498718E+02  -6.67146683E+01  -1.42309535E+00
             2882                4   2.13730881E+02   1.48421722E+02   1.48421722E+02  -6.36037216E+01  -6.69746933E+01   1.48421722E+02   1.48421722E+02  -6.36037216E+01  -6.69746933E+01   2.15396423E+02  -5.94777155E+00   2.13671051E+02  -6.35128021E+01   1.48330811E+02  -6.69746933E+01   4.38960791E+00
             2883                1   2.20000000E+02   2.44383636E+02   2.44383636E+02  -2.49228668E+00   6.90880966E+01   2.44383636E+02   2.44383636E+02   6.90880966E+01  -2.49228668E+00   2.46875916E+02  -1.03659813E+02   1.91036774E+02  -2.38530087E+00   2.44276642E+02   6.90880966E+01   5.13819695E+00
             2883                2   2.20000000E+02   2.44955154E+02   2.44955154E+02  -1.04742634E+00   6.70717087E+01   2.44955154E+02   2.44955154E+02   6.70717087E+01  -1.04742634E+00   2.46002579E+02  -1.03659813E+02   1.94055573E+02  -1.02703190E+00   2.44934769E+02   6.70717087E+01  -2.23942733E+00
             2883                3   2.20000000E+02   2.43780975E+02   2.43780975E+02  -3.92245388E+00   7.11209183E+01   2.43780975E+02   2.43780975E+02   7.11209183E+01  -3.92245388E+00   2.47703430E+02  -1.03659813E+02   1.87784760E+02  -3.91786742E+00   2.43776382E+02   7.11209183E+01  -1.06650198E+00
             2883                4   2.20000000E+02   2.44294128E+02   2.44294128E+02  -2.71043873E+00   6.93957443E+01   2.44294128E+02   2.44294128E+02   6.93957443E+01  -2.71043873E+00   2.47004578E+02  -1.03659813E+02   1.90558411E+02  -2.42868829E+00   2.44012390E+02   6.93957443E+01  -8.33741093E+00
             2884                1   2.19614883E+02   1.67892593E+02   1.67892593E+02  -5.85557709E+01  -4.41827469E+01   1.67892593E+02   1.67892593E+02  -4.41827469E+01  -5.85557709E+01   2.26448364E+02  -2.17180252E+01   2.18552933E+02  -5.84383812E+01   1.67775208E+02  -4.41827469E+01   5.15445614E+00
             2884                2   2.19280548E+02   1.67833450E+02   1.67833450E+02  -5.53016968E+01  -4.73776779E+01   1.67833450E+02   1.67833450E+02  -4.73776779E+01  -5.53016968E+01   2.23135147E+02  -2.17180252E+01   2.18958069E+02  -5.53017006E+01   1.67833450E+02  -4.73776779E+01   1.76026952E-02
             2884                3   2.19744202E+02   1.67808701E+02   1.67808701E+02  -6.07597733E+01  -4.18948593E+01   1.67808701E+02   1.67808701E+02  -4.18948593E+01  -6.07597733E+01   2.28568481E+02  -2.17180252E+01   2.17911163E+02  -6.07529907E+01   1.67801926E+02  -4.18948593E+01  -1.24507129E+00
             2884                4   2.19428452E+02   1.67811768E+02   1.67811768E+02  -5.78156395E+01  -4.48420486E+01   1.67811768E+02   1.67811768E+02  -4.48420486E+01  -5.78156395E+01   2.25627411E+02  -2.17180252E+01   2.18563034E+02  -5.76306801E+01   1.67626801E+02  -4.48420486E+01  -6.45746088E+00
             2885                1   2.20000000E+02   2.31600967E+02   2.31600967E+02  -1.32198372E+01   5.04787140E+01   2.31600967E+02   2.31600967E+02   5.04787140E+01  -1.32198372E+01   2.44820801E+02  -8.96199570E+01   1.97599823E+02  -1.31276054E+01   2.31508743E+02   5.04787140E+01   4.75086832E+00
             2885                2   2.20000000E+02   2.32193268E+02   2.32193268E+02  -1.14655056E+01   4.81320801E+01   2.32193268E+02   2.32193268E+02   4.81320801E+01  -1.14655056E+01   2.43658783E+02  -8.96199570E+01   2.00598297E+02  -1.14303160E+01   2.32158081E+02   4.81320801E+01  -2.92809105E+00
             2885                3   2.20000000E+02   2.30977203E+02   2.30977203E+02  -1.49250126E+01   5.28076591E+01   2.30977203E+02   2.30977203E+02   5.28076591E+01  -1.49250126E+01   2.45902206E+02  -8.96199417E+01   1.94378983E+02  -1.49107218E+01   2.30962906E+02   5.28076591E+01  -1.87459493E+00
             2885                4   2.20000000E+02   2.31513062E+02   2.31513062E+02  -1.34683771E+01   5.08151741E+01   2.31513062E+02   2.31513062E+02   5.08151741E+01  -1.34683771E+01   2.44981430E+02  -8.96199570E+01   1.97149887E+02  -1.31065235E+01   2.31151199E+02   5.08151741E+01  -9.40834332E+00
             2886                1   2.18376282E+02   1.67597687E+02   1.67597687E+02  -5.71273804E+01  -4.38213310E+01   1.67597687E+02   1.67597687E+02  -4.38213310E+01  -5.71273804E+01   2.24725067E+02  -2.22163239E+01   2.17461426E+02  -5.69766960E+01   1.67447006E+02  -4.38213310E+01   5.81710672E+00
             2886                2   2.17771194E+02   1.67338440E+02   1.67338440E+02  -5.39192963E+01  -4.67701645E+01   1.67338440E+02   1.67338440E+02  -4.67701645E+01  -5.39192963E+01   2.21257736E+02  -2.22163258E+01   2.17506927E+02  -5.39134560E+01   1.67332596E+02  -4.67701645E+01   1.13701093E+00
             2886                3   2.18756302E+02   1.67706100E+02   1.67706100E+02  -5.92453461E+01  -4.18117867E+01   1.67706100E+02   1.67706100E+02  -4.18117867E+01  -5.92453461E+01   2.26951447E+02  -2.22163239E+01   2.17185135E+02  -5.92450638E+01   1.67705826E+02  -4.18117867E+01  -2.51247585E-01
             2886                4   2.18188797E+02   1.67517365E+02   1.67517365E+02  -5.63068352E+01  -4.45615578E+01   1.67517365E+02   1.67517365E+02  -4.45615578E+01  -5.63068352E+01   2.23824203E+02  -2.22163239E+01   2.17475830E+02  -5.61947250E+01   1.67405258E+02  -4.45615578E+01  -5.00809479E+00
             2887                1   2.20000000E+02   2.31541702E+02   2.31541702E+02  -1.29901524E+01   4.96676521E+01   2.31541702E+02   2.31541702E+02   4.96676521E+01  -1.29901524E+01   2.44531845E+02  -8.94064026E+01   1.98386307E+02  -1.29325933E+01   2.31484131E+02   4.96676521E+01   3.75144458E+00
             2887                2   2.20000000E+02   2.32088440E+02   2.32088440E+02  -1.13405704E+01   4.74713249E+01   2.32088440E+02   2.32088440E+02   4.74713249E+01  -1.13405704E+01   2.43429001E+02  -8.94063950E+01   2.01142654E+02  -1.12866373E+01   2.32034500E+02   4.74713249E+01  -3.62300587E+00
             2887                3   2.20000000E+02   2.30950623E+02   2.30950623E+02  -1.46411877E+01   5.19097519E+01   2.30950623E+02   2.30950623E+02   5.19097519E+01  -1.46411877E+01   2.45591812E+02  -8.94063950E+01   1.95351517E+02  -1.46198244E+01   2.30929260E+02   5.19097519E+01  -2.29032087E+00
             2887                4   2.20000000E+02   2.31457672E+02   2.31457672E+02  -1.32326822E+01   4.99941978E+01   2.31457672E+02   2.31457672E+02   4.99941978E+01  -1.32326822E+01   2.44690353E+02  -8.94063950E+01   1.97958496E+02  -1.28503714E+01   2.31075363E+02   4.99941978E+01  -9.66443348E+00
             2888                1   2.12422836E+02   1.49608383E+02   1.49608383E+02  -6.42188416E+01  -6.13816566E+01   1.49608383E+02   1.49608383E+02  -6.13816566E+01  -6.42188416E+01   2.13827225E+02  -8.00262833E+00   2.12380203E+02  -6.42175293E+01   1.49607071E+02  -6.13816566E+01  -5.29188335E-01
             2888                2   2.12404465E+02   1.49599075E+02   1.49599075E+02  -6.39729042E+01  -6.16182823E+01   1.49599075E+02   1.49599075E+02  -6.16182823E+01  -6.39729042E+01   2.13571976E+02  -8.00263119E+00   2.12375092E+02  -6.38613396E+01   1.49487518E+02  -6.16182823E+01   4.87993288E+00
             2888                3   2.11816895E+02   1.49205688E+02   1.49205688E+02  -6.12803154E+01  -6.39174767E+01   1.49205688E+02   1.49205688E+02  -6.12803154E+01  -6.39174767E+01   2.13123169E+02  -8.00263119E+00   2.11779953E+02  -6.12738380E+01   1.49199203E+02  -6.39174767E+01  -1.16806769E+00
             2888                4   2.11764938E+02   1.49167404E+02   1.49167404E+02  -6.09955559E+01  -6.41639557E+01   1.49167404E+02   1.49167404E+02  -6.09955559E+01  -6.41639557E+01   2.13331360E+02  -8.00262928E+00   2.11711594E+02  -6.09051170E+01   1.49076965E+02  -6.41639557E+01   4.35867071E+00
             2889                1   2.20000000E+02   2.44469055E+02   2.44469055E+02  -2.53202963E+00   6.95598907E+01   2.44469055E+02   2.44469055E+02   6.95598907E+01  -2.53202963E+00   2.47001083E+02  -1.03832306E+02   1.90571411E+02  -2.40146255E+00   2.44338486E+02   6.95598907E+01   5.67750740E+00
             2889                2   2.20000000E+02   2.45073303E+02   2.45073303E+02  -1.01638663E+00   6.74400024E+01   2.45073303E+02   2.45073303E+02   6.74400024E+01  -1.01638663E+00   2.46089691E+02  -1.03832306E+02   1.93771103E+02  -1.00006688E+00   2.45056976E+02   6.74400024E+01  -2.00431633E+00
             2889                3   2.20000000E+02   2.43830460E+02   2.43830460E+02  -4.03127575E+00   7.16977234E+01   2.43830460E+02   2.43830460E+02   7.16977234E+01  -4.03127575E+00   2.47861725E+02  -1.03832298E+02   1.87111816E+02  -4.02885342E+00   2.43828033E+02   7.16977234E+01  -7.74717271E-01
             2889                4   2.20000000E+02   2.44371902E+02   2.44371902E+02  -2.76657867E+00   6.98915939E+01   2.44371902E+02   2.44371902E+02   6.98915939E+01  -2.76657867E+00   2.47138474E+02  -1.03832306E+02   1.90050354E+02  -2.48456693E+00   2.44089890E+02   6.98915939E+01  -8.34355164E+00
             2890                1   2.20000000E+02   1.83695328E+02   1.83695328E+02  -4.79008904E+01  -2.25040989E+01   1.83695328E+02   1.83695328E+02  -2.25040989E+01  -4.79008904E+01   2.31596207E+02  -3.77634468E+01   2.16665192E+02  -4.76837463E+01   1.83478180E+02  -2.25040989E+01  -7.08818769E+00
             2890                2   2.20000000E+02   1.83333893E+02   1.83333893E+02  -5.05223427E+01  -1.95212193E+01   1.83333893E+02   1.83333893E+02  -1.95212193E+01  -5.05223427E+01   2.33856232E+02  -3.77634468E+01   2.15003433E+02  -5.05220146E+01   1.83333572E+02  -1.95212193E+01  -2.75311112E-01
             2890                3   2.20000000E+02   1.84006989E+02   1.84006989E+02  -4.49995461E+01  -2.57171192E+01   1.84006989E+02   1.84006989E+02  -2.57171192E+01  -4.49995461E+01   2.29006546E+02  -3.77634430E+01   2.18086685E+02  -4.49993210E+01   1.84006775E+02  -2.57171192E+01  -2.23457426E-01
             2890                4   2.20000000E+02   1.83684998E+02   1.83684998E+02  -4.79843636E+01  -2.24103012E+01   1.83684998E+02   1.83684998E+02  -2.24103012E+01  -4.79843636E+01   2.31669357E+02  -3.77634468E+01   2.16617935E+02  -4.78005409E+01   1.83501175E+02  -2.24103012E+01   6.52325010E+00
             2891                1   2.11181702E+02   1.56045166E+02   1.56045166E+02  -5.59365234E+01  -5.43273621E+01   1.56045166E+02   1.56045166E+02  -5.43273621E+01  -5.59365234E+01   2.11981689E+02  -1.52604265E+01   2.11167908E+02  -5.59193573E+01   1.56028000E+02  -5.43273621E+01  -1.90751159E+00
             2891                2   2.12053024E+02   1.56576401E+02   1.56576401E+02  -5.87406311E+01  -5.20544891E+01   1.56576401E+02   1.56576401E+02  -5.20544891E+01  -5.87406311E+01   2.15317032E+02  -1.52604265E+01   2.11815674E+02  -5.87400513E+01   1.56575821E+02  -5.20544891E+01   3.52952719E-01
             2891                3   2.10807480E+02   1.55798370E+02   1.55798370E+02  -5.47259789E+01  -5.52911072E+01   1.55798370E+02   1.55798370E+02  -5.47259789E+01  -5.52911072E+01   2.11089478E+02  -1.52604265E+01   2.10805771E+02  -5.46747322E+01   1.55747116E+02  -5.52911072E+01   3.28432083E+00
             2891                4   2.11709305E+02   1.56373962E+02   1.56373962E+02  -5.76422577E+01  -5.29504242E+01   1.56373962E+02   1.56373962E+02  -5.29504242E+01  -5.76422577E+01   2.14016220E+02  -1.52604265E+01   2.11592270E+02  -5.75028419E+01   1.56234543E+02  -5.29504242E+01   5.46061420E+00
             2892                1   2.09872711E+02   1.52442825E+02   1.52442825E+02  -5.70117493E+01  -5.78455200E+01   1.52442825E+02   1.52442825E+02  -5.70117493E+01  -5.78455200E+01   2.10288345E+02  -1.25285187E+01   2.09868973E+02  -5.69971771E+01   1.52428253E+02  -5.78455200E+01  -1.74710345E+00
             2892                2   2.10643921E+02   1.52936569E+02   1.52936569E+02  -5.97898750E+01  -5.55611496E+01   1.52936569E+02   1.52936569E+02  -5.55611496E+01  -5.97898750E+01   2.12726456E+02  -1.25285158E+01   2.10548386E+02  -5.97895012E+01   1.52936203E+02  -5.55611496E+01  -2.80623764E-01
             2892                3   2.09579834E+02   1.52242508E+02   1.52242508E+02  -5.62172585E+01  -5.84397087E+01   1.52242508E+02   1.52242508E+02  -5.62172585E+01  -5.84397087E+01   2.10682220E+02  -1.25285149E+01   2.09553314E+02  -5.61620064E+01   1.52187256E+02  -5.84397087E+01   3.39350271E+00
             2892                4   2.10371857E+02   1.52766052E+02   1.52766052E+02  -5.90665092E+01  -5.61139984E+01   1.52766052E+02   1.52766052E+02  -5.61139984E+01  -5.90665092E+01   2.11832565E+02  -1.25285158E+01   2.10325226E+02  -5.89591599E+01   1.52658707E+02  -5.61139984E+01   4.76751566E+00
             2893                1   2.20000000E+02   2.06803177E+02   2.06803177E+02  -3.30215378E+01   1.43437386E+01   2.06803177E+02   2.06803177E+02   1.43437386E+01  -3.30215378E+01   2.39824722E+02  -6.27084618E+01   2.08058853E+02  -3.30211372E+01   2.06802780E+02   1.43437386E+01  -3.10830384E-01
             2893                2   2.20000000E+02   2.07317184E+02   2.07317184E+02  -3.07990208E+01   1.16072245E+01   2.07317184E+02   2.07317184E+02   1.16072245E+01  -3.07990208E+01   2.38116196E+02  -6.27084618E+01   2.10508026E+02  -2.99338913E+01   2.06452042E+02   1.16072245E+01   1.43267069E+01
             2893                3   2.20000000E+02   2.07520386E+02   2.07520386E+02  -2.98335896E+01   1.04385748E+01   2.07520386E+02   2.07520386E+02   1.04385748E+01  -2.98335896E+01   2.37353973E+02  -6.27084541E+01   2.11467163E+02  -2.91970062E+01   2.06883804E+02   1.04385748E+01  -1.22756052E+01
             2893                4   2.20000000E+02   2.08077744E+02   2.08077744E+02  -2.68333111E+01   6.88094473E+00   2.08077744E+02   2.08077744E+02   6.88094473E+00  -2.68333111E+01   2.34911057E+02  -6.27084618E+01   2.14072128E+02  -2.67977428E+01   2.08042175E+02   6.88094473E+00   2.89028931E+00
             2894                1   2.20000000E+02   1.98130676E+02   1.98130676E+02  -2.94209881E+01  -1.34468918E+01   1.98130676E+02   1.98130676E+02  -1.34468918E+01  -2.94209881E+01   2.27551666E+02  -5.17542610E+01   2.18689514E+02  -2.91697197E+01   1.97879410E+02  -1.34468918E+01  -7.55727291E+00
             2894                2   2.20000000E+02   1.98260986E+02   1.98260986E+02  -2.74295292E+01  -1.55686598E+01   1.98260986E+02   1.98260986E+02  -1.55686598E+01  -2.74295292E+01   2.25690506E+02  -5.17542610E+01   2.19278915E+02  -2.68958817E+01   1.97727341E+02  -1.55686598E+01  -1.09614086E+01
             2894                3   2.20000000E+02   1.98017868E+02   1.98017868E+02  -3.07878208E+01  -1.19672365E+01   1.98017868E+02   1.98017868E+02  -1.19672365E+01  -3.07878208E+01   2.28805679E+02  -5.17542686E+01   2.18177765E+02  -3.01631947E+01   1.97393234E+02  -1.19672365E+01  -1.19385262E+01
             2894                4   2.20000000E+02   1.98164093E+02   1.98164093E+02  -2.89643402E+01  -1.39369545E+01   1.98164093E+02   1.98164093E+02  -1.39369545E+01  -2.89643402E+01   2.27128433E+02  -5.17542686E+01   2.18840820E+02  -2.79200535E+01   1.97119812E+02  -1.39369545E+01  -1.53654022E+01
             2895                1   1.96199646E+02   1.68789612E+02   1.68789612E+02  -2.72540703E+01  -2.75656185E+01   1.68789612E+02   1.68789612E+02  -2.72540703E+01  -2.75656185E+01   1.96355225E+02  -3.79899712E+01   1.96199081E+02  -2.72517147E+01   1.68787247E+02  -2.75656185E+01   6.80355549E-01
             2895                2   1.96895920E+02   1.69249634E+02   1.69249634E+02  -2.85589828E+01  -2.67207355E+01   1.69249634E+02   1.69249634E+02  -2.67207355E+01  -2.85589828E+01   1.97808609E+02  -3.79899712E+01   1.96876617E+02  -2.85499077E+01   1.69240555E+02  -2.67207355E+01   1.33955479E+00
             2895                3   1.95888992E+02   1.68581528E+02   1.68581528E+02  -2.68420315E+01  -2.77695923E+01   1.68581528E+02   1.68581528E+02  -2.68420315E+01  -2.77695923E+01   1.96351120E+02  -3.79899712E+01   1.95884048E+02  -2.68010178E+01   1.68540527E+02  -2.77695923E+01   2.83051610E+00
             2895                4   1.96679169E+02   1.69107452E+02   1.69107452E+02  -2.81898193E+01  -2.69477253E+01   1.69107452E+02   1.69107452E+02  -2.69477253E+01  -2.81898193E+01   1.97297272E+02  -3.79899712E+01   1.96670349E+02  -2.81284561E+01   1.69046097E+02  -2.69477253E+01   3.47874045E+00
             2896                1   1.98519180E+02   1.63989990E+02   1.63989990E+02  -3.42804680E+01  -3.47769814E+01   1.63989990E+02   1.63989990E+02  -3.42804680E+01  -3.47769814E+01   1.98766968E+02  -3.16441803E+01   1.98517776E+02  -3.42798805E+01   1.63989395E+02  -3.47769814E+01   3.42064083E-01
             2896                2   1.99297623E+02   1.64502365E+02   1.64502365E+02  -3.59576378E+01  -3.36121788E+01   1.64502365E+02   1.64502365E+02  -3.36121788E+01  -3.59576378E+01   2.00459991E+02  -3.16441803E+01   1.99266571E+02  -3.59513397E+01   1.64496063E+02  -3.36121788E+01   1.12349474E+00
             2896                3   1.98245361E+02   1.63805878E+02   1.63805878E+02  -3.38269806E+01  -3.50463600E+01   1.63805878E+02   1.63805878E+02  -3.38269806E+01  -3.50463600E+01   1.98852234E+02  -3.16441803E+01   1.98236923E+02  -3.37753868E+01   1.63754288E+02  -3.50463600E+01   3.19262457E+00
             2896                4   1.99034882E+02   1.64330658E+02   1.64330658E+02  -3.55260963E+01  -3.38720245E+01   1.64330658E+02   1.64330658E+02  -3.38720245E+01  -3.55260963E+01   1.99856750E+02  -3.16441803E+01   1.99019409E+02  -3.54479256E+01   1.64252487E+02  -3.38720245E+01   3.95188498E+00
             2897                1   2.18013504E+02   1.75074539E+02   1.75074539E+02  -5.07533417E+01  -3.41784630E+01   1.75074539E+02   1.75074539E+02  -3.41784630E+01  -5.07533417E+01   2.25827881E+02  -3.00475769E+01   2.16589127E+02  -5.06607590E+01   1.74981949E+02  -3.41784630E+01  -4.57170248E+00
             2897                2   2.18455414E+02   1.75129288E+02   1.75129288E+02  -5.34961205E+01  -3.14904385E+01   1.75129288E+02   1.75129288E+02  -3.14904385E+01  -5.34961205E+01   2.28625397E+02  -3.00475750E+01   2.15940720E+02  -5.34931908E+01   1.75126358E+02  -3.14904385E+01   8.17819297E-01
             2897                3   2.17765366E+02   1.75071991E+02   1.75071991E+02  -4.82259026E+01  -3.67033615E+01   1.75071991E+02   1.75071991E+02  -3.67033615E+01  -4.82259026E+01   2.23297882E+02  -3.00475750E+01   2.17077911E+02  -4.82161865E+01   1.75062271E+02  -3.67033615E+01   1.47283697E+00
             2897                4   2.18235611E+02   1.75188324E+02   1.75188324E+02  -5.12529526E+01  -3.37926483E+01   1.75188324E+02   1.75188324E+02  -3.37926483E+01  -5.12529526E+01   2.26441284E+02  -3.00475750E+01   2.16655777E+02  -5.10481796E+01   1.74983551E+02  -3.37926483E+01   6.80636644E+00
             2898                1   2.13298889E+02   1.61404053E+02   1.61404053E+02  -5.43896561E+01  -4.93092842E+01   1.61404053E+02   1.61404053E+02  -4.93092842E+01  -5.43896561E+01   2.15793701E+02  -1.92350349E+01   2.13162704E+02  -5.43691368E+01   1.61383530E+02  -4.93092842E+01  -2.10402417E+00
             2898                2   2.13988876E+02   1.61773346E+02   1.61773346E+02  -5.71202126E+01  -4.69480286E+01   1.61773346E+02   1.61773346E+02  -4.69480286E+01  -5.71202126E+01   2.18893570E+02  -1.92350368E+01   2.13443893E+02  -5.71151581E+01   1.61768295E+02  -4.69480286E+01   1.05199957E+00
             2898                3   2.12556503E+02   1.60934479E+02   1.60934479E+02  -5.26339417E+01  -5.05954285E+01   1.60934479E+02   1.60934479E+02  -5.05954285E+01  -5.26339417E+01   2.13568420E+02  -1.92350368E+01   2.12534500E+02  -5.25870934E+01   1.60887634E+02  -5.05954285E+01   3.16269493E+00
             2898                4   2.13544983E+02   1.61534378E+02   1.61534378E+02  -5.56107597E+01  -4.82184944E+01   1.61534378E+02   1.61534378E+02  -4.82184944E+01  -5.56107597E+01   2.17145142E+02  -1.92350407E+01   2.13256821E+02  -5.54311218E+01   1.61354736E+02  -4.82184944E+01   6.24303579E+00
             2899                1   2.03068726E+02   1.67929703E+02   1.67929703E+02  -3.56194153E+01  -3.46552086E+01   1.67929703E+02   1.67929703E+02  -3.46552086E+01  -3.56194153E+01   2.03549118E+02  -3.25516930E+01   2.03063583E+02  -3.55176964E+01   1.67827988E+02  -3.46552086E+01   4.54903936E+00
             2899                2   2.03601959E+02   1.68276215E+02   1.68276215E+02  -3.67457657E+01  -3.38753777E+01   1.68276215E+02   1.68276215E+02  -3.38753777E+01  -3.67457657E+01   2.05021988E+02  -3.25516930E+01   2.03556442E+02  -3.67391663E+01   1.68269623E+02  -3.38753777E+01   1.16301334E+00
             2899                3   2.03764801E+02   1.68370728E+02   1.68370728E+02  -3.75769310E+01  -3.31387062E+01   1.68370728E+02   1.68370728E+02  -3.31387062E+01  -3.75769310E+01   2.05947662E+02  -3.25516968E+01   2.03655991E+02  -3.73687363E+01   1.68162521E+02  -3.31387062E+01   6.54488325E+00
             2899                4   2.04271912E+02   1.68685272E+02   1.68685272E+02  -3.86360359E+01  -3.23941612E+01   1.68685272E+02   1.68685272E+02  -3.23941612E+01  -3.86360359E+01   2.07321304E+02  -3.25516930E+01   2.04057175E+02  -3.85870209E+01   1.68636261E+02  -3.23941612E+01   3.18739080E+00
             2900                1   2.20000000E+02   2.23449600E+02   2.23449600E+02  -1.86140747E+01   3.56803665E+01   2.23449600E+02   2.23449600E+02   3.56803665E+01  -1.86140747E+01   2.42063675E+02  -8.01719666E+01   2.04093216E+02  -1.83407021E+01   2.23176224E+02   3.56803665E+01   8.13017654E+00
             2900                2   2.20000000E+02   2.24084976E+02   2.24084976E+02  -1.62818222E+01   3.27127380E+01   2.24084976E+02   2.24084976E+02   3.27127380E+01  -1.62818222E+01   2.40366791E+02  -8.01719589E+01   2.07184799E+02  -1.62817554E+01   2.24084900E+02   3.27127380E+01  -1.29102498E-01
             2900                3   2.20000000E+02   2.22760208E+02   2.22760208E+02  -2.08673553E+01   3.86230392E+01   2.22760208E+02   2.22760208E+02   3.86230392E+01  -2.08673553E+01   2.43627563E+02  -8.01719666E+01   2.00673111E+02  -2.08654232E+01   2.22758270E+02   3.86230392E+01   6.87028229E-01
             2900                4   2.20000000E+02   2.23349152E+02   2.23349152E+02  -1.89584961E+01   3.61252365E+01   2.23349152E+02   2.23349152E+02   3.61252365E+01  -1.89584961E+01   2.42307648E+02  -8.01719666E+01   2.03599228E+02  -1.87371941E+01   2.23127853E+02   3.61252365E+01  -7.31938648E+00
             2901                1   2.19133774E+02   2.21178543E+02   2.21178543E+02  -1.52237091E+01   2.48423176E+01   2.21178543E+02   2.21178543E+02   2.48423176E+01  -1.52237091E+01   2.36402252E+02  -7.69323807E+01   2.10655273E+02  -1.47625704E+01   2.20717407E+02   2.48423176E+01   1.04307680E+01
             2901                2   2.18937302E+02   2.21502899E+02   2.21502899E+02  -1.27417183E+01   2.20359707E+01   2.21502899E+02   2.21502899E+02   2.20359707E+01  -1.27417183E+01   2.34244629E+02  -7.69323807E+01   2.12589371E+02  -1.27005854E+01   2.21461777E+02   2.20359707E+01   3.10354710E+00
             2901                3   2.19258896E+02   2.20790741E+02   2.20790741E+02  -1.74334240E+01   2.74398499E+01   2.20790741E+02   2.20790741E+02   2.74398499E+01  -1.74334240E+01   2.38224167E+02  -7.69323883E+01   2.08548828E+02  -1.73913174E+01   2.20748627E+02   2.74398499E+01   3.16708922E+00
             2901                4   2.19084152E+02   2.21127579E+02   2.21127579E+02  -1.52922926E+01   2.49618721E+01   2.21127579E+02   2.21127579E+02   2.49618721E+01  -1.52922926E+01   2.36419861E+02  -7.69323807E+01   2.10521393E+02  -1.52193003E+01   2.21054581E+02   2.49618721E+01  -4.15352869E+00
             2902                1   2.20000000E+02   2.45112289E+02   2.45112289E+02  -9.48866904E-01   6.73968964E+01   2.45112289E+02   2.45112289E+02   6.73968964E+01  -9.48866904E-01   2.46061157E+02  -1.03853432E+02   1.93864655E+02  -9.35622036E-01   2.45099045E+02   6.73968964E+01  -1.80515647E+00
             2902                2   2.20000000E+02   2.44386429E+02   2.44386429E+02  -2.76128983E+00   6.99351959E+01   2.44386429E+02   2.44386429E+02   6.99351959E+01  -2.76128983E+00   2.47147720E+02  -1.03853447E+02   1.90014862E+02  -2.48664904E+00   2.44111786E+02   6.99351959E+01  -8.23416805E+00
             2902                3   2.20000000E+02   2.44490128E+02   2.44490128E+02  -2.51107335E+00   6.95812683E+01   2.44490128E+02   2.44490128E+02   6.95812683E+01  -2.51107335E+00   2.47001190E+02  -1.03853432E+02   1.90571075E+02  -2.36486197E+00   2.44343918E+02   6.95812683E+01   6.00762081E+00
             2902                4   2.20000000E+02   2.43827835E+02   2.43827835E+02  -4.06407118E+00   7.17965622E+01   2.43827835E+02   2.43827835E+02   7.17965622E+01  -4.06407118E+00   2.47891907E+02  -1.03853447E+02   1.86981430E+02  -4.06291723E+00   2.43826675E+02   7.17965622E+01  -5.36022305E-01
             2903                1   2.08989517E+02   1.50323318E+02   1.50323318E+02  -5.74316177E+01  -5.98792572E+01   1.50323318E+02   1.50323318E+02  -5.74316177E+01  -5.98792572E+01   2.10202576E+02  -1.10041504E+01   2.08957260E+02  -5.74274445E+01   1.50319153E+02  -5.98792572E+01  -9.31125402E-01
             2903                2   2.09772736E+02   1.50844223E+02   1.50844223E+02  -6.02450676E+01  -5.75866928E+01   1.50844223E+02   1.50844223E+02  -5.75866928E+01  -6.02450676E+01   2.11089294E+02  -1.10041533E+01   2.09734833E+02  -6.02446632E+01   1.50843811E+02  -5.75866928E+01  -2.93793887E-01
             2903                3   2.08907486E+02   1.50265137E+02   1.50265137E+02  -5.71337929E+01  -6.01188889E+01   1.50265137E+02   1.50265137E+02  -5.71337929E+01  -6.01188889E+01   2.10384033E+02  -1.10041533E+01   2.08859482E+02  -5.70479622E+01   1.50179306E+02  -6.01188889E+01   4.21839809E+00
             2903                4   2.09698303E+02   1.50797440E+02   1.50797440E+02  -5.99752617E+01  -5.78097191E+01   1.50797440E+02   1.50797440E+02  -5.78097191E+01  -5.99752617E+01   2.10772690E+02  -1.10041513E+01   2.09673157E+02  -5.98677368E+01   1.50689911E+02  -5.78097191E+01   4.75935173E+00
             2904                1   2.00487808E+02   1.61686111E+02   1.61686111E+02  -3.85317612E+01  -3.90705338E+01   1.61686111E+02   1.61686111E+02  -3.85317612E+01  -3.90705338E+01   2.00756653E+02  -2.80279408E+01   2.00486176E+02  -3.85317116E+01   1.61686066E+02  -3.90705338E+01   1.01681739E-01
             2904                2   2.01074036E+02   1.62068451E+02   1.62068451E+02  -4.03260078E+01  -3.76586151E+01   1.62068451E+02   1.62068451E+02  -3.76586151E+01  -4.03260078E+01   2.02394470E+02  -2.80279446E+01   2.01034225E+02  -4.03208656E+01   1.62063309E+02  -3.76586151E+01   1.02071214E+00
             2904                3   2.00292984E+02   1.61554184E+02   1.61554184E+02  -3.80389519E+01  -3.94314041E+01   1.61554184E+02   1.61554184E+02  -3.80389519E+01  -3.94314041E+01   2.00985580E+02  -2.80279408E+01   2.00282104E+02  -3.79835205E+01   1.61498749E+02  -3.94314041E+01   3.32576203E+00
             2904                4   2.00889816E+02   1.61950195E+02   1.61950195E+02  -3.98621178E+01  -3.80042496E+01   1.61950195E+02   1.61950195E+02  -3.80042496E+01  -3.98621178E+01   2.01812302E+02  -2.80279408E+01   2.00870483E+02  -3.97741432E+01   1.61862213E+02  -3.80042496E+01   4.21275997E+00
             2905                1   2.09241943E+02   1.57276352E+02   1.57276352E+02  -5.27080612E+01  -5.12151031E+01   1.57276352E+02   1.57276352E+02  -5.12151031E+01  -5.27080612E+01   2.09984421E+02  -1.77843952E+01   2.09229950E+02  -5.26999893E+01   1.57268280E+02  -5.12151031E+01  -1.30233335E+00
             2905                2   2.09919189E+02   1.57684311E+02   1.57684311E+02  -5.52801590E+01  -4.90509605E+01   1.57684311E+02   1.57684311E+02  -4.90509605E+01  -5.52801590E+01   2.12964462E+02  -1.77843952E+01   2.09711090E+02  -5.52766533E+01   1.57680801E+02  -4.90509605E+01   8.63801539E-01
             2905                3   2.08909927E+02   1.57057281E+02   1.57057281E+02  -5.15621948E+01  -5.21418991E+01   1.57057281E+02   1.57057281E+02  -5.15621948E+01  -5.21418991E+01   2.09199173E+02  -1.77843933E+01   2.08908127E+02  -5.15025406E+01   1.56997620E+02  -5.21418991E+01   3.52738571E+00
             2905                4   2.09613022E+02   1.57504166E+02   1.57504166E+02  -5.42344513E+01  -4.99165459E+01   1.57504166E+02   1.57504166E+02  -4.99165459E+01  -5.42344513E+01   2.11738617E+02  -1.77843914E+01   2.09512924E+02  -5.40851669E+01   1.57354889E+02  -4.99165459E+01   5.62015057E+00
             2906                1   2.07081009E+02   1.64861252E+02   1.64861252E+02  -4.40538635E+01  -4.03355942E+01   1.64861252E+02   1.64861252E+02  -4.03355942E+01  -4.40538635E+01   2.08915115E+02  -2.68239288E+01   2.07005875E+02  -4.40538559E+01   1.64861237E+02  -4.03355942E+01   3.04044802E-02
             2906                2   2.07778229E+02   1.65269318E+02   1.65269318E+02  -4.63041420E+01  -3.84933929E+01   1.65269318E+02   1.65269318E+02  -3.84933929E+01  -4.63041420E+01   2.11573471E+02  -2.68239288E+01   2.07447525E+02  -4.62740784E+01   1.65239258E+02  -3.84933929E+01   2.52189112E+00
             2906                3   2.06584473E+02   1.64544693E+02   1.64544693E+02  -4.27131538E+01  -4.13597565E+01   1.64544693E+02   1.64544693E+02  -4.13597565E+01  -4.27131538E+01   2.07257843E+02  -2.68239269E+01   2.06574509E+02  -4.26286240E+01   1.64460159E+02  -4.13597565E+01   4.18491173E+00
             2906                4   2.07313248E+02   1.64994873E+02   1.64994873E+02  -4.50635567E+01  -3.94595490E+01   1.64994873E+02   1.64994873E+02  -3.94595490E+01  -4.50635567E+01   2.10058441E+02  -2.68239231E+01   2.07142731E+02  -4.48539696E+01   1.64785294E+02  -3.94595490E+01   6.63181353E+00
             2907                1   2.08083145E+02   1.53858292E+02   1.53858292E+02  -5.38306580E+01  -5.46168137E+01   1.53858292E+02   1.53858292E+02  -5.38306580E+01  -5.46168137E+01   2.08475098E+02  -1.51369400E+01   2.08079803E+02  -5.38219910E+01   1.53849625E+02  -5.46168137E+01  -1.34150481E+00
             2907                2   2.08707748E+02   1.54256744E+02   1.54256744E+02  -5.63980103E+01  -5.24479218E+01   1.54256744E+02   1.54256744E+02  -5.24479218E+01  -5.63980103E+01   2.10654755E+02  -1.51369371E+01   2.08623627E+02  -5.63980064E+01   1.54256744E+02  -5.24479218E+01   1.46563454E-02
             2907                3   2.07876038E+02   1.53715851E+02   1.53715851E+02  -5.31210098E+01  -5.51840096E+01   1.53715851E+02   1.53715851E+02  -5.31210098E+01  -5.51840096E+01   2.08899857E+02  -1.51369410E+01   2.07852997E+02  -5.30630798E+01   1.53657913E+02  -5.51840096E+01   3.46103954E+00
             2907                4   2.08507462E+02   1.54132706E+02   1.54132706E+02  -5.57468376E+01  -5.29750404E+01   1.54132706E+02   1.54132706E+02  -5.29750404E+01  -5.57468376E+01   2.09879532E+02  -1.51369410E+01   2.08466003E+02  -5.56398926E+01   1.54025757E+02  -5.29750404E+01   4.73646736E+00
             2908                1   2.15135086E+02   1.67862610E+02   1.67862610E+02  -5.26342659E+01  -4.14764404E+01   1.67862610E+02   1.67862610E+02  -4.14764404E+01  -5.26342659E+01   2.20496872E+02  -2.45839691E+01   2.14482620E+02  -5.24176369E+01   1.67645981E+02  -4.14764404E+01   6.90793180E+00
             2908                2   2.14577087E+02   1.67598389E+02   1.67598389E+02  -4.97392464E+01  -4.41072502E+01   1.67598389E+02   1.67598389E+02  -4.41072502E+01  -4.97392464E+01   2.17337631E+02  -2.45839634E+01   2.14410690E+02  -4.97017822E+01   1.67560928E+02  -4.41072502E+01   2.85321236E+00
             2908                3   2.15406906E+02   1.67936798E+02   1.67936798E+02  -5.44536667E+01  -3.97312164E+01   1.67936798E+02   1.67936798E+02  -3.97312164E+01  -5.44536667E+01   2.22390457E+02  -2.45839691E+01   2.14270554E+02  -5.44432259E+01   1.67926346E+02  -3.97312164E+01   1.52413070E+00
             2908                4   2.14880585E+02   1.67731293E+02   1.67731293E+02  -5.17702255E+01  -4.22091789E+01   1.67731293E+02   1.67731293E+02  -4.22091789E+01  -5.17702255E+01   2.19501526E+02  -2.45839634E+01   2.14401230E+02  -5.17396812E+01   1.67700760E+02  -4.22091789E+01  -2.58892179E+00
             2909                1   2.20000000E+02   2.00684555E+02   2.00684555E+02  -2.59089603E+01  -1.20683975E+01   2.00684555E+02   2.00684555E+02  -1.20683975E+01  -2.59089603E+01   2.26593506E+02  -5.42357292E+01   2.19017258E+02  -2.55864143E+01   2.00362000E+02  -1.20683975E+01  -8.54304981E+00
             2909                2   2.20000000E+02   2.00789352E+02   2.00789352E+02  -2.40270691E+01  -1.40550938E+01   2.00789352E+02   2.00789352E+02  -1.40550938E+01  -2.40270691E+01   2.24816422E+02  -5.42357292E+01   2.19490646E+02  -2.34403057E+01   2.00202591E+02  -1.40550938E+01  -1.14703684E+01
             2909                3   2.20000000E+02   2.00595901E+02   2.00595901E+02  -2.71516228E+01  -1.07370806E+01   2.00595901E+02   2.00595901E+02  -1.07370806E+01  -2.71516228E+01   2.27747528E+02  -5.42357330E+01   2.18615891E+02  -2.64485359E+01   1.99892807E+02  -1.07370806E+01  -1.26345882E+01
             2909                4   2.20000000E+02   2.00717255E+02   2.00717255E+02  -2.53850613E+01  -1.26250114E+01   2.00717255E+02   2.00717255E+02  -1.26250114E+01  -2.53850613E+01   2.26102325E+02  -5.42357292E+01   2.19165131E+02  -2.42985954E+01   1.99630798E+02  -1.26250114E+01  -1.56355677E+01
             2910                1   2.20000000E+02   2.38126099E+02   2.38126099E+02  -7.82257366E+00   6.00887642E+01   2.38126099E+02   2.38126099E+02   6.00887642E+01  -7.82257366E+00   2.45948669E+02  -9.67974319E+01   1.94229752E+02  -7.66373062E+00   2.37967255E+02   6.00887642E+01   6.24843454E+00
             2910                2   2.20000000E+02   2.38767685E+02   2.38767685E+02  -6.07292414E+00   5.76975327E+01   2.38767685E+02   2.38767685E+02   5.76975327E+01  -6.07292414E+00   2.44840607E+02  -9.67974319E+01   1.97544815E+02  -6.06106853E+00   2.38755829E+02   5.76975327E+01  -1.70391333E+00
             2910                3   2.20000000E+02   2.37442078E+02   2.37442078E+02  -9.54777145E+00   6.24979858E+01   2.37442078E+02   2.37442078E+02   6.24979858E+01  -9.54777145E+00   2.46989853E+02  -9.67974243E+01   1.90613678E+02  -9.54685307E+00   2.37441162E+02   6.24979858E+01  -4.74593252E-01
             2910                4   2.20000000E+02   2.38022446E+02   2.38022446E+02  -8.09268856E+00   6.04625282E+01   2.38022446E+02   2.38022446E+02   6.04625282E+01  -8.09268856E+00   2.46115143E+02  -9.67974319E+01   1.93687378E+02  -7.81280041E+00   2.37742569E+02   6.04625282E+01  -8.29488468E+00
             2911                1   2.07151093E+02   1.51875687E+02   1.51875687E+02  -5.41338043E+01  -5.63984489E+01   1.51875687E+02   1.51875687E+02  -5.41338043E+01  -5.63984489E+01   2.08274139E+02  -1.37811441E+01   2.07123245E+02  -5.41313057E+01   1.51873184E+02  -5.63984489E+01  -7.17935622E-01
             2911                2   2.07928818E+02   1.52393051E+02   1.52393051E+02  -5.67564888E+01  -5.42931328E+01   1.52393051E+02   1.52393051E+02  -5.42931328E+01  -5.67564888E+01   2.09149551E+02  -1.37811441E+01   2.07895981E+02  -5.67564125E+01   1.52392975E+02  -5.42931328E+01  -1.30524129E-01
             2911                3   2.07021957E+02   1.51786591E+02   1.51786591E+02  -5.38416557E+01  -5.66014900E+01   1.51786591E+02   1.51786591E+02  -5.38416557E+01  -5.66014900E+01   2.08388077E+02  -1.37811470E+01   2.06980560E+02  -5.37620430E+01   1.51706970E+02  -5.66014900E+01   4.04537678E+00
             2911                4   2.07830429E+02   1.52329926E+02   1.52329926E+02  -5.64960251E+01  -5.44904671E+01   1.52329926E+02   1.52329926E+02  -5.44904671E+01  -5.64960251E+01   2.08825958E+02  -1.37811441E+01   2.07808655E+02  -5.63967056E+01   1.52230606E+02  -5.44904671E+01   4.55302906E+00
             2912                1   2.20000000E+02   2.44357986E+02   2.44357986E+02  -2.50060320E+00   6.90092468E+01   2.44357986E+02   2.44357986E+02   6.90092468E+01  -2.50060320E+00   2.46858582E+02  -1.03622215E+02   1.91100525E+02  -2.33151078E+00   2.44188889E+02   6.90092468E+01   6.45855141E+00
             2912                2   2.20000000E+02   2.45006897E+02   2.45006897E+02  -8.50476563E-01   6.67102127E+01   2.45006897E+02   2.45006897E+02   6.67102127E+01  -8.50476563E-01   2.45857376E+02  -1.03622215E+02   1.94522018E+02  -8.40200186E-01   2.44996613E+02   6.67102127E+01  -1.58989382E+00
             2912                3   2.20000000E+02   2.43663361E+02   2.43663361E+02  -4.14342690E+00   7.13466949E+01   2.43663361E+02   2.43663361E+02   7.13466949E+01  -4.14342690E+00   2.47806778E+02  -1.03622215E+02   1.87347351E+02  -4.14313126E+00   2.43663055E+02   7.13466949E+01  -2.72464603E-01
             2912                4   2.20000000E+02   2.44247223E+02   2.44247223E+02  -2.77060223E+00   6.93900070E+01   2.44247223E+02   2.44247223E+02   6.93900070E+01  -2.77060223E+00   2.47017822E+02  -1.03622215E+02   1.90508560E+02  -2.49790645E+00   2.43974533E+02   6.93900070E+01  -8.20278072E+00
             2913                1   2.05363281E+02   1.66390457E+02   1.66390457E+02  -4.05888214E+01  -3.73177452E+01   1.66390457E+02   1.66390457E+02  -3.73177452E+01  -4.05888214E+01   2.06979279E+02  -2.94946289E+01   2.05304657E+02  -4.05865593E+01   1.66388199E+02  -3.73177452E+01   6.83620691E-01
             2913                2   2.06369125E+02   1.67014786E+02   1.67014786E+02  -4.27619514E+01  -3.57689476E+01   1.67014786E+02   1.67014786E+02  -3.57689476E+01  -4.27619514E+01   2.09776749E+02  -2.94946289E+01   2.06102295E+02  -4.27232399E+01   1.66976074E+02  -3.57689476E+01   2.84961367E+00
             2913                3   2.04731155E+02   1.65980225E+02   1.65980225E+02  -3.93622665E+01  -3.81340637E+01   1.65980225E+02   1.65980225E+02  -3.81340637E+01  -3.93622665E+01   2.05342499E+02  -2.94946308E+01   2.04722855E+02  -3.92665939E+01   1.65884552E+02  -3.81340637E+01   4.43123913E+00
             2913                4   2.05771439E+02   1.66644379E+02   1.66644379E+02  -4.16144447E+01  -3.65460434E+01   1.66644379E+02   1.66644379E+02  -3.65460434E+01  -4.16144447E+01   2.08258820E+02  -2.94946289E+01   2.05630920E+02  -4.14072952E+01   1.66437225E+02  -3.65460434E+01   6.56492281E+00
             2914                1   2.20000000E+02   2.01177856E+02   2.01177856E+02  -2.36772614E+01  -1.36222277E+01   2.01177856E+02   2.01177856E+02  -1.36222277E+01  -2.36772614E+01   2.24855118E+02  -5.46261253E+01   2.19482101E+02  -2.30726509E+01   2.00573242E+02  -1.36222277E+01   1.16440973E+01
             2914                2   2.20000000E+02   2.01074936E+02   2.01074936E+02  -2.55187778E+01  -1.16777925E+01   2.01074936E+02   2.01074936E+02  -1.16777925E+01  -2.55187778E+01   2.26593704E+02  -5.46261177E+01   2.19017197E+02  -2.51587658E+01   2.00714920E+02  -1.16777925E+01   9.02477932E+00
             2914                3   2.20000000E+02   2.01110474E+02   2.01110474E+02  -2.49472923E+01  -1.22848167E+01   2.01110474E+02   2.01110474E+02  -1.22848167E+01  -2.49472923E+01   2.26057755E+02  -5.46261177E+01   2.19177872E+02  -2.38828926E+01   2.00046066E+02  -1.22848167E+01   1.54752550E+01
             2914                4   2.20000000E+02   2.00993973E+02   2.00993973E+02  -2.66616116E+01  -1.04540071E+01   2.00993973E+02   2.00993973E+02  -1.04540071E+01  -2.66616116E+01   2.27655594E+02  -5.46261177E+01   2.18650757E+02  -2.59366875E+01   2.00269058E+02  -1.04540071E+01   1.28260212E+01
             2915                1   2.05640366E+02   1.55472610E+02   1.55472610E+02  -4.97894096E+01  -5.05440369E+01   1.55472610E+02   1.55472610E+02  -4.97894096E+01  -5.05440369E+01   2.06016647E+02  -1.83797207E+01   2.05637253E+02  -4.97850380E+01   1.55468231E+02  -5.05440369E+01  -9.47475076E-01
             2915                2   2.06387878E+02   1.55955978E+02   1.55955978E+02  -5.22056580E+01  -4.86111794E+01   1.55955978E+02   1.55955978E+02  -4.86111794E+01  -5.22056580E+01   2.08161636E+02  -1.83797131E+01   2.06317429E+02  -5.22052917E+01   1.55955612E+02  -4.86111794E+01   2.75713265E-01
             2915                3   2.05402786E+02   1.55310516E+02   1.55310516E+02  -4.91353874E+01  -5.10359764E+01   1.55310516E+02   1.55310516E+02  -4.91353874E+01  -5.10359764E+01   2.06346497E+02  -1.83797169E+01   2.05383011E+02  -4.90771294E+01   1.55252258E+02  -5.10359764E+01   3.45057321E+00
             2915                4   2.06166916E+02   1.55816574E+02   1.55816574E+02  -5.16030884E+01  -4.90743370E+01   1.55816574E+02   1.55816574E+02  -4.90743370E+01  -5.16030884E+01   2.07419662E+02  -1.83797169E+01   2.06132019E+02  -5.15005798E+01   1.55714066E+02  -4.90743370E+01   4.60994673E+00
             2916                1   2.09131577E+02   1.63407913E+02   1.63407913E+02  -4.77505989E+01  -4.36360207E+01   1.63407913E+02   1.63407913E+02  -4.36360207E+01  -4.77505989E+01   2.11158508E+02  -2.40071011E+01   2.09040482E+02  -4.77490196E+01   1.63406342E+02  -4.36360207E+01  -5.76755702E-01
             2916                2   2.10033005E+02   1.63941956E+02   1.63941956E+02  -5.02381554E+01  -4.16824875E+01   1.63941956E+02   1.63941956E+02  -4.16824875E+01  -5.02381554E+01   2.14180115E+02  -2.40071030E+01   2.09640396E+02  -5.02183647E+01   1.63922165E+02  -4.16824875E+01   2.05859399E+00
             2916                3   2.08464905E+02   1.62980621E+02   1.62980621E+02  -4.62819786E+01  -4.46773300E+01   1.62980621E+02   1.62980621E+02  -4.46773300E+01  -4.62819786E+01   2.09262604E+02  -2.40071030E+01   2.08451004E+02  -4.62073975E+01   1.62906036E+02  -4.46773300E+01   3.94991016E+00
             2916                4   2.09560318E+02   1.63667694E+02   1.63667694E+02  -4.89369736E+01  -4.27094307E+01   1.63667694E+02   1.63667694E+02  -4.27094307E+01  -4.89369736E+01   2.12604675E+02  -2.40071011E+01   2.09351959E+02  -4.87359581E+01   1.63466690E+02  -4.27094307E+01   6.53416872E+00
             2917                1   2.20000000E+02   1.96010513E+02   1.96010513E+02  -3.24665527E+01  -1.43980370E+01   1.96010513E+02   1.96010513E+02  -1.43980370E+01  -3.24665527E+01   2.28477066E+02  -4.97153053E+01   2.18321289E+02  -3.22826424E+01   1.95826599E+02  -1.43980370E+01  -6.47970343E+00
             2917                2   2.20000000E+02   1.96168808E+02   1.96168808E+02  -3.03569202E+01  -1.66659813E+01   1.96168808E+02   1.96168808E+02  -1.66659813E+01  -3.03569202E+01   2.26525726E+02  -4.97153015E+01   2.19038452E+02  -2.98756962E+01   1.95687592E+02  -1.66659813E+01  -1.04296122E+01
             2917                3   2.20000000E+02   1.95863922E+02   1.95863922E+02  -3.40253601E+01  -1.26926413E+01   1.95863922E+02   1.95863922E+02  -1.26926413E+01  -3.40253601E+01   2.29889282E+02  -4.97153053E+01   2.17654816E+02  -3.34813194E+01   1.95319885E+02  -1.26926413E+01  -1.11701317E+01
             2917                4   2.20000000E+02   1.96040955E+02   1.96040955E+02  -3.21041565E+01  -1.47908812E+01   1.96040955E+02   1.96040955E+02  -1.47908812E+01  -3.21041565E+01   2.28145111E+02  -4.97153053E+01   2.18459396E+02  -3.10923119E+01   1.95029114E+02  -1.47908812E+01  -1.51598930E+01
             2918                1   2.20000000E+02   2.31230881E+02   2.31230881E+02  -1.33820801E+01   4.95663910E+01   2.31230881E+02   2.31230881E+02   4.95663910E+01  -1.33820801E+01   2.44612961E+02  -8.91383972E+01   1.98168442E+02  -1.31937160E+01   2.31042511E+02   4.95663910E+01   6.78543758E+00
             2918                2   2.20000000E+02   2.31889038E+02   2.31889038E+02  -1.13921137E+01   4.69182625E+01   2.31889038E+02   2.31889038E+02   4.69182625E+01  -1.13921137E+01   2.43281143E+02  -8.91383972E+01   2.01485168E+02  -1.13844576E+01   2.31881378E+02   4.69182625E+01  -1.36444783E+00
             2918                3   2.20000000E+02   2.30534775E+02   2.30534775E+02  -1.53034048E+01   5.21838188E+01   2.30534775E+02   2.30534775E+02   5.21838188E+01  -1.53034048E+01   2.45838181E+02  -8.91383972E+01   1.94582993E+02  -1.53030567E+01   2.30534424E+02   5.21838188E+01  -2.93315560E-01
             2918                4   2.20000000E+02   2.31139374E+02   2.31139374E+02  -1.36445360E+01   4.99203339E+01   2.31139374E+02   2.31139374E+02   4.99203339E+01  -1.36445360E+01   2.44783920E+02  -8.91383896E+01   1.97701874E+02  -1.33593693E+01   2.30854218E+02   4.99203339E+01  -8.34993935E+00
             2919                1   2.05577820E+02   1.54167709E+02   1.54167709E+02  -5.25331612E+01  -5.02683258E+01   1.54167709E+02   1.54167709E+02  -5.02683258E+01  -5.25331612E+01   2.06700867E+02  -1.71220722E+01   2.05549744E+02  -5.25331650E+01   1.54167709E+02  -5.02683258E+01  -1.76959988E-02
             2919                2   2.05472305E+02   1.54099533E+02   1.54099533E+02  -5.22819786E+01  -5.04513206E+01   1.54099533E+02   1.54099533E+02  -5.04513206E+01  -5.22819786E+01   2.06381516E+02  -1.71220760E+01   2.05453949E+02  -5.21929817E+01   1.54010529E+02  -5.04513206E+01   4.28489923E+00
             2919                3   2.04823425E+02   1.53665771E+02   1.53665771E+02  -5.01127129E+01  -5.21868324E+01   1.53665771E+02   1.53665771E+02  -5.01127129E+01  -5.21868324E+01   2.05852600E+02  -1.71220741E+01   2.04799789E+02  -5.01111488E+01   1.53664200E+02  -5.21868324E+01  -5.65449297E-01
             2919                4   2.04710358E+02   1.53587769E+02   1.53587769E+02  -4.98404350E+01  -5.23811073E+01   1.53587769E+02   1.53587769E+02  -4.98404350E+01  -5.23811073E+01   2.05968872E+02  -1.71220741E+01   2.04674881E+02  -4.97693329E+01   1.53516663E+02  -5.23811073E+01   3.80255723E+00
             2920                1   2.20000000E+02   2.44049576E+02   2.44049576E+02  -2.46016431E+00   6.76466980E+01   2.44049576E+02   2.44049576E+02   6.76466980E+01  -2.46016431E+00   2.46509750E+02  -1.03078705E+02   1.92349228E+02  -2.26806808E+00   2.43857483E+02   6.76466980E+01   6.87874317E+00
             2920                2   2.20000000E+02   2.44717667E+02   2.44717667E+02  -7.12528467E-01   6.52309647E+01   2.44717667E+02   2.44717667E+02   6.52309647E+01  -7.12528467E-01   2.45430206E+02  -1.03078705E+02   1.95841934E+02  -7.04815269E-01   2.44709961E+02   6.52309647E+01  -1.37555444E+00
             2920                3   2.20000000E+02   2.43326630E+02   2.43326630E+02  -4.21005249E+00   7.01195297E+01   2.43326630E+02   2.43326630E+02   7.01195297E+01  -4.21005249E+00   2.47536682E+02  -1.03078705E+02   1.88474899E+02  -4.21005774E+00   2.43326630E+02   7.01195297E+01   6.67067803E-03
             2920                4   2.20000000E+02   2.43930679E+02   2.43930679E+02  -2.75736165E+00   6.80627823E+01   2.43930679E+02   2.43930679E+02   6.80627823E+01  -2.75736165E+00   2.46688049E+02  -1.03078705E+02   1.91719070E+02  -2.48939204E+00   2.43662720E+02   6.80627823E+01  -8.12602806E+00
             2921                1   2.14475830E+02   1.50647934E+02   1.50647934E+02  -6.33644371E+01  -6.42883835E+01   1.50647934E+02   1.50647934E+02  -6.33644371E+01  -6.42883835E+01   2.14936310E+02  -7.66503668E+00   2.14471359E+02  -6.33246117E+01   1.50608109E+02  -6.42883835E+01  -2.91901255E+00
             2921                2   2.15308121E+02   1.51175919E+02   1.51175919E+02  -6.65391769E+01  -6.16416550E+01   1.51175919E+02   1.51175919E+02  -6.16416550E+01  -6.65391769E+01   2.17715103E+02  -7.66503143E+00   2.15182739E+02  -6.65322113E+01   1.51168961E+02  -6.16416550E+01  -1.23138344E+00
             2921                3   2.14325684E+02   1.50541229E+02   1.50541229E+02  -6.24965935E+01  -6.50495300E+01   1.50541229E+02   1.50541229E+02  -6.24965935E+01  -6.50495300E+01   2.15590759E+02  -7.66503382E+00   2.14291473E+02  -6.24537163E+01   1.50498352E+02  -6.50495300E+01   3.02189732E+00
             2921                4   2.15175674E+02   1.51101868E+02   1.51101868E+02  -6.57655411E+01  -6.23412056E+01   1.51101868E+02   1.51101868E+02  -6.23412056E+01  -6.57655411E+01   2.16867401E+02  -7.66503763E+00   2.15114349E+02  -6.56686554E+01   1.51004974E+02  -6.23412056E+01   4.58279991E+00
             2922                1   2.20000000E+02   2.17410233E+02   2.17410233E+02  -2.44304371E+01   2.91488380E+01   2.17410233E+02   2.17410233E+02   2.91488380E+01  -2.44304371E+01   2.41840668E+02  -7.40428772E+01   2.04533188E+02  -2.42865086E+01   2.17266312E+02   2.91488380E+01   5.89794874E+00
             2922                2   2.20000000E+02   2.18106369E+02   2.18106369E+02  -2.18136101E+01   2.58358822E+01   2.18106369E+02   2.18106369E+02   2.58358822E+01  -2.18136101E+01   2.39919983E+02  -7.40428772E+01   2.07908920E+02  -2.17528458E+01   2.18045609E+02   2.58358822E+01  -3.81749320E+00
             2922                3   2.20000000E+02   2.16826843E+02   2.16826843E+02  -2.63816433E+01   3.16834354E+01   2.16826843E+02   2.16826843E+02   3.16834354E+01  -2.63816433E+01   2.43208496E+02  -7.40428848E+01   2.01651321E+02  -2.63157310E+01   2.16760941E+02   3.16834354E+01  -4.00312281E+00
             2922                4   2.20000000E+02   2.17459747E+02   2.17459747E+02  -2.42557049E+01   2.89245930E+01   2.17459747E+02   2.17459747E+02   2.89245930E+01  -2.42557049E+01   2.41715454E+02  -7.40428772E+01   2.04775482E+02  -2.34639664E+01   2.16668015E+02   2.89245930E+01  -1.38111029E+01
             2923                1   2.18669037E+02   2.30828796E+02   2.30828796E+02  -2.94095802E+00   3.13005409E+01   2.30828796E+02   2.30828796E+02   3.13005409E+01  -2.94095802E+00   2.33769745E+02  -8.63961258E+01   2.12511566E+02  -2.92907357E+00   2.30816910E+02   3.13005409E+01   1.66650760E+00
             2923                2   2.18881241E+02   2.30607697E+02   2.30607697E+02  -4.99521351E+00   3.35759010E+01   2.30607697E+02   2.30607697E+02   3.35759010E+01  -4.99521351E+00   2.35602921E+02  -8.63961258E+01   2.11031067E+02  -4.97466040E+00   2.30587143E+02   3.35759010E+01  -2.20073462E+00
             2923                3   2.18795883E+02   2.30633682E+02   2.30633682E+02  -4.53378487E+00   3.30884895E+01   2.30633682E+02   2.30633682E+02   3.30884895E+01  -4.53378487E+00   2.35167465E+02  -8.63961258E+01   2.11334045E+02  -4.33188152E+00   2.30431778E+02   3.30884895E+01   6.88774061E+00
             2923                4   2.18997009E+02   2.30400208E+02   2.30400208E+02  -6.43097687E+00   3.52191620E+01   2.30400208E+02   2.30400208E+02   3.52191620E+01  -6.43097687E+00   2.36831177E+02  -8.63961258E+01   2.09806671E+02  -6.39381742E+00   2.30363037E+02   3.52191620E+01   2.96646762E+00
             2924                1   2.20000000E+02   1.75867050E+02   1.75867050E+02  -5.36972427E+01  -3.31232758E+01   1.75867050E+02   1.75867050E+02  -3.31232758E+01  -5.36972427E+01   2.29564285E+02  -2.96821747E+01   2.17819855E+02  -5.35702782E+01   1.75740082E+02  -3.31232758E+01   5.39718342E+00
             2924                2   2.20000000E+02   1.76125031E+02   1.76125031E+02  -5.05536232E+01  -3.65248833E+01   1.76125031E+02   1.76125031E+02  -3.65248833E+01  -5.05536232E+01   2.26678650E+02  -2.96821747E+01   2.18990265E+02  -5.05507202E+01   1.76122131E+02  -3.65248833E+01  -8.10991824E-01
             2924                3   2.20000000E+02   1.75593307E+02   1.75593307E+02  -5.61492767E+01  -3.03975163E+01   1.75593307E+02   1.75593307E+02  -3.03975163E+01  -5.61492767E+01   2.31742584E+02  -2.96821728E+01   2.16570236E+02  -5.61418724E+01   1.75585907E+02  -3.03975163E+01  -1.30950654E+00
             2924                4   2.20000000E+02   1.75898071E+02   1.75898071E+02  -5.33764992E+01  -3.34750404E+01   1.75898071E+02   1.75898071E+02  -3.34750404E+01  -5.33764992E+01   2.29274582E+02  -2.96821804E+01   2.17960999E+02  -5.31267433E+01   1.75648315E+02  -3.34750404E+01  -7.56315565E+00
             2925                1   2.05369034E+02   1.60428253E+02   1.60428253E+02  -4.54983940E+01  -4.43785858E+01   1.60428253E+02   1.60428253E+02  -4.43785858E+01  -4.54983940E+01   2.05926651E+02  -2.35170918E+01   2.05362167E+02  -4.54981613E+01   1.60428024E+02  -4.43785858E+01  -2.20065415E-01
             2925                2   2.06011780E+02   1.60826202E+02   1.60826202E+02  -4.77079163E+01  -4.25670090E+01   1.60826202E+02   1.60826202E+02  -4.25670090E+01  -4.77079163E+01   2.08534119E+02  -2.35170918E+01   2.05867386E+02  -4.76958466E+01   1.60814133E+02  -4.25670090E+01   1.58642423E+00
             2925                3   2.05042038E+02   1.60211365E+02   1.60211365E+02  -4.45351334E+01  -4.51249466E+01   1.60211365E+02   1.60211365E+02  -4.45351334E+01  -4.51249466E+01   2.05336304E+02  -2.35170918E+01   2.05040131E+02  -4.44627533E+01   1.60138977E+02  -4.51249466E+01   3.84894085E+00
             2925                4   2.05706650E+02   1.60639603E+02   1.60639603E+02  -4.68158951E+01  -4.32724190E+01   1.60639603E+02   1.60639603E+02  -4.32724190E+01  -4.68158951E+01   2.07455490E+02  -2.35170956E+01   2.05637955E+02  -4.66643028E+01   1.60488007E+02  -4.32724190E+01   5.60580301E+00
             2926                1   2.18562256E+02   2.25762970E+02   2.25762970E+02  -8.40757084E+00   2.71756859E+01   2.25762970E+02   2.25762970E+02   2.71756859E+01  -8.40757084E+00   2.34170532E+02  -8.15103607E+01   2.11898026E+02  -8.10448074E+00   2.25459869E+02   2.71756859E+01   8.41924953E+00
             2926                2   2.18288818E+02   2.25873199E+02   2.25873199E+02  -6.57272959E+00   2.52305927E+01   2.25873199E+02   2.25873199E+02   2.52305927E+01  -6.57272959E+00   2.32445938E+02  -8.15103531E+01   2.12982864E+02  -6.53594971E+00   2.25836426E+02   2.52305927E+01   2.92370057E+00
             2926                3   2.18793808E+02   2.25558487E+02   2.25558487E+02  -1.03760109E+01   2.93485851E+01   2.25558487E+02   2.25558487E+02   2.93485851E+01  -1.03760109E+01   2.35934494E+02  -8.15103531E+01   2.10449677E+02  -1.03107882E+01   2.25493271E+02   2.93485851E+01   3.92215681E+00
             2926                4   2.18601761E+02   2.25727829E+02   2.25727829E+02  -8.76155090E+00   2.75647831E+01   2.25727829E+02   2.25727829E+02   2.75647831E+01  -8.76155090E+00   2.34489380E+02  -8.15103531E+01   2.11650848E+02  -8.75202179E+00   2.25718307E+02   2.75647831E+01  -1.49421072E+00
             2927                1   2.03923538E+02   1.56147263E+02   1.56147263E+02  -4.87913666E+01  -4.67457886E+01   1.56147263E+02   1.56147263E+02  -4.67457886E+01  -4.87913666E+01   2.04938629E+02  -2.02033672E+01   2.03900452E+02  -4.87913132E+01   1.56147202E+02  -4.67457886E+01   1.09891944E-01
             2927                2   2.03852966E+02   1.56101776E+02   1.56101776E+02  -4.85990143E+01  -4.68926620E+01   1.56101776E+02   1.56101776E+02  -4.68926620E+01  -4.85990143E+01   2.04700790E+02  -2.02033672E+01   2.03836899E+02  -4.85200768E+01   1.56022842E+02  -4.68926620E+01   4.01892710E+00
             2927                3   2.03143219E+02   1.55627777E+02   1.55627777E+02  -4.65620956E+01  -4.84555779E+01   1.55627777E+02   1.55627777E+02  -4.65620956E+01  -4.84555779E+01   2.04083344E+02  -2.02033653E+01   2.03123367E+02  -4.65615654E+01   1.55627243E+02  -4.84555779E+01  -3.26458693E-01
             2927                4   2.03003464E+02   1.55532745E+02   1.55532745E+02  -4.63337059E+01  -4.85889473E+01   1.55532745E+02   1.55532745E+02  -4.63337059E+01  -4.85889473E+01   2.04121689E+02  -2.02033634E+01   2.02975281E+02  -4.62682915E+01   1.55467331E+02  -4.85889473E+01   3.63320756E+00
             2928                1   2.20000000E+02   2.43505737E+02   2.43505737E+02  -2.40197182E+00   6.53517990E+01   2.43505737E+02   2.43505737E+02   6.53517990E+01  -2.40197182E+00   2.45907700E+02  -1.02151855E+02   1.94361359E+02  -2.18597889E+00   2.43289734E+02   6.53517990E+01   7.28483486E+00
             2928                2   2.20000000E+02   2.44185928E+02   2.44185928E+02  -5.36533296E-01   6.28061600E+01   2.44185928E+02   2.44185928E+02   6.28061600E+01  -5.36533296E-01   2.44722458E+02  -1.02151855E+02   1.97870743E+02  -5.31555414E-01   2.44180954E+02   6.28061600E+01  -1.10373521E+00
             2928                3   2.20000000E+02   2.42764542E+02   2.42764542E+02  -4.27080727E+00   6.79618378E+01   2.42764542E+02   2.42764542E+02   6.79618378E+01  -4.27080727E+00   2.47035339E+02  -1.02151855E+02   1.90442505E+02  -4.27046680E+00   2.42764191E+02   6.79618378E+01   2.91969061E-01
             2928                4   2.20000000E+02   2.43384506E+02   2.43384506E+02  -2.71846128E+00   6.57895126E+01   2.43384506E+02   2.43384506E+02   6.57895126E+01  -2.71846128E+00   2.46102966E+02  -1.02151855E+02   1.93727402E+02  -2.45960188E+00   2.43125641E+02   6.57895126E+01  -7.97751856E+00
             2929                1   2.20000000E+02   2.30837997E+02   2.30837997E+02  -1.32420712E+01   4.78169441E+01   2.30837997E+02   2.30837997E+02   4.78169441E+01  -1.32420712E+01   2.44080078E+02  -8.84709549E+01   1.99560425E+02  -1.30133085E+01   2.30609238E+02   4.78169441E+01   7.46892452E+00
             2929                2   2.20000000E+02   2.31500610E+02   2.31500610E+02  -1.11547546E+01   4.50670166E+01   2.31500610E+02   2.31500610E+02   4.50670166E+01  -1.11547546E+01   2.42655365E+02  -8.84709549E+01   2.02871094E+02  -1.11522646E+01   2.31498123E+02   4.50670166E+01  -7.76894629E-01
             2929                3   2.20000000E+02   2.30131256E+02   2.30131256E+02  -1.52621222E+01   5.05437508E+01   2.30131256E+02   2.30131256E+02   5.05437508E+01  -1.52621222E+01   2.45393387E+02  -8.84709702E+01   1.95952133E+02  -1.52616501E+01   2.30130783E+02   5.05437508E+01   3.42971951E-01
             2929                4   2.20000000E+02   2.30739090E+02   2.30739090E+02  -1.35365429E+01   4.82103386E+01   2.30739090E+02   2.30739090E+02   4.82103386E+01  -1.35365429E+01   2.44275635E+02  -8.84709549E+01   1.99060318E+02  -1.32920704E+01   2.30494614E+02   4.82103386E+01  -7.72394371E+00
             2930                1   2.01848953E+02   1.59412399E+02   1.59412399E+02  -4.20979691E+01  -4.27734375E+01   1.59412399E+02   1.59412399E+02  -4.20979691E+01  -4.27734375E+01   2.02185837E+02  -2.48470001E+01   2.01846405E+02  -4.20978127E+01   1.59412247E+02  -4.27734375E+01  -1.79199174E-01
             2930                2   2.02611282E+02   1.59910950E+02   1.59910950E+02  -4.41249466E+01  -4.12450104E+01   1.59910950E+02   1.59910950E+02  -4.12450104E+01  -4.41249466E+01   2.04035889E+02  -2.48469982E+01   2.02565231E+02  -4.41220016E+01   1.59908005E+02  -4.12450104E+01   7.75595009E-01
             2930                3   2.01563171E+02   1.59219421E+02   1.59219421E+02  -4.15597153E+01  -4.31187134E+01   1.59219421E+02   1.59219421E+02  -4.15597153E+01  -4.31187134E+01   2.02338135E+02  -2.48470001E+01   2.01549591E+02  -4.15021400E+01   1.59161850E+02  -4.31187134E+01   3.39958215E+00
             2930                4   2.02339767E+02   1.59735016E+02   1.59735016E+02  -4.36197014E+01  -4.15743027E+01   1.59735016E+02   1.59735016E+02  -4.15743027E+01  -4.36197014E+01   2.03354706E+02  -2.48470020E+01   2.02316498E+02  -4.35280952E+01   1.59643402E+02  -4.15743027E+01   4.31518316E+00
             2931                1   2.11217072E+02   1.69274689E+02   1.69274689E+02  -4.57472954E+01  -3.79198761E+01   1.69274689E+02   1.69274689E+02  -3.79198761E+01  -4.57472954E+01   2.15021973E+02  -2.85358372E+01   2.10890381E+02  -4.57450981E+01   1.69272491E+02  -3.79198761E+01  -6.86602712E-01
             2931                2   2.11856476E+02   1.69593887E+02   1.69593887E+02  -4.81598167E+01  -3.58265495E+01   1.69593887E+02   1.69593887E+02  -3.58265495E+01  -4.81598167E+01   2.17753693E+02  -2.85358372E+01   2.11046524E+02  -4.81245537E+01   1.69558624E+02  -3.58265495E+01   2.77060890E+00
             2931                3   2.10720215E+02   1.68991486E+02   1.68991486E+02  -4.39637642E+01  -3.94202080E+01   1.68991486E+02   1.68991486E+02  -3.94202080E+01  -4.39637642E+01   2.12955261E+02  -2.85358372E+01   2.10609970E+02  -4.38899994E+01   1.68917725E+02  -3.94202080E+01   3.96276093E+00
             2931                4   2.11396393E+02   1.69364441E+02   1.69364441E+02  -4.65286331E+01  -3.72282791E+01   1.69364441E+02   1.69364441E+02  -3.72282791E+01  -4.65286331E+01   2.15893066E+02  -2.85358410E+01   2.10935349E+02  -4.62764626E+01   1.69112259E+02  -3.72282791E+01   7.37422419E+00
             2932                1   2.20000000E+02   2.37291748E+02   2.37291748E+02  -7.20080900E+00   5.53165741E+01   2.37291748E+02   2.37291748E+02   5.53165741E+01  -7.20080900E+00   2.44492554E+02  -9.51358414E+01   1.98491074E+02  -7.17895985E+00   2.37269897E+02   5.53165741E+01   2.31141591E+00
             2932                2   2.20000000E+02   2.37740875E+02   2.37740875E+02  -5.85144711E+00   5.35180893E+01   2.37740875E+02   2.37740875E+02   5.35180893E+01  -5.85144711E+00   2.43592331E+02  -9.51358414E+01   2.00757278E+02  -5.78350019E+00   2.37672928E+02   5.35180893E+01  -4.06797981E+00
             2932                3   2.20000000E+02   2.36793991E+02   2.36793991E+02  -8.60311222E+00   5.72166328E+01   2.36793991E+02   2.36793991E+02   5.72166328E+01  -8.60311222E+00   2.45397095E+02  -9.51358337E+01   1.95941071E+02  -8.56992817E+00   2.36760803E+02   5.72166328E+01  -2.85334206E+00
             2932                4   2.20000000E+02   2.37206802E+02   2.37206802E+02  -7.44666576E+00   5.56473732E+01   2.37206802E+02   2.37206802E+02   5.56473732E+01  -7.44666576E+00   2.44653458E+02  -9.51358337E+01   1.98058838E+02  -7.10523796E+00   2.36865372E+02   5.56473732E+01  -9.13315105E+00
             2933                1   2.20000015E+02   2.34984314E+02   2.34984314E+02  -6.00186920E+00   4.48906136E+01   2.34984314E+02   2.34984314E+02   4.48906136E+01  -6.00186920E+00   2.40986191E+02  -9.12910233E+01   2.06122009E+02  -5.99792528E+00   2.34980377E+02   4.48906136E+01  -9.74939108E-01
             2933                2   2.20000000E+02   2.35282211E+02   2.35282211E+02  -4.85484648E+00   4.34456978E+01   2.35282211E+02   2.35282211E+02   4.34456978E+01  -4.85484648E+00   2.40137054E+02  -9.12910233E+01   2.07561386E+02  -4.71281862E+00   2.35140182E+02   4.34456978E+01  -5.83840704E+00
             2933                3   2.20000000E+02   2.34635681E+02   2.34635681E+02  -7.26187992E+00   4.64992676E+01   2.34635681E+02   2.34635681E+02   4.64992676E+01  -7.26187992E+00   2.41897552E+02  -9.12910156E+01   2.04421982E+02  -7.16809559E+00   2.34541885E+02   4.64992676E+01  -4.76219511E+00
             2933                4   2.20000000E+02   2.34920151E+02   2.34920151E+02  -6.24002695E+00   4.51929321E+01   2.34920151E+02   2.34920151E+02   4.51929321E+01  -6.24002695E+00   2.41160187E+02  -9.12910156E+01   2.05810440E+02  -5.85976982E+00   2.34539902E+02   4.51929321E+01  -9.56858826E+00
             2934                1   2.01009033E+02   1.57872284E+02   1.57872284E+02  -4.22733841E+01  -4.39891205E+01   1.57872284E+02   1.57872284E+02  -4.22733841E+01  -4.39891205E+01   2.01861404E+02  -2.38699284E+01   2.00992554E+02  -4.22731781E+01   1.57872086E+02  -4.39891205E+01  -2.02418402E-01
             2934                2   2.01731644E+02   1.58353363E+02   1.58353363E+02  -4.43055954E+01  -4.24379845E+01   1.58353363E+02   1.58353363E+02  -4.24379845E+01  -4.43055954E+01   2.02658966E+02  -2.38699284E+01   2.01712189E+02  -4.43053627E+01   1.58353134E+02  -4.24379845E+01   2.18677133E-01
             2934                3   2.00918945E+02   1.57810547E+02   1.57810547E+02  -4.20642662E+01  -4.41364937E+01   1.57810547E+02   1.57810547E+02  -4.20642662E+01  -4.41364937E+01   2.01947037E+02  -2.38699284E+01   2.00894882E+02  -4.20064888E+01   1.57752762E+02  -4.41364937E+01   3.39794278E+00
             2934                4   2.01647018E+02   1.58298370E+02   1.58298370E+02  -4.41101303E+01  -4.25784492E+01   1.58298370E+02   1.58298370E+02  -4.25784492E+01  -4.41101303E+01   2.02408508E+02  -2.38699284E+01   2.01633926E+02  -4.40396042E+01   1.58227844E+02  -4.25784492E+01   3.77749896E+00
             2935                1   2.20000000E+02   2.42711563E+02   2.42711563E+02  -2.30122495E+00   6.20970726E+01   2.42711563E+02   2.42711563E+02   6.20970726E+01  -2.30122495E+00   2.45012787E+02  -1.00835808E+02   1.97060989E+02  -2.07183480E+00   2.42482178E+02   6.20970726E+01   7.49333334E+00
             2935                2   2.20000000E+02   2.43375900E+02   2.43375900E+02  -3.52025986E-01   5.94835320E+01   2.43375900E+02   2.43375900E+02   5.94835320E+01  -3.52025986E-01   2.43727936E+02  -1.00835808E+02   2.00431580E+02  -3.49024951E-01   2.43372910E+02   5.94835320E+01  -8.54579329E-01
             2935                3   2.20000000E+02   2.41973877E+02   2.41973877E+02  -4.27835131E+00   6.48118820E+01   2.41973877E+02   2.41973877E+02   6.48118820E+01  -4.27835131E+00   2.46252228E+02  -1.00835808E+02   1.93230942E+02  -4.27699518E+00   2.41972519E+02   6.48118820E+01   5.78381121E-01
             2935                4   2.20000000E+02   2.42586853E+02   2.42586853E+02  -2.64820886E+00   6.25687599E+01   2.42586853E+02   2.42586853E+02   6.25687599E+01  -2.64820886E+00   2.45235062E+02  -1.00835808E+02   1.96420151E+02  -2.40909600E+00   2.42347748E+02   6.25687599E+01  -7.65374804E+00
             2936                1   2.20000000E+02   2.36705261E+02   2.36705261E+02  -7.45148182E+00   5.38764992E+01   2.36705261E+02   2.36705261E+02   5.38764992E+01  -7.45148182E+00   2.44156754E+02  -9.43767624E+01   1.99365768E+02  -7.18666649E+00   2.36440445E+02   5.38764992E+01   8.03665066E+00
             2936                2   2.20000000E+02   2.37370239E+02   2.37370239E+02  -5.36858702E+00   5.11286240E+01   2.37370239E+02   2.37370239E+02   5.11286240E+01  -5.36858702E+00   2.42738815E+02  -9.43767624E+01   2.02692032E+02  -5.36805010E+00   2.37369705E+02   5.11286240E+01  -3.58635217E-01
             2936                3   2.20000000E+02   2.35974899E+02   2.35974899E+02  -9.52531242E+00   5.66806870E+01   2.35974899E+02   2.35974899E+02   5.66806870E+01  -9.52531242E+00   2.45500214E+02  -9.43767624E+01   1.95630783E+02  -9.52094650E+00   2.35970535E+02   5.66806870E+01   1.03480232E+00
             2936                4   2.20000000E+02   2.36594513E+02   2.36594513E+02  -7.77907467E+00   5.43148232E+01   2.36594513E+02   2.36594513E+02   5.43148232E+01  -7.77907467E+00   2.44373596E+02  -9.43767624E+01   1.98805099E+02  -7.56239319E+00   2.36377838E+02   5.43148232E+01  -7.27353621E+00
             2937                1   2.20000000E+02   2.16895264E+02   2.16895264E+02  -2.53653069E+01   2.95655499E+01   2.16895264E+02   2.16895264E+02   2.95655499E+01  -2.53653069E+01   2.42260574E+02  -7.36985016E+01   2.03695602E+02  -2.50665607E+01   2.16596512E+02   2.95655499E+01   8.50210667E+00
             2937                2   2.20000000E+02   2.17688339E+02   2.17688339E+02  -2.24527550E+01   2.58599129E+01   2.17688339E+02   2.17688339E+02   2.58599129E+01  -2.24527550E+01   2.40141098E+02  -7.36984940E+01   2.07554886E+02  -2.24332867E+01   2.17668869E+02   2.58599129E+01  -2.16202903E+00
             2937                3   2.20000000E+02   2.16258942E+02   2.16258942E+02  -2.74267101E+01   3.22632675E+01   2.16258942E+02   2.16258942E+02   3.22632675E+01  -2.74267101E+01   2.43685654E+02  -7.36984940E+01   2.00533691E+02  -2.74058704E+01   2.16238098E+02   3.22632675E+01  -2.25356817E+00
             2937                4   2.20000000E+02   2.16974243E+02   2.16974243E+02  -2.50940876E+01   2.92153435E+01   2.16974243E+02   2.16974243E+02   2.92153435E+01  -2.50940876E+01   2.42068329E+02  -7.36985016E+01   2.04083923E+02  -2.43957253E+01   2.16275879E+02   2.92153435E+01  -1.29832516E+01
             2938                1   2.20000000E+02   1.92071075E+02   1.92071075E+02  -3.81621361E+01  -1.60213547E+01   1.92071075E+02   1.92071075E+02  -1.60213547E+01  -3.81621361E+01   2.30233200E+02  -4.59625244E+01   2.17472244E+02  -3.80910378E+01   1.91999969E+02  -1.60213547E+01  -4.04531765E+00
             2938                2   2.20000000E+02   1.92290710E+02   1.92290710E+02  -3.58259544E+01  -1.85771770E+01   1.92290710E+02   1.92290710E+02  -1.85771770E+01  -3.58259544E+01   2.28116669E+02  -4.59625244E+01   2.18470901E+02  -3.54724770E+01   1.91937225E+02  -1.85771770E+01  -8.97274494E+00
             2938                3   2.20000000E+02   1.91852509E+02   1.91852509E+02  -4.00368881E+01  -1.39280481E+01   1.91852509E+02   1.91852509E+02  -1.39280481E+01  -4.00368881E+01   2.31889404E+02  -4.59625244E+01   2.16473343E+02  -3.96556091E+01   1.91471237E+02  -1.39280481E+01  -9.39515209E+00
             2938                4   2.20000000E+02   1.92092056E+02   1.92092056E+02  -3.79628334E+01  -1.62416458E+01   1.92092056E+02   1.92092056E+02  -1.62416458E+01  -3.79628334E+01   2.30054901E+02  -4.59625244E+01   2.17567917E+02  -3.70666389E+01   1.91195862E+02  -1.62416458E+01  -1.43307981E+01
             2939                1   2.20000000E+02   2.17105743E+02   2.17105743E+02  -2.49417515E+01   2.93005924E+01   2.17105743E+02   2.17105743E+02   2.93005924E+01  -2.49417515E+01   2.42047485E+02  -7.38215256E+01   2.04125504E+02  -2.46184750E+01   2.16782455E+02   2.93005924E+01   8.83996677E+00
             2939                2   2.20000000E+02   2.17851425E+02   2.17851425E+02  -2.21699409E+01   2.57830887E+01   2.17851425E+02   2.17851425E+02   2.57830887E+01  -2.21699409E+01   2.40021362E+02  -7.38215256E+01   2.07747589E+02  -2.21662617E+01   2.17847748E+02   2.57830887E+01  -9.39959884E-01
             2939                3   2.20000000E+02   2.16447342E+02   2.16447342E+02  -2.71012058E+01   3.21184349E+01   2.16447342E+02   2.16447342E+02   3.21184349E+01  -2.71012058E+01   2.43548538E+02  -7.38215256E+01   2.00861343E+02  -2.70797348E+01   2.16425873E+02   3.21184349E+01  -2.28623772E+00
             2939                4   2.20000000E+02   2.17109741E+02   2.17109741E+02  -2.49278908E+01   2.92827282E+01   2.17109741E+02   2.17109741E+02   2.92827282E+01  -2.49278908E+01   2.42037628E+02  -7.38215256E+01   2.04145157E+02  -2.43382797E+01   2.16520126E+02   2.92827282E+01  -1.19315577E+01
             2940                1   2.20000000E+02   1.87610672E+02   1.87610672E+02  -4.48453293E+01  -1.73481369E+01   1.87610672E+02   1.87610672E+02  -1.73481369E+01  -4.48453293E+01   2.32456009E+02  -4.18057365E+01   2.16083221E+02  -4.48451309E+01   1.87610489E+02  -1.73481369E+01   2.10253388E-01
             2940                2   2.20000000E+02   1.87921860E+02   1.87921860E+02  -4.22473907E+01  -2.02572460E+01   1.87921860E+02   1.87921860E+02  -2.02572460E+01  -4.22473907E+01   2.30169250E+02  -4.18057404E+01   2.17506790E+02  -4.20882950E+01   1.87762756E+02  -2.02572460E+01  -6.04943466E+00
             2940                3   2.20000000E+02   1.87279480E+02   1.87279480E+02  -4.70982552E+01  -1.47640095E+01   1.87279480E+02   1.87279480E+02  -1.47640095E+01  -4.70982552E+01   2.34377731E+02  -4.18057404E+01   2.14556320E+02  -4.69472351E+01   1.87128464E+02  -1.47640095E+01  -5.94750738E+00
             2940                4   2.20000000E+02   1.87610458E+02   1.87610458E+02  -4.48469925E+01  -1.73462429E+01   1.87610458E+02   1.87610458E+02  -1.73462429E+01  -4.48469925E+01   2.32457443E+02  -4.18057365E+01   2.16082184E+02  -4.42064323E+01   1.86969894E+02  -1.73462429E+01  -1.21857271E+01
             2941                1   2.20000000E+02   2.36101349E+02   2.36101349E+02  -6.91322470E+00   5.05008430E+01   2.36101349E+02   2.36101349E+02   5.05008430E+01  -6.91322470E+00   2.43014572E+02  -9.32296524E+01   2.02087906E+02  -6.64742708E+00   2.35835556E+02   5.05008430E+01   8.03251076E+00
             2941                2   2.20000000E+02   2.36709946E+02   2.36709946E+02  -4.84271574E+00   4.78217316E+01   2.36709946E+02   2.36709946E+02   4.78217316E+01  -4.84271574E+00   2.41552658E+02  -9.32296524E+01   2.05085419E+02  -4.84271669E+00   2.36709946E+02   4.78217316E+01  -2.79334076E-02
             2941                3   2.20000000E+02   2.35411804E+02   2.35411804E+02  -9.03052711E+00   5.33076973E+01   2.35411804E+02   2.35411804E+02   5.33076973E+01  -9.03052711E+00   2.44442322E+02  -9.32296524E+01   1.98624329E+02  -9.02260971E+00   2.35403885E+02   5.33076973E+01   1.39082634E+00
             2941                4   2.20000000E+02   2.35985367E+02   2.35985367E+02  -7.28476095E+00   5.09883575E+01   2.35985367E+02   2.35985367E+02   5.09883575E+01  -7.28476095E+00   2.43270126E+02  -9.32296524E+01   2.01510483E+02  -7.10834980E+00   2.35808960E+02   5.09883575E+01  -6.54856443E+00
             2942                1   2.03302414E+02   1.62271790E+02   1.62271790E+02  -4.15059738E+01  -4.05518990E+01   1.62271790E+02   1.62271790E+02  -4.05518990E+01  -4.15059738E+01   2.03777771E+02  -2.67379761E+01   2.03297363E+02  -4.15056343E+01   1.62271454E+02  -4.05518990E+01   2.64090121E-01
             2942                2   2.04137070E+02   1.62803513E+02   1.62803513E+02  -4.35918388E+01  -3.89977379E+01   1.62803513E+02   1.62803513E+02  -3.89977379E+01  -4.35918388E+01   2.06395355E+02  -2.67379761E+01   2.04020721E+02  -4.35753059E+01   1.62786972E+02  -3.89977379E+01   1.84747326E+00
             2942                3   2.02873978E+02   1.61986938E+02   1.61986938E+02  -4.06189423E+01  -4.11540756E+01   1.61986938E+02   1.61986938E+02  -4.06189423E+01  -4.11540756E+01   2.03141006E+02  -2.67379742E+01   2.02872391E+02  -4.05426788E+01   1.61910675E+02  -4.11540756E+01   3.93006301E+00
             2942                4   2.03731949E+02   1.62546783E+02   1.62546783E+02  -4.27615547E+01  -3.95713081E+01   1.62546783E+02   1.62546783E+02  -3.95713081E+01  -4.27615547E+01   2.05308350E+02  -2.67379761E+01   2.03675735E+02  -4.26153755E+01   1.62400604E+02  -3.95713081E+01   5.47643328E+00
             2943                1   2.19728806E+02   2.21946091E+02   2.21946091E+02  -1.63135681E+01   2.72847996E+01   2.21946091E+02   2.21946091E+02   2.72847996E+01  -1.63135681E+01   2.38259659E+02  -7.76391068E+01   2.09663239E+02  -1.58760834E+01   2.21508606E+02   2.72847996E+01   1.02001810E+01
             2943                2   2.19424057E+02   2.22265457E+02   2.22265457E+02  -1.36842585E+01   2.43361320E+01   2.22265457E+02   2.22265457E+02   2.43361320E+01  -1.36842585E+01   2.35949707E+02  -7.76391068E+01   2.11822220E+02  -1.36610985E+01   2.22242294E+02   2.43361320E+01   2.33732271E+00
             2943                3   2.19773514E+02   2.21456161E+02   2.21456161E+02  -1.85104141E+01   2.99715805E+01   2.21456161E+02   2.21456161E+02   2.99715805E+01  -1.85104141E+01   2.39966568E+02  -7.76391068E+01   2.07222992E+02  -1.84859791E+01   2.21431717E+02   2.99715805E+01   2.42145872E+00
             2943                4   2.19668045E+02   2.21894775E+02   2.21894775E+02  -1.63384819E+01   2.73610344E+01   2.21894775E+02   2.21894775E+02   2.73610344E+01  -1.63384819E+01   2.38233261E+02  -7.76391068E+01   2.09551056E+02  -1.62154026E+01   2.21771698E+02   2.73610344E+01  -5.41342354E+00
             2944                1   2.20000000E+02   2.42369293E+02   2.42369293E+02  -1.79680675E-01   5.56922150E+01   2.42369293E+02   2.42369293E+02   5.56922150E+01  -1.79680675E-01   2.42548965E+02  -9.92939453E+01   2.03096924E+02  -1.77688733E-01   2.42367294E+02   5.56922150E+01  -6.95105195E-01
             2944                2   2.20000000E+02   2.41629639E+02   2.41629639E+02  -2.51287889E+00   5.87650604E+01   2.41629639E+02   2.41629639E+02   5.87650604E+01  -2.51287889E+00   2.44142517E+02  -9.92939453E+01   1.99402069E+02  -2.30535316E+00   2.41422119E+02   5.87650604E+01  -7.11487246E+00
             2944                3   2.20000000E+02   2.41758163E+02   2.41758163E+02  -2.12576938E+00   5.82494240E+01   2.41758163E+02   2.41758163E+02   5.82494240E+01  -2.12576938E+00   2.43883942E+02  -9.92939453E+01   2.00050201E+02  -1.90535235E+00   2.41537750E+02   5.82494240E+01   7.32859135E+00
             2944                4   2.20000000E+02   2.41056686E+02   2.41056686E+02  -4.15777016E+00   6.09829102E+01   2.41056686E+02   2.41056686E+02   6.09829102E+01  -4.15777016E+00   2.45214447E+02  -9.92939453E+01   1.96480331E+02  -4.15516853E+00   2.41054077E+02   6.09829102E+01   7.99003780E-01
             2945                1   1.99817001E+02   1.60308472E+02   1.60308472E+02  -3.87467957E+01  -4.02616539E+01   1.60308472E+02   1.60308472E+02  -3.87467957E+01  -4.02616539E+01   2.00570129E+02  -2.71000061E+01   1.99804092E+02  -3.87467766E+01   1.60308456E+02  -4.02616539E+01  -5.34709580E-02
             2945                2   2.00390457E+02   1.60690186E+02   1.60690186E+02  -4.05282669E+01  -3.88618851E+01   1.60690186E+02   1.60690186E+02  -3.88618851E+01  -4.05282669E+01   2.01218445E+02  -2.71000080E+01   2.00374863E+02  -4.05276527E+01   1.60689560E+02  -3.88618851E+01   3.53123486E-01
             2945                3   1.99668381E+02   1.60207901E+02   1.60207901E+02  -3.85207710E+01  -4.03871002E+01   1.60207901E+02   1.60207901E+02  -3.85207710E+01  -4.03871002E+01   2.00595001E+02  -2.71000118E+01   1.99648758E+02  -3.84711304E+01   1.60158264E+02  -4.03871002E+01   3.14048600E+00
             2945                4   2.00303207E+02   1.60633270E+02   1.60633270E+02  -4.03328629E+01  -3.90003700E+01   1.60633270E+02   1.60633270E+02  -3.90003700E+01  -4.03328629E+01   2.00966125E+02  -2.71000118E+01   2.00293228E+02  -4.02713814E+01   1.60571777E+02  -3.90003700E+01   3.51465487E+00
             2946                1   2.20000000E+02   2.29274445E+02   2.29274445E+02  -1.15225124E+01   3.87859230E+01   2.29274445E+02   2.29274445E+02   3.87859230E+01  -1.15225124E+01   2.40796967E+02  -8.55126266E+01   2.06454224E+02  -1.12245388E+01   2.28976471E+02   3.87859230E+01   8.46543694E+00
             2946                2   2.19954681E+02   2.29782181E+02   2.29782181E+02  -9.34672737E+00   3.61024055E+01   2.29782181E+02   2.29782181E+02   3.61024055E+01  -9.34672737E+00   2.39128906E+02  -8.55126266E+01   2.08994614E+02  -9.34363461E+00   2.29779083E+02   3.61024055E+01   8.60882163E-01
             2946                3   2.20000000E+02   2.28671799E+02   2.28671799E+02  -1.36789474E+01   4.15450172E+01   2.28671799E+02   2.28671799E+02   4.15450172E+01  -1.36789474E+01   2.42350739E+02  -8.55126266E+01   2.03510483E+02  -1.36633663E+01   2.28656204E+02   4.15450172E+01   1.94352341E+00
             2946                4   2.20000000E+02   2.29189270E+02   2.29189270E+02  -1.18423157E+01   3.91908875E+01   2.29189270E+02   2.29189270E+02   3.91908875E+01  -1.18423157E+01   2.41031586E+02  -8.55126114E+01   2.06041275E+02  -1.17139206E+01   2.29060883E+02   3.91908875E+01  -5.56137037E+00
             2947                1   2.20000000E+02   2.10668457E+02   2.10668457E+02  -2.69344578E+01   1.40297251E+01   2.10668457E+02   2.10668457E+02   1.40297251E+01  -2.69344578E+01   2.37602905E+02  -6.59212418E+01   2.11162262E+02  -2.69038525E+01   2.10637848E+02   1.40297251E+01  -2.69643092E+00
             2947                2   2.20000000E+02   2.10064072E+02   2.10064072E+02  -2.96121979E+01   1.73118515E+01   2.10064072E+02   2.10064072E+02   1.73118515E+01  -2.96121979E+01   2.39676270E+02  -6.59212418E+01   2.08289536E+02  -2.83089008E+01   2.08760773E+02   1.73118515E+01  -1.76258678E+01
             2947                3   2.20000000E+02   2.09904480E+02   2.09904480E+02  -3.02561569E+01   1.81153965E+01   2.09904480E+02   2.09904480E+02   1.81153965E+01  -3.02561569E+01   2.40160645E+02  -6.59212418E+01   2.07523163E+02  -2.99590034E+01   2.09607330E+02   1.81153965E+01   8.44257736E+00
             2947                4   2.20000000E+02   2.09401581E+02   2.09401581E+02  -3.21510277E+01   2.05131779E+01   2.09401581E+02   2.09401581E+02   2.05131779E+01  -3.21510277E+01   2.41552597E+02  -6.59212418E+01   2.05085571E+02  -3.19877605E+01   2.09238312E+02   2.05131779E+01  -6.27774143E+00
             2948                1   1.97675873E+02   1.62682281E+02   1.62682281E+02  -3.43203278E+01  -3.56600304E+01   1.62682281E+02   1.62682281E+02  -3.43203278E+01  -3.56600304E+01   1.98342316E+02  -3.09006405E+01   1.97665649E+02  -3.43203125E+01   1.62682266E+02  -3.56600304E+01   5.55539466E-02
             2948                2   1.98416901E+02   1.63175858E+02   1.63175858E+02  -3.59718056E+01  -3.45021248E+01   1.63175858E+02   1.63175858E+02  -3.45021248E+01  -3.59718056E+01   1.99147659E+02  -3.09006405E+01   1.98404648E+02  -3.59710159E+01   1.63175064E+02  -3.45021248E+01   3.95589918E-01
             2948                3   1.97563049E+02   1.62605957E+02   1.62605957E+02  -3.41350479E+01  -3.57689972E+01   1.62605957E+02   1.62605957E+02  -3.41350479E+01  -3.57689972E+01   1.98374954E+02  -3.09006405E+01   1.97547852E+02  -3.40930862E+01   1.62564011E+02  -3.57689972E+01   2.87265372E+00
             2948                4   1.98308670E+02   1.63104645E+02   1.63104645E+02  -3.57954521E+01  -3.46072731E+01   1.63104645E+02   1.63104645E+02  -3.46072731E+01  -3.57954521E+01   1.98900085E+02  -3.09006405E+01   1.98300659E+02  -3.57442741E+01   1.63053467E+02  -3.46072731E+01   3.18993378E+00
             2949                1   2.20000000E+02   2.40689453E+02   2.40689453E+02  -1.95449746E+00   5.42296410E+01   2.40689453E+02   2.40689453E+02   5.42296410E+01  -1.95449746E+00   2.42643951E+02  -9.76548691E+01   2.02895477E+02  -1.75872338E+00   2.40493683E+02   5.42296410E+01   6.88940811E+00
             2949                2   2.20000000E+02   2.41228195E+02   2.41228195E+02  -8.09562132E-02   5.18173599E+01   2.41228195E+02   2.41228195E+02   5.18173599E+01  -8.09562132E-02   2.41309143E+02  -9.76548691E+01   2.05538925E+02  -7.98586905E-02   2.41227097E+02   5.18173599E+01  -5.13262570E-01
             2949                3   2.20000000E+02   2.40052368E+02   2.40052368E+02  -3.96670604E+00   5.68789444E+01   2.40052368E+02   2.40052368E+02   5.68789444E+01  -3.96670604E+00   2.44019073E+02  -9.76548691E+01   1.99714066E+02  -3.96301365E+00   2.40048676E+02   5.68789444E+01   9.49335694E-01
             2949                4   2.20000000E+02   2.40566132E+02   2.40566132E+02  -2.35971880E+00   5.47582016E+01   2.40566132E+02   2.40566132E+02   5.47582016E+01  -2.35971880E+00   2.42925842E+02  -9.76548691E+01   2.02284393E+02  -2.19322252E+00   2.40399628E+02   5.47582016E+01  -6.35756445E+00
             2950                1   2.19772125E+02   2.28551712E+02   2.28551712E+02  -1.08330746E+01   3.59142799E+01   2.28551712E+02   2.28551712E+02   3.59142799E+01  -1.08330746E+01   2.39384796E+02  -8.45443039E+01   2.08140305E+02  -1.05395679E+01   2.28258209E+02   3.59142799E+01   8.37707138E+00
             2950                2   2.19662064E+02   2.28945648E+02   2.28945648E+02  -8.75127411E+00   3.34385300E+01   2.28945648E+02   2.28945648E+02   3.34385300E+01  -8.75127411E+00   2.37696930E+02  -8.45443039E+01   2.10254532E+02  -8.74204922E+00   2.28936432E+02   3.34385300E+01   1.48064411E+00
             2950                3   2.19820328E+02   2.28048462E+02   2.28048462E+02  -1.29354019E+01   3.85198669E+01   2.28048462E+02   2.28048462E+02   3.85198669E+01  -1.29354019E+01   2.40983856E+02  -8.45443039E+01   2.05604980E+02  -1.29079809E+01   2.28021027E+02   3.85198669E+01   2.57079053E+00
             2950                4   2.19786285E+02   2.28477463E+02   2.28477463E+02  -1.11801767E+01   3.63356247E+01   2.28477463E+02   2.28477463E+02   3.63356247E+01  -1.11801767E+01   2.39657639E+02  -8.45443039E+01   2.07753159E+02  -1.11080599E+01   2.28405350E+02   3.63356247E+01  -4.15662336E+00
             2951                1   2.04141647E+02   1.57414536E+02   1.57414536E+02  -4.63415375E+01  -4.71105270E+01   1.57414536E+02   1.57414536E+02  -4.63415375E+01  -4.71105270E+01   2.04525055E+02  -2.13208237E+01   2.04138397E+02  -4.63399849E+01   1.57412979E+02  -4.71105270E+01  -5.62864184E-01
             2951                2   2.04758575E+02   1.57813828E+02   1.57813828E+02  -4.85391350E+01  -4.53122215E+01   1.57813828E+02   1.57813828E+02  -4.53122215E+01  -4.85391350E+01   2.06352951E+02  -2.13208218E+01   2.04701355E+02  -4.85377960E+01   1.57812485E+02  -4.53122215E+01   5.25548816E-01
             2951                3   2.03862396E+02   1.57225204E+02   1.57225204E+02  -4.57411270E+01  -4.75216064E+01   1.57225204E+02   1.57225204E+02  -4.57411270E+01  -4.75216064E+01   2.04746811E+02  -2.13208237E+01   2.03844894E+02  -4.56817703E+01   1.57165848E+02  -4.75216064E+01   3.47030830E+00
             2951                4   2.04514420E+02   1.57657410E+02   1.57657410E+02  -4.79874306E+01  -4.57075157E+01   1.57657410E+02   1.57657410E+02  -4.57075157E+01  -4.79874306E+01   2.05644852E+02  -2.13208218E+01   2.04485825E+02  -4.78886986E+01   1.57558685E+02  -4.57075157E+01   4.50480413E+00
             2952                1   1.96987991E+02   1.65571976E+02   1.65571976E+02  -3.20593834E+01  -3.07662868E+01   1.65571976E+02   1.65571976E+02  -3.07662868E+01  -3.20593834E+01   1.97631348E+02  -3.42487679E+01   1.96978439E+02  -3.20583305E+01   1.65570923E+02  -3.07662868E+01   4.55255061E-01
             2952                2   1.96893692E+02   1.65509857E+02   1.65509857E+02  -3.19010372E+01  -3.08625221E+01   1.65509857E+02   1.65509857E+02  -3.08625221E+01  -3.19010372E+01   1.97410904E+02  -3.42487679E+01   1.96887527E+02  -3.18580914E+01   1.65466919E+02  -3.08625221E+01   2.91131544E+00
             2952                3   1.96400818E+02   1.65180893E+02   1.65180893E+02  -3.06296654E+01  -3.18049221E+01   1.65180893E+02   1.65180893E+02  -3.06296654E+01  -3.18049221E+01   1.96985809E+02  -3.42487679E+01   1.96392914E+02  -3.06295452E+01   1.65180771E+02  -3.18049221E+01   1.52397230E-01
             2952                4   1.96302994E+02   1.65114792E+02   1.65114792E+02  -3.04642181E+01  -3.19042664E+01   1.65114792E+02   1.65114792E+02  -3.04642181E+01  -3.19042664E+01   1.97019058E+02  -3.42487679E+01   1.96291107E+02  -3.04289360E+01   1.65079514E+02  -3.19042664E+01   2.62646222E+00
             2953                1   2.19910339E+02   2.39421799E+02   2.39421799E+02  -1.81990945E+00   5.01541290E+01   2.39421799E+02   2.39421799E+02   5.01541290E+01  -1.81990945E+00   2.41241699E+02  -9.59186707E+01   2.05398254E+02  -1.64407563E+00   2.39245956E+02   5.01541290E+01   6.51061153E+00
             2953                2   2.19902466E+02   2.39885345E+02   2.39885345E+02  -2.77354121E-02   4.78984146E+01   2.39885345E+02   2.39885345E+02   4.78984146E+01  -2.77354121E-02   2.39913071E+02  -9.59186707E+01   2.07658463E+02  -2.73357201E-02   2.39884933E+02   4.78984146E+01  -3.12450856E-01
             2953                3   2.20001007E+02   2.38907166E+02   2.38907166E+02  -3.84566116E+00   5.26945000E+01   2.38907166E+02   2.38907166E+02   5.26945000E+01  -3.84566116E+00   2.42752823E+02  -9.59186707E+01   2.02665085E+02  -3.84022188E+00   2.38901733E+02   5.26945000E+01   1.14871657E+00
             2953                4   2.19987747E+02   2.39352737E+02   2.39352737E+02  -2.28491282E+00   5.06881943E+01   2.39352737E+02   2.39352737E+02   5.06881943E+01  -2.28491282E+00   2.41637650E+02  -9.59186707E+01   2.04887222E+02  -2.15545726E+00   2.39223282E+02   5.06881943E+01  -5.59149075E+00
             2954                1   2.19512527E+02   2.33114899E+02   2.33114899E+02  -5.54568148E+00   3.98481827E+01   2.33114899E+02   2.33114899E+02   3.98481827E+01  -5.54568148E+00   2.38660583E+02  -8.91391296E+01   2.08556427E+02  -5.31092930E+00   2.32880142E+02   3.98481827E+01   7.48138857E+00
             2954                2   2.19465805E+02   2.33490433E+02   2.33490433E+02  -3.70305324E+00   3.76300240E+01   2.33490433E+02   2.33490433E+02   3.76300240E+01  -3.70305324E+00   2.37193497E+02  -8.91391373E+01   2.10439819E+02  -3.69808030E+00   2.33485458E+02   3.76300240E+01   1.08669770E+00
             2954                3   2.19613617E+02   2.32682129E+02   2.32682129E+02  -7.59775782E+00   4.23330421E+01   2.32682129E+02   2.32682129E+02   4.23330421E+01  -7.59775782E+00   2.40279877E+02  -8.91391373E+01   2.06254486E+02  -7.57223988E+00   2.32656601E+02   4.23330421E+01   2.47627473E+00
             2954                4   2.19572723E+02   2.33059967E+02   2.33059967E+02  -5.96914530E+00   4.03265953E+01   2.33059967E+02   2.33059967E+02   4.03265953E+01  -5.96914530E+00   2.39029114E+02  -8.91391373E+01   2.08162445E+02  -5.90595245E+00   2.32996765E+02   4.03265953E+01  -3.88622856E+00
             2955                1   1.96053162E+02   1.68089249E+02   1.68089249E+02  -2.85283546E+01  -2.73945618E+01   1.68089249E+02   1.68089249E+02  -2.73945618E+01  -2.85283546E+01   1.96617599E+02  -3.73887787E+01   1.96045792E+02  -2.85271397E+01   1.68088043E+02  -2.73945618E+01   4.87469494E-01
             2955                2   1.95881775E+02   1.67975525E+02   1.67975525E+02  -2.83711014E+01  -2.74380722E+01   1.67975525E+02   1.67975525E+02  -2.74380722E+01  -2.83711014E+01   1.96346619E+02  -3.73887825E+01   1.95876770E+02  -2.83353233E+01   1.67939743E+02  -2.74380722E+01   2.65007854E+00
             2955                3   1.95330078E+02   1.67607452E+02   1.67607452E+02  -2.72011833E+01  -2.82399254E+01   1.67607452E+02   1.67607452E+02  -2.72011833E+01  -2.82399254E+01   1.95847366E+02  -3.73887787E+01   1.95323868E+02  -2.72008629E+01   1.67607132E+02  -2.82399254E+01   2.48163372E-01
             2955                4   1.95154816E+02   1.67490005E+02   1.67490005E+02  -2.70390797E+01  -2.82845879E+01   1.67490005E+02   1.67490005E+02  -2.70390797E+01  -2.82845879E+01   1.95774597E+02  -3.73887787E+01   1.95145889E+02  -2.70088940E+01   1.67459824E+02  -2.82845879E+01   2.42292905E+00
             2956                1   2.19526047E+02   2.38308197E+02   2.38308197E+02   1.64180741E-01   4.40214653E+01   2.38308197E+02   2.38308197E+02   4.40214653E+01   1.64180741E-01   2.38144028E+02  -9.41646118E+01   2.09326187E+02   1.64279968E-01   2.38308105E+02   4.40214653E+01  -1.50709614E-01
             2956                2   2.19656021E+02   2.37875854E+02   2.37875854E+02  -2.04736638E+00   4.66653595E+01   2.37875854E+02   2.37875854E+02   4.66653595E+01  -2.04736638E+00   2.39923218E+02  -9.41646118E+01   2.06972916E+02  -1.94565570E+00   2.37774139E+02   4.66653595E+01  -4.93904781E+00
             2956                3   2.19551346E+02   2.37921295E+02   2.37921295E+02  -1.54874313E+00   4.61212921E+01   2.37921295E+02   2.37921295E+02   4.61212921E+01  -1.54874313E+00   2.39470047E+02  -9.41646118E+01   2.07422485E+02  -1.39014137E+00   2.37762695E+02   4.61212921E+01   6.16087008E+00
             2956                4   2.19675552E+02   2.37491516E+02   2.37491516E+02  -3.55326486E+00   4.85555992E+01   2.37491516E+02   2.37491516E+02   4.85555992E+01  -3.55326486E+00   2.41044785E+02  -9.41646118E+01   2.05066833E+02  -3.54624844E+00   2.37484497E+02   4.85555992E+01   1.30038536E+00
             2957                1   2.20000000E+02   2.15256805E+02   2.15256805E+02  -2.45018826E+01   2.26669254E+01   2.15256805E+02   2.15256805E+02   2.26669254E+01  -2.45018826E+01   2.39758698E+02  -7.11406174E+01   2.08161865E+02  -2.38109169E+01   2.14565842E+02   2.26669254E+01   1.28525686E+01
             2957                2   2.20000000E+02   2.16023773E+02   2.16023773E+02  -2.10490170E+01   1.84471016E+01   2.16023773E+02   2.16023773E+02   1.84471016E+01  -2.10490170E+01   2.37072800E+02  -7.11406174E+01   2.11802139E+02  -2.10280819E+01   2.16002838E+02   1.84471016E+01   2.22801375E+00
             2957                3   2.20000000E+02   2.14660782E+02   2.14660782E+02  -2.67882309E+01   2.55492897E+01   2.14660782E+02   2.14660782E+02   2.55492897E+01  -2.67882309E+01   2.41449020E+02  -7.11406174E+01   2.05279953E+02  -2.67878036E+01   2.14660370E+02   2.55492897E+01  -3.18164527E-01
             2957                4   2.20000000E+02   2.15386475E+02   2.15386475E+02  -2.39646072E+01   2.19999962E+01   2.15386475E+02   2.15386475E+02   2.19999962E+01  -2.39646072E+01   2.39351074E+02  -7.11406174E+01   2.08782471E+02  -2.34170628E+01   2.14838928E+02   2.19999962E+01  -1.14347811E+01
             2958                1   2.19254822E+02   2.31985962E+02   2.31985962E+02  -5.02825117E+00   3.64018326E+01   2.31985962E+02   2.31985962E+02   3.64018326E+01  -5.02825117E+00   2.37014221E+02  -8.77865219E+01   2.10175797E+02  -4.80699492E+00   2.31764709E+02   3.64018326E+01   7.23828316E+00
             2958                2   2.19088501E+02   2.32216797E+02   2.32216797E+02  -3.26590610E+00   3.44086342E+01   2.32216797E+02   2.32216797E+02   3.44086342E+01  -3.26590610E+00   2.35482712E+02  -8.77865067E+01   2.11615906E+02  -3.25777674E+00   2.32208679E+02   3.44086342E+01   1.38311684E+00
             2958                3   2.19387894E+02   2.31640198E+02   2.31640198E+02  -7.01540089E+00   3.87347336E+01   2.31640198E+02   2.31640198E+02   3.87347336E+01  -7.01540089E+00   2.38655609E+02  -8.77865067E+01   2.08245468E+02  -6.98408365E+00   2.31608887E+02   3.87347336E+01   2.73362136E+00
             2958                4   2.19252609E+02   2.31892792E+02   2.31892792E+02  -5.45481539E+00   3.69215698E+01   2.31892792E+02   2.31892792E+02   3.69215698E+01  -5.45481539E+00   2.37347610E+02  -8.77865219E+01   2.09739975E+02  -5.41560030E+00   2.31853577E+02   3.69215698E+01  -3.05044723E+00
             2959                1   1.94948898E+02   1.71140930E+02   1.71140930E+02  -2.37580452E+01  -2.38578510E+01   1.71140930E+02   1.71140930E+02  -2.37580452E+01  -2.38578510E+01   1.94998779E+02  -4.11750145E+01   1.94948837E+02  -2.37548790E+01   1.71137772E+02  -2.38578510E+01   7.85138369E-01
             2959                2   1.95558273E+02   1.71543427E+02   1.71543427E+02  -2.48676434E+01  -2.31507454E+01   1.71543427E+02   1.71543427E+02  -2.31507454E+01  -2.48676434E+01   1.96411072E+02  -4.11750145E+01   1.95541306E+02  -2.48569450E+01   1.71532730E+02  -2.31507454E+01   1.44930398E+00
             2959                3   1.94708923E+02   1.70980286E+02   1.70980286E+02  -2.33631248E+01  -2.40921211E+01   1.70980286E+02   1.70980286E+02  -2.33631248E+01  -2.40921211E+01   1.95072403E+02  -4.11750145E+01   1.94705856E+02  -2.33283386E+01   1.70945496E+02  -2.40921211E+01   2.59983611E+00
             2959                4   1.95324982E+02   1.71390106E+02   1.71390106E+02  -2.44850597E+01  -2.33800030E+01   1.71390106E+02   1.71390106E+02  -2.33800030E+01  -2.44850597E+01   1.95875168E+02  -4.11750145E+01   1.95317947E+02  -2.44309082E+01   1.71335953E+02  -2.33800030E+01   3.25638437E+00
             2960                1   2.19352066E+02   2.27514267E+02   2.27514267E+02  -1.00727119E+01   3.26967850E+01   2.27514267E+02   2.27514267E+02   3.26967850E+01  -1.00727119E+01   2.37586975E+02  -8.33794479E+01   2.09660767E+02  -9.76855278E+00   2.27210114E+02   3.26967850E+01   8.49536419E+00
             2960                2   2.19254028E+02   2.27860550E+02   2.27860550E+02  -8.04484940E+00   3.03226376E+01   2.27860550E+02   2.27860550E+02   3.03226376E+01  -8.04484940E+00   2.35905396E+02  -8.33794479E+01   2.11502670E+02  -8.02922630E+00   2.27844925E+02   3.03226376E+01   1.92006898E+00
             2960                3   2.19462692E+02   2.27099548E+02   2.27099548E+02  -1.22087507E+01   3.52475510E+01   2.27099548E+02   2.27099548E+02   3.52475510E+01  -1.22087507E+01   2.39308289E+02  -8.33794479E+01   2.07441757E+02  -1.21652889E+01   2.27056076E+02   3.52475510E+01   3.22492623E+00
             2960                4   2.19372375E+02   2.27458542E+02   2.27458542E+02  -1.03930969E+01   3.30728912E+01   2.27458542E+02   2.27458542E+02   3.30728912E+01  -1.03930969E+01   2.37851639E+02  -8.33794479E+01   2.09352600E+02  -1.03438673E+01   2.27409317E+02   3.30728912E+01  -3.42136884E+00
             2961                1   1.94394043E+02   1.70123566E+02   1.70123566E+02  -2.38471336E+01  -2.46910725E+01   1.70123566E+02   1.70123566E+02  -2.38471336E+01  -2.46910725E+01   1.94814636E+02  -4.05284538E+01   1.94389908E+02  -2.38467922E+01   1.70123215E+02  -2.46910725E+01   2.59727091E-01
             2961                2   1.94948181E+02   1.70492661E+02   1.70492661E+02  -2.49454231E+01  -2.39619007E+01   1.70492661E+02   1.70492661E+02  -2.39619007E+01  -2.49454231E+01   1.95438080E+02  -4.05284462E+01   1.94942612E+02  -2.49435825E+01   1.70490829E+02  -2.39619007E+01   5.98684430E-01
             2961                3   1.94420578E+02   1.70140442E+02   1.70140442E+02  -2.36974525E+01  -2.48576374E+01   1.70140442E+02   1.70140442E+02  -2.36974525E+01  -2.48576374E+01   1.94998077E+02  -4.05284538E+01   1.94412796E+02  -2.36749229E+01   1.70117920E+02  -2.48576374E+01   2.08942890E+00
             2961                4   1.94976562E+02   1.70512238E+02   1.70512238E+02  -2.48020668E+01  -2.41248341E+01   1.70512238E+02   1.70512238E+02  -2.41248341E+01  -2.48020668E+01   1.95314301E+02  -4.05284462E+01   1.94973923E+02  -2.47720718E+01   1.70482254E+02  -2.41248341E+01   2.41992497E+00
             2962                1   2.19212708E+02   2.36604156E+02   2.36604156E+02   1.91772223E-01   4.00647278E+01   2.36604156E+02   2.36604156E+02   4.00647278E+01   1.91772223E-01   2.36412384E+02  -9.22868881E+01   2.10821304E+02   1.91765919E-01   2.36604156E+02   4.00647278E+01  -7.57294241E-03
             2962                2   2.19360031E+02   2.36258347E+02   2.36258347E+02  -1.91975808E+00   4.25220566E+01   2.36258347E+02   2.36258347E+02   4.25220566E+01  -1.91975808E+00   2.38178116E+02  -9.22868881E+01   2.08867752E+02  -1.84202921E+00   2.36180618E+02   4.25220566E+01  -4.30210209E+00
             2962                3   2.19305084E+02   2.36325073E+02   2.36325073E+02  -1.44217551E+00   4.19777412E+01   2.36325073E+02   2.36325073E+02   4.19777412E+01  -1.44217551E+00   2.37767258E+02  -9.22868881E+01   2.09303986E+02  -1.30427301E+00   2.36187180E+02   4.19777412E+01   5.72442913E+00
             2962                4   2.19444931E+02   2.35974548E+02   2.35974548E+02  -3.37744594E+00   4.42635269E+01   2.35974548E+02   2.35974548E+02   4.42635269E+01  -3.37744594E+00   2.39352005E+02  -9.22868729E+01   2.07325134E+02  -3.36960626E+00   2.35966721E+02   4.42635269E+01   1.36916590E+00
             2963                1   2.20000000E+02   1.85126526E+02   1.85126526E+02  -4.80317421E+01  -1.87905197E+01   1.85126526E+02   1.85126526E+02  -1.87905197E+01  -4.80317421E+01   2.33158279E+02  -3.94347572E+01   2.15562897E+02  -4.79525185E+01   1.85047302E+02  -1.87905197E+01   4.29724550E+00
             2963                2   2.20000000E+02   1.85507599E+02   1.85507599E+02  -4.50198746E+01  -2.21834583E+01   1.85507599E+02   1.85507599E+02  -2.21834583E+01  -4.50198746E+01   2.30527481E+02  -3.94347572E+01   2.17309448E+02  -4.49814186E+01   1.85469147E+02  -2.21834583E+01  -2.97731638E+00
             2963                3   2.20000000E+02   1.84722595E+02   1.84722595E+02  -5.05849304E+01  -1.58333979E+01   1.84722595E+02   1.84722595E+02  -1.58333979E+01  -5.05849304E+01   2.35307526E+02  -3.94347572E+01   2.13693756E+02  -5.05545120E+01   1.84692184E+02  -1.58333979E+01  -2.67481041E+00
             2963                4   2.20000000E+02   1.85127106E+02   1.85127106E+02  -4.80278168E+01  -1.87950096E+01   1.85127106E+02   1.85127106E+02  -1.87950096E+01  -4.80278168E+01   2.33154922E+02  -3.94347572E+01   2.15565521E+02  -4.76106720E+01   1.84709961E+02  -1.87950096E+01  -9.85319996E+00
             2964                1   1.93628479E+02   1.72520187E+02   1.72520187E+02  -2.07630196E+01  -2.14517174E+01   1.72520187E+02   1.72520187E+02  -2.07630196E+01  -2.14517174E+01   1.93971909E+02  -4.34351501E+01   1.93625732E+02  -2.07625275E+01   1.72519699E+02  -2.14517174E+01   3.08430046E-01
             2964                2   1.94085678E+02   1.72824783E+02   1.72824783E+02  -2.16575775E+01  -2.08617458E+01   1.72824783E+02   1.72824783E+02  -2.08617458E+01  -2.16575775E+01   1.94482361E+02  -4.34351540E+01   1.94081985E+02  -2.16559372E+01   1.72823135E+02  -2.08617458E+01   5.66156805E-01
             2964                3   1.93466782E+02   1.72411896E+02   1.72411896E+02  -2.05888348E+01  -2.15176067E+01   1.72411896E+02   1.72411896E+02  -2.05888348E+01  -2.15176067E+01   1.93929504E+02  -4.34351501E+01   1.93461777E+02  -2.05721664E+01   1.72395233E+02  -2.15176067E+01   1.79309690E+00
             2964                4   1.93926620E+02   1.72719147E+02   1.72719147E+02  -2.14872952E+01  -2.09264107E+01   1.72719147E+02   1.72719147E+02  -2.09264107E+01  -2.14872952E+01   1.94206451E+02  -4.34351501E+01   1.93924789E+02  -2.14657593E+01   1.72697617E+02  -2.09264107E+01   2.04502463E+00
             2965                1   2.20000000E+02   2.37853867E+02   2.37853867E+02  -7.77294827E+00   5.89102058E+01   2.37853867E+02   2.37853867E+02   5.89102058E+01  -7.77294827E+00   2.45626816E+02  -9.63303757E+01   1.95243942E+02  -7.58401012E+00   2.37664932E+02   5.89102058E+01   6.80965614E+00
             2965                2   2.20000000E+02   2.38513504E+02   2.38513504E+02  -5.92690182E+00   5.64045105E+01   2.38513504E+02   2.38513504E+02   5.64045105E+01  -5.92690182E+00   2.44440414E+02  -9.63303757E+01   1.98629379E+02  -5.91965532E+00   2.38506271E+02   5.64045105E+01  -1.33023131E+00
             2965                3   2.20000000E+02   2.37143753E+02   2.37143753E+02  -9.60133553E+00   6.14487114E+01   2.37143753E+02   2.37143753E+02   6.14487114E+01  -9.60133553E+00   2.46745087E+02  -9.63303757E+01   1.91513901E+02  -9.60134029E+00   2.37143753E+02   6.14487114E+01  -2.09138971E-02
             2965                4   2.20000000E+02   2.37745331E+02   2.37745331E+02  -8.06225777E+00   5.93080330E+01   2.37745331E+02   2.37745331E+02   5.93080330E+01  -8.06225777E+00   2.45807587E+02  -9.63303757E+01   1.94679810E+02  -7.79842520E+00   2.37481506E+02   5.93080330E+01  -8.04866314E+00
             2966                1   2.18791687E+02   2.34807068E+02   2.34807068E+02   2.08721101E-01   3.63136101E+01   2.34807068E+02   2.34807068E+02   3.63136101E+01   2.08721101E-01   2.34598358E+02  -9.04431381E+01   2.11933502E+02   2.08799228E-01   2.34806992E+02   3.63136101E+01   1.37145877E-01
             2966                2   2.18999771E+02   2.34576065E+02   2.34576065E+02  -1.77870893E+00   3.85320282E+01   2.34576065E+02   2.34576065E+02   3.85320282E+01  -1.77870893E+00   2.36354782E+02  -9.04431381E+01   2.10408676E+02  -1.72387457E+00   2.34521240E+02   3.85320282E+01  -3.59955287E+00
             2966                3   2.18873917E+02   2.34585358E+02   2.34585358E+02  -1.27132773E+00   3.80153694E+01   2.34585358E+02   2.34585358E+02   3.80153694E+01  -1.27132773E+00   2.35856674E+02  -9.04431381E+01   2.10721085E+02  -1.15509725E+00   2.34469116E+02   3.80153694E+01   5.23467875E+00
             2966                4   2.19073029E+02   2.34344772E+02   2.34344772E+02  -3.11559057E+00   4.01002007E+01   2.34344772E+02   2.34344772E+02   4.01002007E+01  -3.11559057E+00   2.37460373E+02  -9.04431229E+01   2.09157837E+02  -3.10674381E+00   2.34335938E+02   4.01002007E+01   1.44882441E+00
             2967                1   1.93228806E+02   1.74986679E+02   1.74986679E+02  -1.85654583E+01  -1.79171734E+01   1.74986679E+02   1.74986679E+02  -1.79171734E+01  -1.85654583E+01   1.93552139E+02  -4.61680145E+01   1.93226364E+02  -1.85638676E+01   1.74985092E+02  -1.79171734E+01   5.53811252E-01
             2967                2   1.93106064E+02   1.74905151E+02   1.74905151E+02  -1.84156475E+01  -1.79854507E+01   1.74905151E+02   1.74905151E+02  -1.79854507E+01  -1.84156475E+01   1.93320801E+02  -4.61680183E+01   1.93104980E+02  -1.83998528E+01   1.74889359E+02  -1.79854507E+01   1.74716711E+00
             2967                3   1.92708939E+02   1.74640259E+02   1.74640259E+02  -1.77935295E+01  -1.83426743E+01   1.74640259E+02   1.74640259E+02  -1.77935295E+01  -1.83426743E+01   1.92982925E+02  -4.61680183E+01   1.92707184E+02  -1.77929955E+01   1.74639725E+02  -1.83426743E+01   3.19488019E-01
             2967                4   1.92584198E+02   1.74556717E+02   1.74556717E+02  -1.76407738E+01  -1.84118805E+01   1.74556717E+02   1.74556717E+02  -1.76407738E+01  -1.84118805E+01   1.92968597E+02  -4.61680183E+01   1.92580719E+02  -1.76288147E+01   1.74544754E+02  -1.84118805E+01   1.51602662E+00
             2968                1   2.18175491E+02   2.32918686E+02   2.32918686E+02   2.98085570E-01   3.28450813E+01   2.32918686E+02   2.32918686E+02   3.28450813E+01   2.98085570E-01   2.32620590E+02  -8.86872864E+01   2.12610687E+02   2.98264354E-01   2.32918503E+02   3.28450813E+01   2.03479439E-01
             2968                2   2.18397919E+02   2.32759476E+02   2.32759476E+02  -1.55922329E+00   3.48616028E+01   2.32759476E+02   2.32759476E+02   3.48616028E+01  -1.55922329E+00   2.34318710E+02  -8.86872864E+01   2.11403076E+02  -1.51979518E+00   2.32720047E+02   3.48616028E+01  -3.03944898E+00
             2968                3   2.18286133E+02   2.32770035E+02   2.32770035E+02  -1.04774415E+00   3.43395615E+01   2.32770035E+02   2.32770035E+02   3.43395615E+01  -1.04774415E+00   2.33817780E+02  -8.86872864E+01   2.11688065E+02  -9.50161576E-01   2.32672455E+02   3.43395615E+01   4.77559137E+00
             2968                4   2.18499176E+02   2.32598923E+02   2.32598923E+02  -2.78883433E+00   3.62517548E+01   2.32598923E+02   2.32598923E+02   3.62517548E+01  -2.78883433E+00   2.35387756E+02  -8.86872787E+01   2.10436493E+02  -2.77938652E+00   2.32589478E+02   3.62517548E+01   1.49109173E+00
             2969                1   2.20000000E+02   2.38177673E+02   2.38177673E+02  -7.82898808E+00   6.03058929E+01   2.38177673E+02   2.38177673E+02   6.03058929E+01  -7.82898808E+00   2.46006653E+02  -9.68848572E+01   1.94042313E+02  -7.71928072E+00   2.38067963E+02   6.03058929E+01   5.19383669E+00
             2969                2   2.19999985E+02   2.38772675E+02   2.38772675E+02  -6.21830797E+00   5.81001968E+01   2.38772675E+02   2.38772675E+02   5.81001968E+01  -6.21830797E+00   2.44990982E+02  -9.68848572E+01   1.97122833E+02  -6.19419384E+00   2.38748566E+02   5.81001968E+01  -2.43022561E+00
             2969                3   2.20000000E+02   2.37543610E+02   2.37543610E+02  -9.42604446E+00   6.25370178E+01   2.37543610E+02   2.37543610E+02   6.25370178E+01  -9.42604446E+00   2.46969666E+02  -9.68848648E+01   1.90689102E+02  -9.42020130E+00   2.37537766E+02   6.25370178E+01  -1.20179367E+00
             2969                4   2.20000000E+02   2.38080414E+02   2.38080414E+02  -8.08140850E+00   6.06555557E+01   2.38080414E+02   2.38080414E+02   6.06555557E+01  -8.08140850E+00   2.46161819E+02  -9.68848572E+01   1.93532898E+02  -7.77323675E+00   2.37772247E+02   6.06555557E+01  -8.70428848E+00
             2970                1   1.92351044E+02   1.76789429E+02   1.76789429E+02  -1.53671923E+01  -1.57554579E+01   1.76789429E+02   1.76789429E+02  -1.53671923E+01  -1.57554579E+01   1.92544891E+02  -4.85555916E+01   1.92350174E+02  -1.53661880E+01   1.76788437E+02  -1.57554579E+01   4.37598735E-01
             2970                2   1.92706924E+02   1.77026596E+02   1.77026596E+02  -1.59173365E+01  -1.54424610E+01   1.77026596E+02   1.77026596E+02  -1.54424610E+01  -1.59173365E+01   1.92943924E+02  -4.85555992E+01   1.92705612E+02  -1.59152403E+01   1.77024490E+02  -1.54424610E+01   6.36393845E-01
             2970                3   1.92242935E+02   1.76717117E+02   1.76717117E+02  -1.52357397E+01  -1.58145924E+01   1.76717117E+02   1.76717117E+02  -1.52357397E+01  -1.58145924E+01   1.92531723E+02  -4.85555992E+01   1.92240982E+02  -1.52269411E+01   1.76708328E+02  -1.58145924E+01   1.29935193E+00
             2970                4   1.92600052E+02   1.76955521E+02   1.76955521E+02  -1.57877722E+01  -1.55009623E+01   1.76955521E+02   1.76955521E+02  -1.55009623E+01  -1.57877722E+01   1.92743301E+02  -4.85555992E+01   1.92599579E+02  -1.57761488E+01   1.76943909E+02  -1.55009623E+01   1.49639297E+00
             2971                1   1.91679047E+02   1.78954330E+02   1.78954330E+02  -1.25940266E+01  -1.28551197E+01   1.78954330E+02   1.78954330E+02  -1.25940266E+01  -1.28551197E+01   1.91809448E+02  -5.11683960E+01   1.91678635E+02  -1.25924292E+01   1.78952728E+02  -1.28551197E+01   5.54339707E-01
             2971                2   1.92107056E+02   1.79239624E+02   1.79239624E+02  -1.30299730E+01  -1.27044725E+01   1.79239624E+02   1.79239624E+02  -1.27044725E+01  -1.30299730E+01   1.92269608E+02  -5.11683960E+01   1.92106430E+02  -1.30274515E+01   1.79237106E+02  -1.27044725E+01   6.96451962E-01
             2971                3   1.91536758E+02   1.78859360E+02   1.78859360E+02  -1.24780989E+01  -1.28760757E+01   1.78859360E+02   1.78859360E+02  -1.24780989E+01  -1.28760757E+01   1.91735428E+02  -5.11683960E+01   1.91535812E+02  -1.24713154E+01   1.78852570E+02  -1.28760757E+01   1.13938630E+00
             2971                4   1.91965485E+02   1.79145340E+02   1.79145340E+02  -1.29148111E+01  -1.27253494E+01   1.79145340E+02   1.79145340E+02  -1.27253494E+01  -1.29148111E+01   1.92060150E+02  -5.11683960E+01   1.91965271E+02  -1.29062672E+01   1.79136795E+02  -1.27253494E+01   1.28110540E+00
             2972                1   2.20000000E+02   2.22725525E+02   2.22725525E+02  -1.80563450E+01   3.22056351E+01   2.22725525E+02   2.22725525E+02   3.22056351E+01  -1.80563450E+01   2.40781860E+02  -7.89582748E+01   2.06480469E+02  -1.77335320E+01   2.22402710E+02   3.22056351E+01   8.81035328E+00
             2972                2   2.20000000E+02   2.23350861E+02   2.23350861E+02  -1.55184526E+01   2.90424137E+01   2.23350861E+02   2.23350861E+02   2.90424137E+01  -1.55184526E+01   2.38869324E+02  -7.89582748E+01   2.09482300E+02  -1.55183172E+01   2.23350723E+02   2.90424137E+01   1.84177876E-01
             2972                3   2.20000000E+02   2.22055283E+02   2.22055283E+02  -2.04428005E+01   3.52623215E+01   2.22055283E+02   2.22055283E+02   3.52623215E+01  -2.04428005E+01   2.42498093E+02  -7.89582748E+01   2.03203964E+02  -2.04331951E+01   2.22045685E+02   3.52623215E+01   1.52604485E+00
             2972                4   2.20000000E+02   2.22688309E+02   2.22688309E+02  -1.81968689E+01   3.23833694E+01   2.22688309E+02   2.22688309E+02   3.23833694E+01  -1.81968689E+01   2.40885178E+02  -7.89582748E+01   2.06300217E+02  -1.79635715E+01   2.22455017E+02   3.23833694E+01  -7.49281549E+00
             2973                1   2.20000000E+02   2.35350784E+02   2.35350784E+02  -6.43468666E+00   4.69685135E+01   2.35350784E+02   2.35350784E+02   4.69685135E+01  -6.43468666E+00   2.41785461E+02  -9.19615402E+01   2.04640350E+02  -6.18945932E+00   2.35105545E+02   4.69685135E+01   7.69635010E+00
             2973                2   2.20006210E+02   2.35886948E+02   2.35886948E+02  -4.46237326E+00   4.44600372E+01   2.35886948E+02   2.35886948E+02   4.44600372E+01  -4.46237326E+00   2.40349319E+02  -9.19615402E+01   2.07230850E+02  -4.46202803E+00   2.35886597E+02   4.44600372E+01   2.90992588E-01
             2973                3   2.20000000E+02   2.34729736E+02   2.34729736E+02  -8.51318741E+00   4.96680603E+01   2.34729736E+02   2.34729736E+02   4.96680603E+01  -8.51318741E+00   2.43242920E+02  -9.19615402E+01   2.01572754E+02  -8.50119209E+00   2.34717743E+02   4.96680603E+01   1.70821190E+00
             2973                4   2.20000000E+02   2.35241516E+02   2.35241516E+02  -6.81644917E+00   4.74595451E+01   2.35241516E+02   2.35241516E+02   4.74595451E+01  -6.81644917E+00   2.42057968E+02  -9.19615402E+01   2.04104675E+02  -6.68619967E+00   2.35111267E+02   4.74595451E+01  -5.61339378E+00
             2974                1   2.20000000E+02   2.24953857E+02   2.24953857E+02   5.49437904E+00   4.41729498E+00   2.24953857E+02   2.24953857E+02   5.49437904E+00   4.41729498E+00   2.20536575E+02  -7.82885132E+01   2.19994080E+02   5.93079376E+00   2.24517456E+02   4.41729498E+00   9.77666664E+00
             2974                2   2.20000000E+02   2.24953506E+02   2.24953506E+02   4.34983540E+00   5.56219053E+00   2.24953506E+02   2.24953506E+02   5.56219053E+00   4.34983540E+00   2.20603668E+02  -7.82885132E+01   2.19992477E+02   4.78809357E+00   2.24515259E+02   5.56219053E+00   9.82281017E+00
             2974                3   2.20000000E+02   2.24954071E+02   2.24954071E+02   5.45110273E+00   4.46038151E+00   2.24954071E+02   2.24954071E+02   5.45110273E+00   4.46038151E+00   2.20493683E+02  -7.82885208E+01   2.19994965E+02   6.09610939E+00   2.24309052E+02   4.46038151E+00   1.18813353E+01
             2974                4   2.20000000E+02   2.24953323E+02   2.24953323E+02   4.31632900E+00   5.59589911E+00   2.24953323E+02   2.24953323E+02   5.59589911E+00   4.31632900E+00   2.20636993E+02  -7.82885208E+01   2.19991623E+02   4.95972824E+00   2.24309921E+02   5.59589911E+00   1.18972492E+01
             2975                1   2.20000000E+02   2.30200409E+02   2.30200409E+02  -1.29807644E+01   4.49923134E+01   2.30200409E+02   2.30200409E+02   4.49923134E+01  -1.29807644E+01   2.43181183E+02  -8.74039917E+01   2.01713394E+02  -1.27063398E+01   2.29925995E+02   4.49923134E+01   8.16445923E+00
             2975                2   2.20000000E+02   2.30857117E+02   2.30857117E+02  -1.07656364E+01   4.21204948E+01   2.30857117E+02   2.30857117E+02   4.21204948E+01  -1.07656364E+01   2.41622757E+02  -8.74039917E+01   2.04952682E+02  -1.07654867E+01   2.30856964E+02   4.21204948E+01  -1.89706057E-01
             2975                3   2.20000000E+02   2.29486115E+02   2.29486115E+02  -1.51463671E+01   4.78722153E+01   2.29486115E+02   2.29486115E+02   4.78722153E+01  -1.51463671E+01   2.44632492E+02  -8.74039917E+01   1.98115692E+02  -1.51414146E+01   2.29481171E+02   4.78722153E+01   1.10022998E+00
             2975                4   2.20000000E+02   2.30102219E+02   2.30102219E+02  -1.32921000E+01   4.54018440E+01   2.30102219E+02   2.30102219E+02   4.54018440E+01  -1.32921000E+01   2.43394318E+02  -8.74039917E+01   2.01223541E+02  -1.30816612E+01   2.29891785E+02   4.54018440E+01  -7.15363121E+00
             2976                1   2.20000000E+02   2.07749466E+02   2.07749466E+02  -3.39465179E+01   1.91719513E+01   2.07749466E+02   2.07749466E+02   1.91719513E+01  -3.39465179E+01   2.41695984E+02  -6.43249664E+01   2.04812820E+02  -3.39134216E+01   2.07716370E+02   1.91719513E+01  -2.82801986E+00
             2976                2   2.20000000E+02   2.08332626E+02   2.08332626E+02  -3.17554131E+01   1.63976917E+01   2.08332626E+02   2.08332626E+02   1.63976917E+01  -3.17554131E+01   2.40088043E+02  -6.43249664E+01   2.07640610E+02  -3.10445213E+01   2.07621735E+02   1.63976917E+01   1.30449409E+01
             2976                3   2.20000000E+02   2.08471588E+02   2.08471588E+02  -3.11928768E+01   1.56961842E+01   2.08471588E+02   2.08471588E+02   1.56961842E+01  -3.11928768E+01   2.39664474E+02  -6.43249664E+01   2.08307739E+02  -3.03473492E+01   2.07626068E+02   1.56961842E+01  -1.42101297E+01
             2976                4   2.20000000E+02   2.09166306E+02   2.09166306E+02  -2.80725212E+01   1.18811150E+01   2.09166306E+02   2.09166306E+02   1.18811150E+01  -2.80725212E+01   2.37238815E+02  -6.43249664E+01   2.11605530E+02  -2.80608044E+01   2.09154587E+02   1.18811150E+01   1.66702461E+00
             2977                1   2.20000000E+02   2.21131927E+02   2.21131927E+02  -4.24887747E-01   2.72253776E+00   2.21131927E+02   2.21131927E+02   2.72253776E+00  -4.24887747E-01   2.21556824E+02  -7.44765244E+01   2.19949341E+02  -1.08215272E-01   2.20815262E+02   2.72253776E+00  -8.37022400E+00
             2977                2   2.20000000E+02   2.21137680E+02   2.21137680E+02   4.46875989E-02   2.24721289E+00   2.21137680E+02   2.21137680E+02   2.24721289E+00   4.46875989E-02   2.21093002E+02  -7.44765244E+01   2.19975204E+02   3.84801000E-01   2.20797577E+02   2.24721289E+00  -8.66486835E+00
             2977                3   2.20000000E+02   2.21129807E+02   2.21129807E+02  -5.66089571E-01   2.86587310E+00   2.21129807E+02   2.21129807E+02   2.86587310E+00  -5.66089571E-01   2.21695892E+02  -7.44765320E+01   2.19939743E+02  -1.77968994E-01   2.20741684E+02   2.86587310E+00  -9.26797581E+00
             2977                4   2.20000000E+02   2.21136139E+02   2.21136139E+02  -1.00153126E-01   2.39361811E+00   2.21136139E+02   2.21136139E+02   2.39361811E+00  -1.00153126E-01   2.21236282E+02  -7.44765320E+01   2.19968201E+02   3.14341158E-01   2.20721634E+02   2.39361811E+00  -9.56715775E+00
             2978                1   2.18262344E+02   1.83267136E+02   1.83267136E+02  -4.51043472E+01  -2.32403507E+01   1.83267136E+02   1.83267136E+02  -2.32403507E+01  -4.51043472E+01   2.28371475E+02  -3.83074760E+01   2.15777954E+02  -4.48329620E+01   1.82995743E+02  -2.32403507E+01   7.86785603E+00
             2978                2   2.17851913E+02   1.83253052E+02   1.83253052E+02  -4.20965729E+01  -2.62340488E+01   1.83253052E+02   1.83253052E+02  -2.62340488E+01  -4.20965729E+01   2.25349625E+02  -3.83074760E+01   2.16546890E+02  -4.20823517E+01   1.83238831E+02  -2.62340488E+01   1.79006290E+00
             2978                3   2.18448608E+02   1.83124481E+02   1.83124481E+02  -4.74285927E+01  -2.07734566E+01   1.83124481E+02   1.83124481E+02  -2.07734566E+01  -4.74285927E+01   2.30553070E+02  -3.83074799E+01   2.14744186E+02  -4.74159927E+01   1.83111877E+02  -2.07734566E+01   1.70475674E+00
             2978                4   2.18068970E+02   1.83167465E+02   1.83167465E+02  -4.47548447E+01  -2.34901848E+01   1.83167465E+02   1.83167465E+02  -2.34901848E+01  -4.47548447E+01   2.27922318E+02  -3.83074799E+01   2.15717880E+02  -4.46711617E+01   1.83083786E+02  -2.34901848E+01  -4.36657810E+00
             2979                1   2.10898331E+02   1.62268387E+02   1.62268387E+02  -5.08866119E+01  -4.62984085E+01   1.62268387E+02   1.62268387E+02  -4.62984085E+01  -5.08866119E+01   2.13154999E+02  -2.16944580E+01   2.10785995E+02  -5.08780289E+01   1.62259811E+02  -4.62984085E+01  -1.35213125E+00
             2979                2   2.11580582E+02   1.62644226E+02   1.62644226E+02  -5.34692612E+01  -4.40915985E+01   1.62644226E+02   1.62644226E+02  -4.40915985E+01  -5.34692612E+01   2.16113495E+02  -2.16944580E+01   2.11112244E+02  -5.34575348E+01   1.62632507E+02  -4.40915985E+01   1.59186077E+00
             2979                3   2.10428116E+02   1.61976151E+02   1.61976151E+02  -4.93300095E+01  -4.75627747E+01   1.61976151E+02   1.61976151E+02  -4.75627747E+01  -4.93300095E+01   2.11306168E+02  -2.16944561E+01   2.10411423E+02  -4.92696152E+01   1.61915756E+02  -4.75627747E+01   3.57195616E+00
             2979                4   2.11145416E+02   1.62403595E+02   1.62403595E+02  -5.20510635E+01  -4.52691536E+01   1.62403595E+02   1.62403595E+02  -4.52691536E+01  -5.20510635E+01   2.14454666E+02  -2.16944580E+01   2.10900146E+02  -5.18569260E+01   1.62209457E+02  -4.52691536E+01   6.44956446E+00
             2980                1   2.20000000E+02   2.24558655E+02   2.24558655E+02  -1.92289658E+01   4.08126831E+01   2.24558655E+02   2.24558655E+02   4.08126831E+01  -1.92289658E+01   2.43787628E+02  -8.20474625E+01   2.00286453E+02  -1.88209591E+01   2.24150650E+02   4.08126831E+01  -9.96503067E+00
             2980                2   2.20000000E+02   2.23963776E+02   2.23963776E+02  -2.09755211E+01   4.31541214E+01   2.23963776E+02   2.23963776E+02   4.31541214E+01  -2.09755211E+01   2.44939301E+02  -8.20474548E+01   1.97268845E+02  -2.09650097E+01   2.23953262E+02   4.31541214E+01  -1.60439992E+00
             2980                3   2.20000000E+02   2.25291138E+02   2.25291138E+02  -1.68556843E+01   3.77069168E+01   2.25291138E+02   2.25291138E+02   3.77069168E+01  -1.68556843E+01   2.42146820E+02  -8.20474548E+01   2.03926407E+02  -1.68379154E+01   2.25273376E+02   3.77069168E+01  -2.07391334E+00
             2980                4   2.20000000E+02   2.24614777E+02   2.24614777E+02  -1.90565605E+01   4.05841675E+01   2.24614777E+02   2.24614777E+02   4.05841675E+01  -1.90565605E+01   2.43671326E+02  -8.20474625E+01   2.00568161E+02  -1.88745270E+01   2.24432739E+02   4.05841675E+01   6.65756607E+00
             2981                1   2.17086075E+02   1.67718094E+02   1.67718094E+02  -5.52236290E+01  -4.29954338E+01   1.67718094E+02   1.67718094E+02  -4.29954338E+01  -5.52236290E+01   2.22941727E+02  -2.31663418E+01   2.16309174E+02  -5.50377007E+01   1.67532166E+02  -4.29954338E+01   6.43553686E+00
             2981                2   2.16238617E+02   1.67278519E+02   1.67278519E+02  -5.20742722E+01  -4.57052116E+01   1.67278519E+02   1.67278519E+02  -4.57052116E+01  -5.20742722E+01   2.19352783E+02  -2.31663418E+01   2.16027420E+02  -5.20545959E+01   1.67258835E+02  -4.57052116E+01   2.07749057E+00
             2981                3   2.17386978E+02   1.67793549E+02   1.67793549E+02  -5.71843452E+01  -4.11101799E+01   1.67793549E+02   1.67793549E+02  -4.11101799E+01  -5.71843452E+01   2.24977890E+02  -2.31663418E+01   2.16043839E+02  -5.71822281E+01   1.67791428E+02  -4.11101799E+01   6.89441860E-01
             2981                4   2.16957718E+02   1.67674438E+02   1.67674438E+02  -5.44051247E+01  -4.37702751E+01   1.67674438E+02   1.67674438E+02  -4.37702751E+01  -5.44051247E+01   2.22079559E+02  -2.31663456E+01   2.16370102E+02  -5.43419571E+01   1.67611267E+02  -4.37702751E+01  -3.74496722E+00
             2982                1   2.07031433E+02   1.58687958E+02   1.58687958E+02  -4.89739227E+01  -4.77072105E+01   1.58687958E+02   1.58687958E+02  -4.77072105E+01  -4.89739227E+01   2.07661880E+02  -2.06689415E+01   2.07022705E+02  -4.89713898E+01   1.58685425E+02  -4.77072105E+01  -7.25214839E-01
             2982                2   2.07894730E+02   1.59226715E+02   1.59226715E+02  -5.14467430E+01  -4.57731400E+01   1.59226715E+02   1.59226715E+02  -4.57731400E+01  -5.14467430E+01   2.10673462E+02  -2.06689434E+01   2.07720428E+02  -5.14400063E+01   1.59219971E+02  -4.57731400E+01   1.19171691E+00
             2982                3   2.06608459E+02   1.58407547E+02   1.58407547E+02  -4.79241982E+01  -4.84765358E+01   1.58407547E+02   1.58407547E+02  -4.79241982E+01  -4.84765358E+01   2.06884079E+02  -2.06689358E+01   2.06606796E+02  -4.78561630E+01   1.58339508E+02  -4.84765358E+01   3.74600959E+00
             2982                4   2.07500168E+02   1.58983276E+02   1.58983276E+02  -5.04796524E+01  -4.64967995E+01   1.58983276E+02   1.58983276E+02  -4.64967995E+01  -5.04796524E+01   2.09462921E+02  -2.06689396E+01   2.07414139E+02  -5.03296394E+01   1.58833252E+02  -4.64967995E+01   5.60364342E+00
             2983                1   2.20000000E+02   1.68663071E+02   1.68663071E+02  -5.87141075E+01  -4.31311569E+01   1.68663071E+02   1.68663071E+02  -4.31311569E+01  -5.87141075E+01   2.27377167E+02  -2.22726002E+01   2.18753159E+02  -5.86344490E+01   1.68583405E+02  -4.31311569E+01   4.25521851E+00
             2983                2   2.20000000E+02   1.68850525E+02   1.68850525E+02  -5.54341125E+01  -4.65986176E+01   1.68850525E+02   1.68850525E+02  -4.65986176E+01  -5.54341125E+01   2.24284637E+02  -2.22725983E+01   2.19600266E+02  -5.54266968E+01   1.68843109E+02  -4.65986176E+01  -1.28968048E+00
             2983                3   2.20000000E+02   1.68465195E+02   1.68465195E+02  -6.10280685E+01  -4.06193199E+01   1.68465195E+02   1.68465195E+02  -4.06193199E+01  -6.10280685E+01   2.29493256E+02  -2.22725983E+01   2.17854980E+02  -6.10006828E+01   1.68437805E+02  -4.06193199E+01  -2.50665164E+00
             2983                4   2.20000000E+02   1.68706436E+02   1.68706436E+02  -5.80984383E+01  -4.37902069E+01   1.68706436E+02   1.68706436E+02  -4.37902069E+01  -5.80984383E+01   2.26804871E+02  -2.22725983E+01   2.18949493E+02  -5.78060417E+01   1.68414047E+02  -4.37902069E+01  -8.13821793E+00
             2984                1   2.19433121E+02   1.75381607E+02   1.75381607E+02  -5.28963776E+01  -3.39822121E+01   1.75381607E+02   1.75381607E+02  -3.39822121E+01  -5.28963776E+01   2.28277985E+02  -2.95010071E+01   2.17587799E+02  -5.27312889E+01   1.75216522E+02  -3.39822121E+01   6.13661671E+00
             2984                2   2.19242065E+02   1.75476700E+02   1.75476700E+02  -4.98653641E+01  -3.71083031E+01   1.75476700E+02   1.75476700E+02  -3.71083031E+01  -4.98653641E+01   2.25342056E+02  -2.95010071E+01   2.18404678E+02  -4.98643951E+01   1.75475723E+02  -3.71083031E+01   4.67279375E-01
             2984                3   2.19538437E+02   1.75218170E+02   1.75218170E+02  -5.52147064E+01  -3.15004368E+01   1.75218170E+02   1.75218170E+02  -3.15004368E+01  -5.52147064E+01   2.30432877E+02  -2.95010090E+01   2.16628799E+02  -5.52146416E+01   1.75218109E+02  -3.15004368E+01  -1.17936492E-01
             2984                4   2.19360138E+02   1.75365906E+02   1.75365906E+02  -5.24975967E+01  -3.43652916E+01   1.75365906E+02   1.75365906E+02  -3.43652916E+01  -5.24975967E+01   2.27863510E+02  -2.95010071E+01   2.17664505E+02  -5.23475304E+01   1.75215851E+02  -3.43652916E+01  -5.84559298E+00
             2985                1   2.20000000E+02   1.81580688E+02   1.81580688E+02  -4.78256531E+01  -2.76187897E+01   1.81580688E+02   1.81580688E+02  -2.76187897E+01  -4.78256531E+01   2.29406342E+02  -3.53787498E+01   2.17897507E+02  -4.78195763E+01   1.81574615E+02  -2.76187897E+01  -1.18022656E+00
             2985                2   2.20000000E+02   1.81800995E+02   1.81800995E+02  -4.51622925E+01  -3.05024490E+01   1.81800995E+02   1.81800995E+02  -3.05024490E+01  -4.51622925E+01   2.26963287E+02  -3.53787498E+01   2.18897018E+02  -4.49852676E+01   1.81623962E+02  -3.05024490E+01  -6.33629513E+00
             2985                3   2.20000000E+02   1.81359390E+02   1.81359390E+02  -4.98823090E+01  -2.53408489E+01   1.81359390E+02   1.81359390E+02  -2.53408489E+01  -4.98823090E+01   2.31241699E+02  -3.53787422E+01   2.16888336E+02  -4.96694145E+01   1.81146500E+02  -2.53408489E+01  -7.01314783E+00
             2985                4   2.20000000E+02   1.81609940E+02   1.81609940E+02  -4.75175018E+01  -2.79561977E+01   1.81609940E+02   1.81609940E+02  -2.79561977E+01  -4.75175018E+01   2.29127441E+02  -3.53787460E+01   2.18030548E+02  -4.68652077E+01   1.80957642E+02  -2.79561977E+01  -1.22079525E+01
             2986                1   2.20000000E+02   1.90830688E+02   1.90830688E+02  -3.59030418E+01  -2.17523994E+01   1.90830688E+02   1.90830688E+02  -2.17523994E+01  -3.59030418E+01   2.26733734E+02  -4.43917503E+01   2.18972565E+02  -3.57415237E+01   1.90669159E+02  -2.17523994E+01  -6.04959488E+00
             2986                2   2.20000000E+02   1.90956116E+02   1.90956116E+02  -3.36335411E+01  -2.41473408E+01   1.90956116E+02   1.90956116E+02  -2.41473408E+01  -3.36335411E+01   2.24589645E+02  -4.43917427E+01   2.19539124E+02  -3.32367401E+01   1.90559311E+02  -2.41473408E+01  -9.43183804E+00
             2986                3   2.20000000E+02   1.90725266E+02   1.90725266E+02  -3.73312225E+01  -2.02188053E+01   1.90725266E+02   1.90725266E+02  -2.02188053E+01  -3.73312225E+01   2.28056488E+02  -4.43917427E+01   2.18495117E+02  -3.68151741E+01   1.90209213E+02  -2.02188053E+01  -1.08361626E+01
             2986                4   2.20000000E+02   1.90872253E+02   1.90872253E+02  -3.52461205E+01  -2.24508991E+01   1.90872253E+02   1.90872253E+02  -2.24508991E+01  -3.52461205E+01   2.26118362E+02  -4.43917427E+01   2.19160492E+02  -3.43409081E+01   1.89967041E+02  -2.24508991E+01  -1.42781239E+01
             2987                1   2.20000000E+02   2.27217453E+02   2.27217453E+02  -2.79817462E+00   1.88308029E+01   2.27217453E+02   2.27217453E+02   1.88308029E+01  -2.79817462E+00   2.30015625E+02  -8.10833664E+01   2.17588669E+02  -2.60973287E+00   2.27029007E+02   1.88308029E+01  -6.58108187E+00
             2987                2   2.20000000E+02   2.27289307E+02   2.27289307E+02  -2.07937646E+00   1.80401421E+01   2.27289307E+02   2.27289307E+02   1.80401421E+01  -2.07937646E+00   2.29368683E+02  -8.10833588E+01   2.17915756E+02  -1.75506437E+00   2.26964996E+02   1.80401421E+01  -8.61867046E+00
             2987                3   2.20000000E+02   2.27133957E+02   2.27133957E+02  -3.57166862E+00   1.96877842E+01   2.27133957E+02   2.27133957E+02   1.96877842E+01  -3.57166862E+00   2.30705627E+02  -8.10833588E+01   2.17207901E+02  -3.27621198E+00   2.26838501E+02   1.96877842E+01  -8.25079441E+00
             2987                4   2.20000000E+02   2.27208221E+02   2.27208221E+02  -2.88671780E+00   1.89285755E+01   2.27208221E+02   2.27208221E+02   1.89285755E+01  -2.88671780E+00   2.30094940E+02  -8.10833588E+01   2.17546616E+02  -2.42663932E+00   2.26748138E+02   1.89285755E+01  -1.02786608E+01
             2988                1   2.20000000E+02   1.84285965E+02   1.84285965E+02  -4.82237396E+01  -2.05940781E+01   1.84285965E+02   1.84285965E+02  -2.05940781E+01  -4.82237396E+01   2.32509705E+02  -3.84893837E+01   2.16044861E+02  -4.80987282E+01   1.84160950E+02  -2.05940781E+01   5.38994455E+00
             2988                2   2.20000000E+02   1.84643829E+02   1.84643829E+02  -4.51940651E+01  -2.39816017E+01   1.84643829E+02   1.84643829E+02  -2.39816017E+01  -4.51940651E+01   2.29837906E+02  -3.84893913E+01   2.17681366E+02  -4.51821213E+01   1.84631882E+02  -2.39816017E+01  -1.65739608E+00
             2988                3   2.20000000E+02   1.83896866E+02   1.83896866E+02  -5.08225555E+01  -1.76061630E+01   1.83896866E+02   1.83896866E+02  -1.76061630E+01  -5.08225555E+01   2.34719421E+02  -3.84893837E+01   2.14249329E+02  -5.08126602E+01   1.83886978E+02  -1.76061630E+01  -1.52333713E+00
             2988                4   2.20000000E+02   1.84289917E+02   1.84289917E+02  -4.81943741E+01  -2.06274128E+01   1.84289917E+02   1.84289917E+02  -2.06274128E+01  -4.81943741E+01   2.32484299E+02  -3.84893799E+01   2.16063049E+02  -4.78759689E+01   1.83971527E+02  -2.06274128E+01  -8.59772491E+00
             2989                1   2.20000000E+02   2.40641479E+02   2.40641479E+02   2.26830788E+01   1.86551991E+01   2.40641479E+02   2.40641479E+02   2.26830788E+01   1.86551991E+01   2.21986282E+02  -9.39932556E+01   2.19916992E+02   2.26911144E+01   2.40633438E+02   1.86551991E+01   1.32355452E+00
             2989                2   2.20000000E+02   2.40644638E+02   2.40644638E+02   2.25007114E+01   1.88344078E+01   2.40644638E+02   2.40644638E+02   2.25007114E+01   1.88344078E+01   2.21810242E+02  -9.39932556E+01   2.19931229E+02   2.25220356E+01   2.40623306E+02   1.88344078E+01   2.15698528E+00
             2989                3   2.20000000E+02   2.40633698E+02   2.40633698E+02   2.30741215E+01   1.82719231E+01   2.40633698E+02   2.40633698E+02   2.30741215E+01   1.82719231E+01   2.22361786E+02  -9.39932480E+01   2.19882050E+02   2.30864658E+01   2.40621368E+02   1.82719231E+01   1.63856018E+00
             2989                4   2.20000000E+02   2.40637573E+02   2.40637573E+02   2.28878860E+01   1.84542866E+01   2.40637573E+02   2.40637573E+02   2.28878860E+01   1.84542866E+01   2.22183273E+02  -9.39932480E+01   2.19899460E+02   2.29160881E+01   2.40609375E+02   1.84542866E+01   2.47780299E+00
             2990                1   2.20000000E+02   2.19654480E+02   2.19654480E+02  -3.12375355E+00   2.54217887E+00   2.19654480E+02   2.19654480E+02   2.54217887E+00  -3.12375355E+00   2.22778244E+02  -7.30242996E+01   2.19835754E+02  -2.01140642E+00   2.18542145E+02   2.54217887E+00  -1.57024784E+01
             2990                2   2.20000000E+02   2.19622787E+02   2.19622787E+02  -4.14786911E+00   3.59800673E+00   2.19622787E+02   2.19622787E+02   3.59800673E+00  -4.14786911E+00   2.23770660E+02  -7.30243073E+01   2.19692886E+02  -3.35834646E+00   2.18833267E+02   3.59800673E+00  -1.32682819E+01
             2990                3   2.20000000E+02   2.19671997E+02   2.19671997E+02  -2.34280324E+00   1.74373329E+00   2.19671997E+02   2.19671997E+02   1.74373329E+00  -2.34280324E+00   2.22014801E+02  -7.30243073E+01   2.19914581E+02  -1.57281899E+00   2.18902008E+02   1.74373329E+00  -1.30520458E+01
             2990                4   2.20000000E+02   2.19646500E+02   2.19646500E+02  -3.41443229E+00   2.84085083E+00   2.19646500E+02   2.19646500E+02   2.84085083E+00  -3.41443229E+00   2.23060928E+02  -7.30243073E+01   2.19799774E+02  -2.90585303E+00   2.19137924E+02   2.84085083E+00  -1.06388645E+01
             2991                1   2.20000000E+02   2.09934097E+02   2.09934097E+02  -1.21929379E+01  -7.87531185E+00   2.09934097E+02   2.09934097E+02  -7.87531185E+00  -1.21929379E+01   2.22127045E+02  -6.32886200E+01   2.19904648E+02  -1.19165297E+01   2.09657700E+02  -7.87531185E+00  -7.83073282E+00
             2991                2   2.20000000E+02   2.09954498E+02   2.09954498E+02  -1.04603329E+01  -9.62830544E+00   2.09954498E+02   2.09954498E+02  -9.62830544E+00  -1.04603329E+01   2.20414841E+02  -6.32886200E+01   2.19996460E+02  -1.01102953E+01   2.09604462E+02  -9.62830544E+00  -8.77679253E+00
             2991                3   2.20000000E+02   2.09923630E+02   2.09923630E+02  -1.26673775E+01  -7.39039946E+00   2.09923630E+02   2.09923630E+02  -7.39039946E+00  -1.26673775E+01   2.22591019E+02  -6.32886200E+01   2.19857529E+02  -1.21081905E+01   2.09364441E+02  -7.39039946E+00  -1.11426487E+01
             2991                4   2.20000000E+02   2.09951309E+02   2.09951309E+02  -1.09771118E+01  -9.10835266E+00   2.09951309E+02   2.09951309E+02  -9.10835266E+00  -1.09771118E+01   2.20928421E+02  -6.32886162E+01   2.19982132E+02  -1.03062105E+01   2.09280411E+02  -9.10835266E+00  -1.21560850E+01
             2992                1   2.20000000E+02   2.20833282E+02   2.20833282E+02  -7.42025435E-01   2.44318652E+00   2.20833282E+02   2.20833282E+02   2.44318652E+00  -7.42025435E-01   2.21575317E+02  -7.41781540E+01   2.19948105E+02  -2.86839902E-01   2.20378098E+02   2.44318652E+00  -1.00325384E+01
             2992                2   2.20000000E+02   2.20840485E+02   2.20840485E+02  -1.28545329E-01   1.82249403E+00   2.20840485E+02   2.20840485E+02   1.82249403E+00  -1.28545329E-01   2.20969040E+02  -7.41781464E+01   2.19980545E+02   3.63238931E-01   2.20348709E+02   1.82249403E+00  -1.04128036E+01
             2992                3   2.20000000E+02   2.20830521E+02   2.20830521E+02  -9.21780705E-01   2.62571239E+00   2.20830521E+02   2.20830521E+02   2.62571239E+00  -9.21780705E-01   2.21752304E+02  -7.41781540E+01   2.19935623E+02  -3.53977054E-01   2.20262711E+02   2.62571239E+00  -1.12067022E+01
             2992                4   2.20000000E+02   2.20838684E+02   2.20838684E+02  -3.13330024E-01   2.00908256E+00   2.20838684E+02   2.20838684E+02   2.00908256E+00  -3.13330024E-01   2.21152023E+02  -7.41781464E+01   2.19972427E+02   2.96328843E-01   2.20229034E+02   2.00908256E+00  -1.15954695E+01
             2993                1   2.19846588E+02   2.34316574E+02   2.34316574E+02  -6.04986000E+00   4.34190636E+01   2.34316574E+02   2.34316574E+02   4.34190636E+01  -6.04986000E+00   2.40366425E+02  -9.05619202E+01   2.06760361E+02  -5.81125736E+00   2.34077972E+02   4.34190636E+01   7.56925249E+00
             2993                2   2.19809708E+02   2.34758728E+02   2.34758728E+02  -4.13949490E+00   4.10665474E+01   2.34758728E+02   2.34758728E+02   4.10665474E+01  -4.13949490E+00   2.38898224E+02  -9.05619278E+01   2.08963364E+02  -4.13725471E+00   2.34756485E+02   4.10665474E+01   7.31895030E-01
             2993                3   2.19896973E+02   2.33791718E+02   2.33791718E+02  -8.11119938E+00   4.60052719E+01   2.33791718E+02   2.33791718E+02   4.60052719E+01  -8.11119938E+00   2.41902908E+02  -9.05619278E+01   2.04092087E+02  -8.09271812E+00   2.33773224E+02   4.60052719E+01   2.11462116E+00
             2993                4   2.19880341E+02   2.34235840E+02   2.34235840E+02  -6.45721960E+00   4.39071617E+01   2.34235840E+02   2.34235840E+02   4.39071617E+01  -6.45721960E+00   2.40693069E+02  -9.05619278E+01   2.06294846E+02  -6.36760712E+00   2.34146225E+02   4.39071617E+01  -4.64358807E+00
             2994                1   2.20000000E+02   2.20672318E+02   2.20672318E+02  -8.96126390E-01   2.27502894E+00   2.20672318E+02   2.20672318E+02   2.27502894E+00  -8.96126390E-01   2.21568436E+02  -7.40170670E+01   2.19948578E+02  -3.26679111E-01   2.20102859E+02   2.27502894E+00  -1.12182035E+01
             2994                2   2.20000000E+02   2.20680206E+02   2.20680206E+02  -1.94764704E-01   1.56576014E+00   2.20680206E+02   2.20680206E+02   1.56576014E+00  -1.94764704E-01   2.20874969E+02  -7.40170670E+01   2.19984131E+02   4.30814147E-01   2.20054626E+02   1.56576014E+00  -1.17381392E+01
             2994                3   2.20000000E+02   2.20668869E+02   2.20668869E+02  -1.11703122E+00   2.49937081E+00   2.20668869E+02   2.20668869E+02   2.49937081E+00  -1.11703122E+00   2.21785904E+02  -7.40170670E+01   2.19933090E+02  -4.00137484E-01   2.19951965E+02   2.49937081E+00  -1.25890570E+01
             2994                4   2.20000000E+02   2.20677994E+02   2.20677994E+02  -4.37802613E-01   1.81102097E+00   2.20677994E+02   2.20677994E+02   1.81102097E+00  -4.37802613E-01   2.21115799E+02  -7.40170670E+01   2.19974136E+02   3.42101514E-01   2.19898087E+02   1.81102097E+00  -1.31088133E+01
             2995                1   2.20000000E+02   2.14986481E+02   2.14986481E+02  -1.17540216E+01   2.41159654E+00   2.14986481E+02   2.14986481E+02   2.41159654E+00  -1.17540216E+01   2.26740494E+02  -6.85480118E+01   2.18970398E+02  -1.10413551E+01   2.14273804E+02   2.41159654E+00  -1.26918640E+01
             2995                2   2.20000000E+02   2.14864456E+02   2.14864456E+02  -1.33828144E+01   4.16241503E+00   2.14864456E+02   2.14864456E+02   4.16241503E+00  -1.33828144E+01   2.28247269E+02  -6.85480194E+01   2.18417618E+02  -1.18494310E+01   2.13331070E+02   4.16241503E+00  -1.86451187E+01
             2995                3   2.20000000E+02   2.14826874E+02   2.14826874E+02  -1.38220272E+01   4.63919497E+00   2.14826874E+02   2.14826874E+02   4.63919497E+00  -1.38220272E+01   2.28648911E+02  -6.85480118E+01   2.18247101E+02  -1.36276531E+01   2.14632507E+02   4.63919497E+00  -6.66373062E+00
             2995                4   2.20000000E+02   2.14702942E+02   2.14702942E+02  -1.51307516E+01   6.07186937E+00   2.14702942E+02   2.14702942E+02   6.07186937E+00  -1.51307516E+01   2.29833694E+02  -6.85480194E+01   2.17683533E+02  -1.44099493E+01   2.13982132E+02   6.07186937E+00  -1.28509359E+01
             2996                1   2.20000000E+02   2.24397583E+02   2.24397583E+02  -4.81510115E+00   1.49431696E+01   2.24397583E+02   2.24397583E+02   1.49431696E+01  -4.81510115E+00   2.29212692E+02  -7.81752243E+01   2.17990417E+02  -4.51466799E+00   2.24097153E+02   1.49431696E+01  -8.29299736E+00
             2996                2   2.20000000E+02   2.24471619E+02   2.24471619E+02  -3.99282622E+00   1.40468616E+01   2.24471619E+02   2.24471619E+02   1.40468616E+01  -3.99282622E+00   2.28464447E+02  -7.81752167E+01   2.18326691E+02  -3.52793312E+00   2.24006729E+02   1.40468616E+01  -1.02953434E+01
             2996                3   2.20000000E+02   2.24320648E+02   2.24320648E+02  -5.59642506E+00   1.58014288E+01   2.24320648E+02   2.24320648E+02   1.58014288E+01  -5.59642506E+00   2.29917084E+02  -7.81752167E+01   2.17640350E+02  -5.14647532E+00   2.23870697E+02   1.58014288E+01  -1.01612072E+01
             2996                4   2.20000000E+02   2.24397858E+02   2.24397858E+02  -4.81213665E+00   1.49399147E+01   2.24397858E+02   2.24397858E+02   1.49399147E+01  -4.81213665E+00   2.29209991E+02  -7.81752090E+01   2.17991714E+02  -4.16520214E+00   2.23750931E+02   1.49399147E+01  -1.21599445E+01
             2997                1   2.20000000E+02   2.37394547E+02   2.37394547E+02  -7.65597391E+00   5.68806877E+01   2.37394547E+02   2.37394547E+02   5.68806877E+01  -7.65597391E+00   2.45050522E+02  -9.55397568E+01   1.96953445E+02  -7.42970753E+00   2.37168274E+02   5.68806877E+01   7.44289684E+00
             2997                2   2.20000000E+02   2.38066422E+02   2.38066422E+02  -5.68935394E+00   5.42421989E+01   2.38066422E+02   2.38066422E+02   5.42421989E+01  -5.68935394E+00   2.43755768E+02  -9.55397568E+01   2.00364090E+02  -5.68636417E+00   2.38063431E+02   5.42421989E+01  -8.52726400E-01
             2997                3   2.20000000E+02   2.36667389E+02   2.36667389E+02  -9.60119057E+00   5.95530777E+01   2.36667389E+02   2.36667389E+02   5.95530777E+01  -9.60119057E+00   2.46268570E+02  -9.55397568E+01   1.93175995E+02  -9.60028553E+00   2.36666473E+02   5.95530777E+01   4.73401338E-01
             2997                4   2.20000000E+02   2.37284943E+02   2.37284943E+02  -7.96042490E+00   5.72947502E+01   2.37284943E+02   2.37284943E+02   5.72947502E+01  -7.96042490E+00   2.45245377E+02  -9.55397568E+01   1.96389984E+02  -7.71762657E+00   2.37042145E+02   5.72947502E+01  -7.71282053E+00
             2998                1   2.20000000E+02   2.32207901E+02   2.32207901E+02  -4.80690813E+00   3.45298386E+01   2.32207901E+02   2.32207901E+02   3.45298386E+01  -4.80690813E+00   2.37014801E+02  -8.73102722E+01   2.11870056E+02  -4.75588322E+00   2.32156876E+02   3.45298386E+01  -3.47700000E+00
             2998                2   2.20000000E+02   2.32397842E+02   2.32397842E+02  -3.82198071E+00   3.33549538E+01   2.32397842E+02   2.32397842E+02   3.33549538E+01  -3.82198071E+00   2.36219833E+02  -8.73102722E+01   2.12760071E+02  -3.60222864E+00   2.32178101E+02   3.33549538E+01  -7.20140648E+00
             2998                3   2.20000000E+02   2.31974487E+02   2.31974487E+02  -5.93911505E+00   3.58954620E+01   2.31974487E+02   2.31974487E+02   3.58954620E+01  -5.93911505E+00   2.37913605E+02  -8.73102798E+01   2.10770432E+02  -5.77303267E+00   2.31808395E+02   3.58954620E+01  -6.28389597E+00
             2998                4   2.20000000E+02   2.32161835E+02   2.32161835E+02  -5.03664780E+00   3.48056412E+01   2.32161835E+02   2.32161835E+02   3.48056412E+01  -5.03664780E+00   2.37198486E+02  -8.73102722E+01   2.11653610E+02  -4.61661482E+00   2.31741791E+02   3.48056412E+01  -9.97278786E+00
             2999                1   2.20000000E+02   2.11795975E+02   2.11795975E+02  -2.38445778E+01   1.17860107E+01   2.11795975E+02   2.11795975E+02   1.17860107E+01  -2.38445778E+01   2.35640549E+02  -6.65791397E+01   2.13363312E+02  -2.36606693E+01   2.11612076E+02   1.17860107E+01  -6.58035755E+00
             2999                2   2.20000000E+02   2.11314789E+02   2.11314789E+02  -2.63319817E+01   1.47546215E+01   2.11314789E+02   2.11314789E+02   1.47546215E+01  -2.63319817E+01   2.37646774E+02  -6.65791397E+01   2.11107697E+02  -2.50309658E+01   2.10013763E+02   1.47546215E+01  -1.75354195E+01
             2999                3   2.20000000E+02   2.11267410E+02   2.11267410E+02  -2.65570755E+01   1.50270834E+01   2.11267410E+02   2.11267410E+02   1.50270834E+01  -2.65570755E+01   2.37824493E+02  -6.65791397E+01   2.10884125E+02  -2.65292377E+01   2.11239578E+02   1.50270834E+01   2.57294703E+00
             2999                4   2.20000000E+02   2.10827072E+02   2.10827072E+02  -2.85173302E+01   1.74276924E+01   2.10827072E+02   2.10827072E+02   1.74276924E+01  -2.85173302E+01   2.39344406E+02  -6.65791397E+01   2.08792404E+02  -2.82320099E+01   2.10541748E+02   1.74276924E+01  -8.25885010E+00
             3000                1   2.20000000E+02   2.35665573E+02   2.35665573E+02  -6.36352205E+00   4.78195763E+01   2.35665573E+02   2.35665573E+02   4.78195763E+01  -6.36352205E+00   2.42029099E+02  -9.23738708E+01   2.04162231E+02  -6.36350489E+00   2.35665558E+02   4.78195763E+01  -5.39500676E-02
             3000                2   2.20000000E+02   2.36003433E+02   2.36003433E+02  -5.15563536E+00   4.62738304E+01   2.36003433E+02   2.36003433E+02   4.62738304E+01  -5.15563536E+00   2.41159058E+02  -9.23738708E+01   2.05812469E+02  -5.03655577E+00   2.35884354E+02   4.62738304E+01  -5.35742044E+00
             3000                3   2.20000000E+02   2.35275375E+02   2.35275375E+02  -7.67235470E+00   4.95185966E+01   2.35275375E+02   2.35275375E+02   4.95185966E+01  -7.67235470E+00   2.42947739E+02  -9.23738708E+01   2.02236038E+02  -7.59853172E+00   2.35201553E+02   4.95185966E+01  -4.23451233E+00
             3000                4   2.20000000E+02   2.35593277E+02   2.35593277E+02  -6.61253881E+00   4.81408730E+01   2.35593277E+02   2.35593277E+02   4.81408730E+01  -6.61253881E+00   2.42205826E+02  -9.23738708E+01   2.03807068E+02  -6.24335575E+00   2.35224106E+02   4.81408730E+01  -9.44882965E+00
             3001                1   2.20000000E+02   2.27725998E+02   2.27725998E+02  -8.27154255E+00   2.83093243E+01   2.27725998E+02   2.27725998E+02   2.83093243E+01  -8.27154255E+00   2.35997543E+02  -8.25879288E+01   2.12995941E+02  -8.17701244E+00   2.27631470E+02   2.83093243E+01  -4.72215414E+00
             3001                2   2.20000000E+02   2.27918777E+02   2.27918777E+02  -7.18131781E+00   2.70263252E+01   2.27918777E+02   2.27918777E+02   2.70263252E+01  -7.18131781E+00   2.35100098E+02  -8.25879288E+01   2.13893692E+02  -6.86838436E+00   2.27605835E+02   2.70263252E+01  -8.57171631E+00
             3001                3   2.20000000E+02   2.27495132E+02   2.27495132E+02  -9.48094559E+00   2.97495880E+01   2.27495132E+02   2.27495132E+02   2.97495880E+01  -9.48094559E+00   2.36976074E+02  -8.25879288E+01   2.11915100E+02  -9.22996616E+00   2.27244156E+02   2.97495880E+01  -7.70800352E+00
             3001                4   2.20000000E+02   2.27687546E+02   2.27687546E+02  -8.47971630E+00   2.85559502E+01   2.27687546E+02   2.27687546E+02   2.85559502E+01  -8.47971630E+00   2.36167252E+02  -8.25879288E+01   2.12816345E+02  -7.91425562E+00   2.27122086E+02   2.85559502E+01  -1.15421963E+01
             3002                1   2.20000000E+02   2.14514481E+02   2.14514481E+02  -7.57870626E+00  -3.33080268E+00   2.14514481E+02   2.14514481E+02  -3.33080268E+00  -7.57870626E+00   2.22093185E+02  -6.78683243E+01   2.19907684E+02  -7.18188620E+00   2.14117661E+02  -3.33080268E+00  -9.37943840E+00
             3002                2   2.20000000E+02   2.14533463E+02   2.14533463E+02  -6.04378748E+00  -4.88469839E+00   2.14533463E+02   2.14533463E+02  -4.88469839E+00  -6.04378748E+00   2.20577240E+02  -6.78683243E+01   2.19993118E+02  -5.57219362E+00   2.14061859E+02  -4.88469839E+00  -1.01882982E+01
             3002                3   2.20000000E+02   2.14505859E+02   2.14505859E+02  -7.98171091E+00  -2.91918325E+00   2.14505859E+02   2.14505859E+02  -2.91918325E+00  -7.98171091E+00   2.22487579E+02  -6.78683243E+01   2.19868896E+02  -7.29999876E+00   2.13824158E+02  -2.91918325E+00  -1.22966185E+01
             3002                4   2.20000000E+02   2.14530258E+02   2.14530258E+02  -6.48274899E+00  -4.44253206E+00   2.14530258E+02   2.14530258E+02  -4.44253206E+00  -6.48274899E+00   2.21013016E+02  -6.78683243E+01   2.19978714E+02  -5.69684410E+00   2.13744354E+02  -4.44253206E+00  -1.31559410E+01
             3003                1   2.20000000E+02   1.90249725E+02   1.90249725E+02  -4.07044411E+01  -1.68522797E+01   1.90249725E+02   1.90249725E+02  -1.68522797E+01  -4.07044411E+01   2.30954178E+02  -4.42310028E+01   2.17062363E+02  -4.06726303E+01   1.90217911E+02  -1.68522797E+01  -2.71064997E+00
             3003                2   2.20000000E+02   1.90491867E+02   1.90491867E+02  -3.83415909E+01  -1.94572678E+01   1.90491867E+02   1.90491867E+02  -1.94572678E+01  -3.83415909E+01   2.28833450E+02  -4.42309990E+01   2.18165344E+02  -3.80641785E+01   1.90214447E+02  -1.94572678E+01  -7.96268511E+00
             3003                3   2.20000000E+02   1.89997757E+02   1.89997757E+02  -4.27013321E+01  -1.46034184E+01   1.89997757E+02   1.89997757E+02  -1.46034184E+01  -4.27013321E+01   2.32699081E+02  -4.42309990E+01   2.15907806E+02  -4.24082222E+01   1.89704636E+02  -1.46034184E+01  -8.25357819E+00
             3003                4   2.20000000E+02   1.90261703E+02   1.90261703E+02  -4.06000443E+01  -1.69686470E+01   1.90261703E+02   1.90261703E+02  -1.69686470E+01  -4.06000443E+01   2.30861740E+02  -4.42310028E+01   2.17117035E+02  -3.98016968E+01   1.89463348E+02  -1.69686470E+01  -1.35525246E+01
             3004                1   2.20000000E+02   2.18633240E+02   2.18633240E+02  -3.26734066E+00   5.84419250E-01   2.18633240E+02   2.18633240E+02   5.84419250E-01  -3.26734066E+00   2.21900589E+02  -7.19834366E+01   2.19924118E+02  -2.44102144E+00   2.17806931E+02   5.84419250E-01  -1.35158119E+01
             3004                2   2.20000000E+02   2.18612259E+02   2.18612259E+02  -4.21692705E+00   1.55500960E+00   2.18612259E+02   2.18612259E+02   1.55500960E+00  -4.21692705E+00   2.22829178E+02  -7.19834442E+01   2.19829544E+02  -2.89552069E+00   2.17290848E+02   1.55500960E+00  -1.71085129E+01
             3004                3   2.20000000E+02   2.18600891E+02   2.18600891E+02  -4.61567020E+00   1.96511710E+00   2.18600891E+02   2.18600891E+02   1.96511710E+00  -4.61567020E+00   2.23216553E+02  -7.19834442E+01   2.19778366E+02  -4.13579226E+00   2.18121002E+02   1.96511710E+00  -1.03386374E+01
             3004                4   2.20000000E+02   2.18571457E+02   2.18571457E+02  -5.46998215E+00   2.84886312E+00   2.18571457E+02   2.18571457E+02   2.84886312E+00  -5.46998215E+00   2.24041443E+02  -7.19834442E+01   2.19645721E+02  -4.59983635E+00   2.17701309E+02   2.84886312E+00  -1.39352493E+01
             3005                1   2.20000000E+02   2.17220963E+02   2.17220963E+02  -5.50137234E+00   4.83163074E-02   2.17220963E+02   2.17220963E+02   4.83163074E-02  -5.50137234E+00   2.22722336E+02  -7.05893021E+01   2.19842422E+02  -4.30678129E+00   2.16026367E+02   4.83163074E-02  -1.62676296E+01
             3005                2   2.20000000E+02   2.17181747E+02   2.17181747E+02  -6.74690914E+00   1.33306098E+00   2.17181747E+02   2.17181747E+02   1.33306098E+00  -6.74690914E+00   2.23928665E+02  -7.05893021E+01   2.19665771E+02  -5.85831356E+00   2.16293152E+02   1.33306098E+00  -1.40781355E+01
             3005                3   2.20000000E+02   2.17238403E+02   2.17238403E+02  -4.70055151E+00  -7.69958258E-01   2.17238403E+02   2.17238403E+02  -7.69958258E-01  -4.70055151E+00   2.21938965E+02  -7.05893021E+01   2.19920975E+02  -3.88738561E+00   2.16425247E+02  -7.69958258E-01  -1.34093590E+01
             3005                4   2.20000000E+02   2.17205948E+02   2.17205948E+02  -6.03606081E+00   5.98023951E-01   2.17205948E+02   2.17205948E+02   5.98023951E-01  -6.03606081E+00   2.23242020E+02  -7.05893021E+01   2.19774780E+02  -5.47374392E+00   2.16643631E+02   5.98023951E-01  -1.11900616E+01
             3006                1   2.20000000E+02   2.32606537E+02   2.32606537E+02   1.32733812E+01   1.19456873E+01   2.32606537E+02   2.32606537E+02   1.32733812E+01   1.19456873E+01   2.20660843E+02  -8.59418640E+01   2.19990997E+02   1.35459881E+01   2.32333923E+02   1.19456873E+01  -7.72773504E+00
             3006                2   2.20000000E+02   2.32598877E+02   2.32598877E+02   1.40698938E+01   1.11568146E+01   2.32598877E+02   2.32598877E+02   1.40698938E+01   1.11568146E+01   2.21442062E+02  -8.59418640E+01   2.19956589E+02   1.43177624E+01   2.32351013E+02   1.11568146E+01  -7.35563850E+00
             3006                3   2.20000000E+02   2.32605484E+02   2.32605484E+02   1.34288454E+01   1.17912674E+01   2.32605484E+02   2.32605484E+02   1.34288454E+01   1.17912674E+01   2.20814224E+02  -8.59418640E+01   2.19986298E+02   1.38123760E+01   2.32221954E+02   1.17912674E+01  -9.16047096E+00
             3006                4   2.20000000E+02   2.32596542E+02   2.32596542E+02   1.42386150E+01   1.09904423E+01   2.32596542E+02   2.32596542E+02   1.42386150E+01   1.09904423E+01   2.21606094E+02  -8.59418640E+01   2.19946045E+02   1.45937157E+01   2.32241440E+02   1.09904423E+01  -8.79850674E+00
             3007                1   2.20000000E+02   2.21399139E+02   2.21399139E+02  -6.88979959E+00   1.07501402E+01   2.21399139E+02   2.21399139E+02   1.07501402E+01  -6.88979959E+00   2.28288940E+02  -7.50864944E+01   2.18400421E+02  -6.04514408E+00   2.20554489E+02   1.07501402E+01  -1.38603935E+01
             3007                2   2.20000000E+02   2.21322678E+02   2.21322678E+02  -7.75610638E+00   1.16928978E+01   2.21322678E+02   2.21322678E+02   1.16928978E+01  -7.75610638E+00   2.29078781E+02  -7.50864944E+01   2.18053253E+02  -7.15395498E+00   2.20720535E+02   1.16928978E+01  -1.17292843E+01
             3007                3   2.20000000E+02   2.21468536E+02   2.21468536E+02  -6.01387024E+00   9.80482769E+00   2.21468536E+02   2.21468536E+02   9.80482769E+00  -6.01387024E+00   2.27482407E+02  -7.50864944E+01   2.18714981E+02  -5.39610863E+00   2.20850769E+02   9.80482769E+00  -1.18384781E+01
             3007                4   2.20000000E+02   2.21396957E+02   2.21396957E+02  -6.91569901E+00   1.07782116E+01   2.21396957E+02   2.21396957E+02   1.07782116E+01  -6.91569901E+00   2.28312668E+02  -7.50864944E+01   2.18390549E+02  -6.50072479E+00   2.20981995E+02   1.07782116E+01  -9.72470760E+00
             3008                1   2.20000000E+02   2.19784592E+02   2.19784592E+02  -2.72057700E+00   2.37839174E+00   2.19784592E+02   2.19784592E+02   2.37839174E+00  -2.72057700E+00   2.22505157E+02  -7.31474686E+01   2.19867004E+02  -1.87205136E+00   2.18936066E+02   2.37839174E+00  -1.37142458E+01
             3008                2   2.20000000E+02   2.19799744E+02   2.19799744E+02  -1.95809257E+00   1.60075176E+00   2.19799744E+02   2.19799744E+02   1.60075176E+00  -1.95809257E+00   2.21757828E+02  -7.31474686E+01   2.19935211E+02  -1.43943334E+00   2.19281082E+02   1.60075176E+00  -1.07119904E+01
             3008                3   2.20000000E+02   2.19802933E+02   2.19802933E+02  -1.75048745E+00   1.38996196E+00   2.19802933E+02   2.19802933E+02   1.38996196E+00  -1.75048745E+00   2.21553421E+02  -7.31474686E+01   2.19949554E+02  -5.66799283E-01   2.18619247E+02   1.38996196E+00  -1.61507969E+01
             3008                4   2.20000000E+02   2.19811600E+02   2.19811600E+02  -9.32826579E-01   5.63644767E-01   2.19811600E+02   2.19811600E+02   5.63644767E-01  -9.32826579E-01   2.20744415E+02  -7.31474686E+01   2.19988556E+02  -1.48470938E-01   2.19027237E+02   5.63644767E-01  -1.31349745E+01
             3009                1   2.20000000E+02   2.18190659E+02   2.18190659E+02   3.37713695E+00  -6.65274954E+00   2.18190659E+02   2.18190659E+02   3.37713695E+00  -6.65274954E+00   2.24843414E+02  -7.16383438E+01   2.19484711E+02   3.75736094E+00   2.17810440E+02  -6.65274954E+00  -9.02947044E+00
             3009                2   2.20000000E+02   2.18172440E+02   2.18172440E+02   3.77081537E+00  -7.02820158E+00   2.18172440E+02   2.18172440E+02   3.77081537E+00  -7.02820158E+00   2.25200638E+02  -7.16383514E+01   2.19402481E+02   4.06852674E+00   2.17874725E+02  -7.02820158E+00  -7.98381281E+00
             3009                3   2.20000000E+02   2.18166367E+02   2.18166367E+02   3.89589810E+00  -7.14721584E+00   2.18166367E+02   2.18166367E+02   3.89589810E+00  -7.14721584E+00   2.25313583E+02  -7.16383514E+01   2.19375107E+02   4.33288145E+00   2.17729385E+02  -7.14721584E+00  -9.66657066E+00
             3009                4   2.20000000E+02   2.18145660E+02   2.18145660E+02   4.30388689E+00  -7.53450394E+00   2.18145660E+02   2.18145660E+02   4.30388689E+00  -7.53450394E+00   2.25680176E+02  -7.16383514E+01   2.19281631E+02   4.65061426E+00   2.17798935E+02  -7.53450394E+00  -8.60381985E+00
             3010                1   2.20000000E+02   2.22743439E+02   2.22743439E+02   5.28662014E+00   2.85525501E-01   2.22743439E+02   2.22743439E+02   5.28662014E+00   2.85525501E-01   2.22457916E+02  -7.61051941E+01   2.19872055E+02   5.95739222E+00   2.22072662E+02   2.85525501E-01  -1.20588226E+01
             3010                2   2.20000000E+02   2.22753372E+02   2.22753372E+02   4.79842234E+00   7.63785839E-01   2.22753372E+02   2.22753372E+02   4.79842234E+00   7.63785839E-01   2.21989578E+02  -7.61051865E+01   2.19916763E+02   5.41069746E+00   2.22141098E+02   7.63785839E-01  -1.15356827E+01
             3010                3   2.20000000E+02   2.22740204E+02   2.22740204E+02   5.42689800E+00   1.48489594E-01   2.22740204E+02   2.22740204E+02   5.42689800E+00   1.48489594E-01   2.22591705E+02  -7.61051941E+01   2.19857468E+02   5.98853350E+00   2.22178558E+02   1.48489594E-01  -1.10334501E+01
             3010                4   2.20000000E+02   2.22751343E+02   2.22751343E+02   4.90681553E+00   6.57421887E-01   2.22751343E+02   2.22751343E+02   4.90681553E+00   6.57421887E-01   2.22093918E+02  -7.61051941E+01   2.19907639E+02   5.41276550E+00   2.22245392E+02   6.57421887E-01  -1.04862995E+01
             3011                1   2.20000000E+02   2.04588959E+02   2.04588959E+02  -1.59511814E+01  -1.48669071E+01   2.04588959E+02   2.04588959E+02  -1.48669071E+01  -1.59511814E+01   2.20540131E+02  -5.79236183E+01   2.19993988E+02  -1.54309530E+01   2.04068726E+02  -1.48669071E+01  -1.06986170E+01
             3011                2   2.20000000E+02   2.04562759E+02   2.04562759E+02  -1.78566723E+01  -1.29352198E+01   2.04562759E+02   2.04562759E+02  -1.29352198E+01  -1.78566723E+01   2.22419434E+02  -5.79236183E+01   2.19876083E+02  -1.74392300E+01   2.04145309E+02  -1.29352198E+01  -9.62674332E+00
             3011                3   2.20000000E+02   2.04590286E+02   2.04590286E+02  -1.54049873E+01  -1.54144306E+01   2.04590286E+02   2.04590286E+02  -1.54049873E+01  -1.54144306E+01   2.20004715E+02  -5.79236259E+01   2.20000000E+02  -1.51896276E+01   2.04374924E+02  -1.54144306E+01  -6.87990952E+00
             3011                4   2.20000000E+02   2.04572845E+02   2.04572845E+02  -1.73603153E+01  -1.34416561E+01   2.04572845E+02   2.04572845E+02  -1.34416561E+01  -1.73603153E+01   2.21933151E+02  -5.79236259E+01   2.19921448E+02  -1.72036304E+01   2.04416153E+02  -1.34416561E+01  -5.89487410E+00
             3012                1   2.20000000E+02   2.15379837E+02   2.15379837E+02   1.91609800E+00  -1.06203346E+01   2.15379837E+02   2.15379837E+02   1.91609800E+00  -1.06203346E+01   2.26000168E+02  -6.88918686E+01   2.19194199E+02   2.20221019E+00   2.15093719E+02  -1.06203346E+01  -7.80977297E+00
             3012                2   2.20000000E+02   2.15364090E+02   2.15364090E+02   2.19417334E+00  -1.08826542E+01   2.15364090E+02   2.15364090E+02   2.19417334E+00  -1.08826542E+01   2.26246735E+02  -6.88918686E+01   2.19123032E+02   2.39078593E+00   2.15167465E+02  -1.08826542E+01  -6.47106791E+00
             3012                3   2.20000000E+02   2.15339645E+02   2.15339645E+02   2.60472035E+00  -1.12687769E+01   2.15339645E+02   2.15339645E+02   2.60472035E+00  -1.12687769E+01   2.26608429E+02  -6.88918610E+01   2.19012558E+02   2.92552423E+00   2.15018845E+02  -1.12687769E+01  -8.25486469E+00
             3012                4   2.20000000E+02   2.15321747E+02   2.15321747E+02   2.89147425E+00  -1.15376320E+01   2.15321747E+02   2.15321747E+02   2.89147425E+00  -1.15376320E+01   2.26859390E+02  -6.88918686E+01   2.18931595E+02   3.11619616E+00   2.15097031E+02  -1.15376320E+01  -6.90558672E+00
             3013                1   2.20000000E+02   2.03668594E+02   2.03668594E+02  -2.02605381E+01  -1.21796141E+01   2.03668594E+02   2.03668594E+02  -1.21796141E+01  -2.02605381E+01   2.23929123E+02  -5.70761452E+01   2.19665710E+02  -1.99024124E+01   2.03310471E+02  -1.21796141E+01  -8.94788933E+00
             3013                2   2.20000000E+02   2.03720917E+02   2.03720917E+02  -1.84409389E+01  -1.40515356E+01   2.03720917E+02   2.03720917E+02  -1.40515356E+01  -1.84409389E+01   2.22161865E+02  -5.70761528E+01   2.19901443E+02  -1.79205151E+01   2.03200500E+02  -1.40515356E+01  -1.07399721E+01
             3013                3   2.20000000E+02   2.03634537E+02   2.03634537E+02  -2.10828743E+01  -1.13232155E+01   2.03634537E+02   2.03634537E+02  -1.13232155E+01  -2.10828743E+01   2.24717407E+02  -5.70761528E+01   2.19512146E+02  -2.03746796E+01   2.02926346E+02  -1.13232155E+01  -1.25953207E+01
             3013                4   2.20000000E+02   2.03698929E+02   2.03698929E+02  -1.93422356E+01  -1.31282492E+01   2.03698929E+02   2.03698929E+02  -1.31282492E+01  -1.93422356E+01   2.23041168E+02  -5.70761452E+01   2.19802414E+02  -1.84017162E+01   2.02758408E+02  -1.31282492E+01  -1.44530172E+01
             3014                1   2.20000000E+02   1.95368530E+02   1.95368530E+02  -2.58035717E+01  -2.34403324E+01   1.95368530E+02   1.95368530E+02  -2.34403324E+01  -2.58035717E+01   2.21172104E+02  -4.87082062E+01   2.19971436E+02  -2.52277870E+01   1.94792740E+02  -2.34403324E+01  -1.12701674E+01
             3014                2   2.20000000E+02   1.95324570E+02   1.95324570E+02  -2.79265003E+01  -2.12734470E+01   1.95324570E+02   1.95324570E+02  -2.12734470E+01  -2.79265003E+01   2.23251068E+02  -4.87082062E+01   2.19773499E+02  -2.75046062E+01   1.94902679E+02  -2.12734470E+01  -9.69587421E+00
             3014                3   2.20000000E+02   1.95374207E+02   1.95374207E+02  -2.50052986E+01  -2.42443008E+01   1.95374207E+02   1.95374207E+02  -2.42443008E+01  -2.50052986E+01   2.20379501E+02  -4.87082024E+01   2.19997040E+02  -2.47896843E+01   1.95158600E+02  -2.42443008E+01  -6.88981962E+00
             3014                4   2.20000000E+02   1.95344131E+02   1.95344131E+02  -2.72101936E+01  -2.20093174E+01   1.95344131E+02   1.95344131E+02  -2.20093174E+01  -2.72101936E+01   2.22554321E+02  -4.87082062E+01   2.19861618E+02  -2.70780659E+01   1.95212006E+02  -2.20093174E+01  -5.42111635E+00
             3015                1   2.20000000E+02   2.03610825E+02   2.03610825E+02  -1.62052269E+01  -1.65726852E+01   2.03610825E+02   2.03610825E+02  -1.62052269E+01  -1.65726852E+01   2.20183502E+02  -5.69443054E+01   2.19999313E+02  -1.58846388E+01   2.03290237E+02  -1.65726852E+01  -8.38848972E+00
             3015                2   2.20000000E+02   2.03595993E+02   2.03595993E+02  -1.81969109E+01  -1.45661774E+01   2.03595993E+02   2.03595993E+02  -1.45661774E+01  -1.81969109E+01   2.21792908E+02  -5.69443016E+01   2.19932587E+02  -1.79352798E+01   2.03334366E+02  -1.45661774E+01  -7.61300659E+00
             3015                3   2.20000000E+02   2.03609467E+02   2.03609467E+02  -1.58121185E+01  -1.69644413E+01   2.03609467E+02   2.03609467E+02  -1.58121185E+01  -1.69644413E+01   2.20573914E+02  -5.69443016E+01   2.19993225E+02  -1.57216425E+01   2.03518997E+02  -1.69644413E+01  -4.45452595E+00
             3015                4   2.20000000E+02   2.03601318E+02   2.03601318E+02  -1.78406239E+01  -1.49277925E+01   2.03601318E+02   2.03601318E+02  -1.49277925E+01  -1.78406239E+01   2.21441940E+02  -5.69443016E+01   2.19956604E+02  -1.77762318E+01   2.03536926E+02  -1.49277925E+01  -3.77564836E+00
             3016                1   2.20000000E+02   2.19115723E+02   2.19115723E+02  -2.96382785E+00   1.25600278E+00   2.19115723E+02   2.19115723E+02   1.25600278E+00  -2.96382785E+00   2.22079559E+02  -7.24692993E+01   2.19908920E+02  -2.37823272E+00   2.18530136E+02   1.25600278E+00  -1.13888235E+01
             3016                2   2.20000000E+02   2.19131851E+02   2.19131851E+02  -1.81472659E+00   9.07937288E-02   2.19131851E+02   2.19131851E+02   9.07937288E-02  -1.81472659E+00   2.20946579E+02  -7.24693069E+01   2.19981445E+02  -1.04629540E+00   2.18363419E+02   9.07937288E-02  -1.30073748E+01
             3016                3   2.20000000E+02   2.19103683E+02   2.19103683E+02  -3.51280499E+00   1.81702662E+00   2.19103683E+02   2.19103683E+02   1.81702662E+00  -3.51280499E+00   2.22616486E+02  -7.24693069E+01   2.19854660E+02  -2.62821627E+00   2.18219101E+02   1.81702662E+00  -1.40050278E+01
             3016                4   2.20000000E+02   2.19125137E+02   2.19125137E+02  -2.40207386E+00   6.84845805E-01   2.19125137E+02   2.19125137E+02   6.84845805E-01  -2.40207386E+00   2.21527222E+02  -7.24693069E+01   2.19951263E+02  -1.29104841E+00   2.18014114E+02   6.84845805E-01  -1.56489143E+01
             3017                1   2.20000000E+02   2.26393997E+02   2.26393997E+02   9.68859196E+00   3.24115372E+00   2.26393997E+02   2.26393997E+02   9.68859196E+00   3.24115372E+00   2.23152847E+02  -7.97745819E+01   2.19787277E+02   1.01217890E+01   2.25960800E+02   3.24115372E+00  -9.67935181E+00
             3017                2   2.20000000E+02   2.26398331E+02   2.26398331E+02   9.53511143E+00   3.39029741E+00   2.26398331E+02   2.26398331E+02   9.53511143E+00   3.39029741E+00   2.23008026E+02  -7.97745819E+01   2.19806778E+02   1.00373831E+01   2.25896057E+02   3.39029741E+00  -1.04245939E+01
             3017                3   2.20000000E+02   2.26401184E+02   2.26401184E+02   9.42951393E+00   3.49302626E+00   2.26401184E+02   2.26401184E+02   9.42951393E+00   3.49302626E+00   2.22908157E+02  -7.97745743E+01   2.19819687E+02   9.81603146E+00   2.26014679E+02   3.49302626E+00  -9.14945030E+00
             3017                4   2.20000000E+02   2.26405228E+02   2.26405228E+02   9.27429008E+00   3.64423037E+00   2.26405228E+02   2.26405228E+02   9.27429008E+00   3.64423037E+00   2.22761002E+02  -7.97745819E+01   2.19837830E+02   9.72512531E+00   2.25954391E+02   3.64423037E+00  -9.88370132E+00
             3018                1   2.19999985E+02   1.86587051E+02   1.86587051E+02  -4.63479309E+01  -1.76640778E+01   1.86587051E+02   1.86587051E+02  -1.76640778E+01  -4.63479309E+01   2.32934982E+02  -4.08583488E+01   2.15732864E+02  -4.57830391E+01   1.86022156E+02  -1.76640778E+01  -1.14570704E+01
             3018                2   2.20000000E+02   1.86226746E+02   1.86226746E+02  -4.86887321E+01  -1.49629583E+01   1.86226746E+02   1.86226746E+02  -1.49629583E+01  -4.86887321E+01   2.34915466E+02  -4.08583488E+01   2.14067993E+02  -4.85865974E+01   1.86124603E+02  -1.49629583E+01  -4.89726162E+00
             3018                3   2.20000000E+02   1.86929901E+02   1.86929901E+02  -4.36080322E+01  -2.07468262E+01   1.86929901E+02   1.86929901E+02  -2.07468262E+01  -4.36080322E+01   2.30537933E+02  -4.08583488E+01   2.17303558E+02  -4.34973755E+01   1.86819244E+02  -2.07468262E+01  -5.04961777E+00
             3018                4   2.20000000E+02   1.86590805E+02   1.86590805E+02  -4.63212471E+01  -1.76945114E+01   1.86590805E+02   1.86590805E+02  -1.76945114E+01  -4.63212471E+01   2.32912048E+02  -4.08583488E+01   2.15750107E+02  -4.63111839E+01   1.86580750E+02  -1.76945114E+01   1.53058732E+00
             3019                1   2.20000000E+02   2.30765060E+02   2.30765060E+02   1.51476135E+01   6.62990332E+00   2.30765060E+02   2.30765060E+02   1.51476135E+01   6.62990332E+00   2.24135162E+02  -8.41808548E+01   2.19628555E+02   1.51783886E+01   2.30734283E+02   6.62990332E+00   2.57585263E+00
             3019                2   2.20000000E+02   2.30748352E+02   2.30748352E+02   1.55672894E+01   6.22693634E+00   2.30748352E+02   2.30748352E+02   1.55672894E+01   6.22693634E+00   2.24521423E+02  -8.41808548E+01   2.19553223E+02   1.56788578E+01   2.30636780E+02   6.22693634E+00   4.89859581E+00
             3019                3   2.20000015E+02   2.30730499E+02   2.30730499E+02   1.59792032E+01   5.83287239E+00   2.30730499E+02   2.30730499E+02   1.59792032E+01   5.83287239E+00   2.24897629E+02  -8.41808548E+01   2.19472656E+02   1.59827156E+01   2.30726990E+02   5.83287239E+00   8.67964506E-01
             3019                4   2.20000000E+02   2.30708145E+02   2.30708145E+02   1.64532585E+01   5.38116121E+00   2.30708145E+02   2.30708145E+02   1.64532585E+01   5.38116121E+00   2.25326996E+02  -8.41808548E+01   2.19371811E+02   1.64997578E+01   2.30661652E+02   5.38116121E+00   3.15598845E+00
             3020                1   2.20000000E+02   2.16554886E+02   2.16554886E+02  -7.86435032E+00   1.25789094E+00   2.16554886E+02   2.16554886E+02   1.25789094E+00  -7.86435032E+00   2.24419235E+02  -6.99828110E+01   2.19573883E+02  -7.09501743E+00   2.15785553E+02   1.25789094E+00  -1.31172190E+01
             3020                2   2.20000000E+02   2.16489914E+02   2.16489914E+02  -9.19394016E+00   2.65244675E+00   2.16489914E+02   2.16489914E+02   2.65244675E+00  -9.19394016E+00   2.25683853E+02  -6.99828110E+01   2.19280670E+02  -7.76867676E+00   2.15064651E+02   2.65244675E+00  -1.78781319E+01
             3020                3   2.20000000E+02   2.16478790E+02   2.16478790E+02  -9.39138412E+00   2.86102438E+00   2.16478790E+02   2.16478790E+02   2.86102438E+00  -9.39138412E+00   2.25870178E+02  -6.99828110E+01   2.19230392E+02  -9.00895882E+00   2.16096359E+02   2.86102438E+00  -9.28615761E+00
             3020                4   2.20000000E+02   2.16405304E+02   2.16405304E+02  -1.05545664E+01   4.09768629E+00   2.16405304E+02   2.16405304E+02   4.09768629E+00  -1.05545664E+01   2.26959869E+02  -6.99828110E+01   2.18898163E+02  -9.67394066E+00   2.15524673E+02   4.09768629E+00  -1.41100159E+01
             3021                1   2.20000000E+02   1.82981384E+02   1.82981384E+02  -4.16563797E+01  -3.20672798E+01   1.82981384E+02   1.82981384E+02  -3.20672798E+01  -4.16563797E+01   2.24637756E+02  -3.64192390E+01   2.19529068E+02  -4.09281044E+01   1.82253098E+02  -3.20672798E+01  -1.27698441E+01
             3021                2   2.20000000E+02   1.82847443E+02   1.82847443E+02  -4.40348358E+01  -2.95549068E+01   1.82847443E+02   1.82847443E+02  -2.95549068E+01  -4.40348358E+01   2.26882278E+02  -3.64192314E+01   2.18924026E+02  -4.36434441E+01   1.82456055E+02  -2.95549068E+01  -9.41519642E+00
             3021                3   2.20000000E+02   1.83041367E+02   1.83041367E+02  -4.00218086E+01  -3.37618446E+01   1.83041367E+02   1.83041367E+02  -3.37618446E+01  -4.00218086E+01   2.23063187E+02  -3.64192390E+01   2.19799484E+02  -3.97772522E+01   1.82796814E+02  -3.37618446E+01  -7.38187265E+00
             3021                4   2.20000000E+02   1.82935226E+02   1.82935226E+02  -4.25948639E+01  -3.10826511E+01   1.82935226E+02   1.82935226E+02  -3.10826511E+01  -4.25948639E+01   2.25530090E+02  -3.64192390E+01   2.19320770E+02  -4.25191040E+01   1.82859467E+02  -3.10826511E+01  -4.13279295E+00
             3022                1   2.20000000E+02   2.23840561E+02   2.23840561E+02   5.86890793E+00   1.86683488E+00   2.23840561E+02   2.23840561E+02   5.86890793E+00   1.86683488E+00   2.21973724E+02  -7.71921005E+01   2.19918060E+02   6.47475481E+00   2.23234711E+02   1.86683488E+00  -1.14757099E+01
             3022                2   2.20000000E+02   2.23846069E+02   2.23846069E+02   5.53619146E+00   2.19403911E+00   2.23846069E+02   2.23846069E+02   5.53619146E+00   2.19403911E+00   2.21652039E+02  -7.71921005E+01   2.19942856E+02   6.34243488E+00   2.23039825E+02   2.19403911E+00  -1.32424126E+01
             3022                3   2.20000000E+02   2.23850754E+02   2.23850754E+02   5.19081545E+00   2.53473997E+00   2.23850754E+02   2.23850754E+02   5.19081545E+00   2.53473997E+00   2.21316010E+02  -7.71921005E+01   2.19963913E+02   5.67580748E+00   2.23365753E+02   2.53473997E+00  -1.02865973E+01
             3022                4   2.20000000E+02   2.23854111E+02   2.23854111E+02   4.87376213E+00   2.84843540E+00   2.23854111E+02   2.23854111E+02   4.87376213E+00   2.84843540E+00   2.21005676E+02  -7.71921005E+01   2.19979034E+02   5.53817558E+00   2.23189697E+02   2.84843540E+00  -1.20437746E+01
             3023                1   2.20000000E+02   2.15386688E+02   2.15386688E+02  -8.92938709E+00  -2.69607846E-02   2.15386688E+02   2.15386688E+02  -2.69607846E-02  -8.92938709E+00   2.24316086E+02  -6.88101120E+01   2.19594193E+02  -8.38892937E+00   2.14846237E+02  -2.69607846E-02  -1.09973078E+01
             3023                2   2.20000000E+02   2.15435135E+02   2.15435135E+02  -7.52879667E+00  -1.47600687E+00   2.15435135E+02   2.15435135E+02  -1.47600687E+00  -7.52879667E+00   2.22963928E+02  -6.88101120E+01   2.19812546E+02  -6.71642303E+00   2.14622772E+02  -1.47600687E+00  -1.34338512E+01
             3023                3   2.20000000E+02   2.15345444E+02   2.15345444E+02  -9.83171177E+00   9.16611493E-01   2.15345444E+02   2.15345444E+02   9.16611493E-01  -9.83171177E+00   2.25177155E+02  -6.88101120E+01   2.19408096E+02  -8.90944958E+00   2.14423187E+02   9.16611493E-01  -1.43812618E+01
             3023                4   2.20000015E+02   2.15403503E+02   2.15403503E+02  -8.50158119E+00  -4.71553922E-01   2.15403503E+02   2.15403503E+02  -4.71553922E-01  -8.50158119E+00   2.23905075E+02  -6.88101196E+01   2.19669907E+02  -7.22508812E+00   2.14126999E+02  -4.71553922E-01  -1.68577938E+01
             3024                1   2.20000000E+02   2.21142532E+02   2.21142532E+02   6.14540482E+00  -3.54040718E+00   2.21142532E+02   2.21142532E+02   6.14540482E+00  -3.54040718E+00   2.24682938E+02  -7.45825119E+01   2.19519501E+02   6.58238745E+00   2.20705551E+02  -3.54040718E+00  -9.68286705E+00
             3024                2   2.20000000E+02   2.21162491E+02   2.21162491E+02   5.65901613E+00  -3.07397103E+00   2.21162491E+02   2.21162491E+02   5.65901613E+00  -3.07397103E+00   2.24236450E+02  -7.45825119E+01   2.19609512E+02   6.17314339E+00   2.20648361E+02  -3.07397103E+00  -1.05133944E+01
             3024                3   2.20000000E+02   2.21160065E+02   2.21160065E+02   5.72089386E+00  -3.13341856E+00   2.21160065E+02   2.21160065E+02   5.72089386E+00  -3.13341856E+00   2.24293472E+02  -7.45825119E+01   2.19598572E+02   6.09409857E+00   2.20786850E+02  -3.13341856E+00  -8.95902634E+00
             3024                4   2.20000000E+02   2.21177826E+02   2.21177826E+02   5.24663019E+00  -2.67690945E+00   2.21177826E+02   2.21177826E+02   5.24663019E+00  -2.67690945E+00   2.23854736E+02  -7.45825119E+01   2.19678619E+02   5.69080782E+00   2.20733643E+02  -2.67690945E+00  -9.78341579E+00
             3025                1   2.18914642E+02   1.61007431E+02   1.61007431E+02  -6.13342285E+01  -5.43111839E+01   1.61007431E+02   1.61007431E+02  -5.43111839E+01  -6.13342285E+01   2.22341660E+02  -1.51206732E+01   2.18660965E+02  -6.12013359E+01   1.60874542E+02  -5.43111839E+01  -5.43404293E+00
             3025                2   2.19112686E+02   1.61003220E+02   1.61003220E+02  -6.43145142E+01  -5.13266678E+01   1.61003220E+02   1.61003220E+02  -5.13266678E+01  -6.43145142E+01   2.25317734E+02  -1.51206770E+01   2.18244110E+02  -6.43064041E+01   1.60995102E+02  -5.13266678E+01  -1.35166788E+00
             3025                3   2.18298096E+02   1.60642456E+02   1.60642456E+02  -5.91386108E+01  -5.61418190E+01   1.60642456E+02   1.60642456E+02  -5.61418190E+01  -5.91386108E+01   2.19781067E+02  -1.51206751E+01   2.18251816E+02  -5.91346741E+01   1.60638519E+02  -5.61418190E+01   9.30120051E-01
             3025                4   2.18967575E+02   1.60998184E+02   1.60998184E+02  -6.25172729E+01  -5.31188812E+01   1.60998184E+02   1.60998184E+02  -5.31188812E+01  -6.25172729E+01   2.23515457E+02  -1.51206770E+01   2.18513092E+02  -6.24099998E+01   1.60890915E+02  -5.31188812E+01   4.89535761E+00
             3026                1   2.20000000E+02   2.30150345E+02   2.30150345E+02  -1.11656590E+01   4.07541199E+01   2.30150345E+02   2.30150345E+02   4.07541199E+01  -1.11656590E+01   2.41315994E+02  -8.65795975E+01   2.05526337E+02  -1.07057419E+01   2.29690430E+02   4.07541199E+01  -1.05248222E+01
             3026                2   2.20000000E+02   2.29831421E+02   2.29831421E+02  -1.22955408E+01   4.22029381E+01   2.29831421E+02   2.29831421E+02   4.22029381E+01  -1.22955408E+01   2.42126953E+02  -8.65795975E+01   2.03966370E+02  -1.21845608E+01   2.29720428E+02   4.22029381E+01  -5.18269396E+00
             3026                3   2.20000000E+02   2.30566010E+02   2.30566010E+02  -9.58525562E+00   3.87580490E+01   2.30566010E+02   2.30566010E+02   3.87580490E+01  -9.58525562E+00   2.40151276E+02  -8.65795975E+01   2.07538406E+02  -9.41965866E+00   2.30400421E+02   3.87580490E+01  -6.30397367E+00
             3026                4   2.20000000E+02   2.30227707E+02   2.30227707E+02  -1.08813229E+01   4.03924179E+01   2.30227707E+02   2.30227707E+02   4.03924179E+01  -1.08813229E+01   2.41109039E+02  -8.65795975E+01   2.05902649E+02  -1.08782949E+01   2.30224686E+02   4.03924179E+01  -8.54254425E-01
             3027                1   2.20000000E+02   2.14820709E+02   2.14820709E+02  -1.33440161E+01   4.01378679E+00   2.14820709E+02   2.14820709E+02   4.01378679E+00  -1.33440161E+01   2.28164734E+02  -6.84968338E+01   2.18451416E+02  -1.24587879E+01   2.13935486E+02   4.01378679E+00  -1.41843071E+01
             3027                2   2.20000000E+02   2.14921783E+02   2.14921783E+02  -1.20048485E+01   2.57354665E+00   2.14921783E+02   2.14921783E+02   2.57354665E+00  -1.20048485E+01   2.26926636E+02  -6.84968262E+01   2.18909286E+02  -1.16694479E+01   2.14586380E+02   2.57354665E+00  -8.71771908E+00
             3027                3   2.20000000E+02   2.14929626E+02   2.14929626E+02  -1.18896437E+01   2.45050526E+00   2.14929626E+02   2.14929626E+02   2.45050526E+00  -1.18896437E+01   2.26819260E+02  -6.84968262E+01   2.18944778E+02  -1.03680763E+01   2.13408051E+02   2.45050526E+00  -1.85150337E+01
             3027                4   2.20000000E+02   2.15013702E+02   2.15013702E+02  -1.05006762E+01   9.77446973E-01   2.15013702E+02   2.15013702E+02   9.77446973E-01  -1.05006762E+01   2.25514389E+02  -6.84968262E+01   2.19324799E+02  -9.78250885E+00   2.14295547E+02   9.77446973E-01  -1.27058887E+01
             3028                1   2.20000000E+02   2.31491745E+02   2.31491745E+02  -1.35633450E+01   5.09900818E+01   2.31491745E+02   2.31491745E+02   5.09900818E+01  -1.35633450E+01   2.45055099E+02  -8.96394958E+01   1.96940430E+02  -1.32138033E+01   2.31142212E+02   5.09900818E+01  -9.24845886E+00
             3028                2   2.20000000E+02   2.30926865E+02   2.30926865E+02  -1.50885468E+01   5.30801735E+01   2.30926865E+02   2.30926865E+02   5.30801735E+01  -1.50885468E+01   2.46015411E+02  -8.96394958E+01   1.94013870E+02  -1.50811415E+01   2.30919464E+02   5.30801735E+01  -1.34927595E+00
             3028                3   2.20000000E+02   2.32192978E+02   2.32192978E+02  -1.15071716E+01   4.82326927E+01   2.32192978E+02   2.32192978E+02   4.82326927E+01  -1.15071716E+01   2.43700150E+02  -8.96394958E+01   2.00498749E+02  -1.14802723E+01   2.32166077E+02   4.82326927E+01  -2.56028628E+00
             3028                4   2.20000000E+02   2.31579620E+02   2.31579620E+02  -1.33162308E+01   5.06550903E+01   2.31579620E+02   2.31579620E+02   5.06550903E+01  -1.33162308E+01   2.44895859E+02  -8.96394958E+01   1.97390762E+02  -1.31990767E+01   2.31462479E+02   5.06550903E+01   5.35495710E+00
             3029                1   2.20000000E+02   2.24299850E+02   2.24299850E+02  -1.59926167E+01   3.27768402E+01   2.24299850E+02   2.24299850E+02   3.27768402E+01  -1.59926167E+01   2.40292465E+02  -8.03613586E+01   2.07307648E+02  -1.54111519E+01   2.23718384E+02   3.27768402E+01  -1.18061171E+01
             3029                2   2.20000000E+02   2.23959900E+02   2.23959900E+02  -1.72822247E+01   3.44064178E+01   2.23959900E+02   2.23959900E+02   3.44064178E+01  -1.72822247E+01   2.41242126E+02  -8.03613663E+01   2.05661621E+02  -1.71253738E+01   2.23803040E+02   3.44064178E+01  -6.14950991E+00
             3029                3   2.20000000E+02   2.24726593E+02   2.24726593E+02  -1.42342138E+01   3.05916882E+01   2.24726593E+02   2.24726593E+02   3.05916882E+01  -1.42342138E+01   2.38960815E+02  -8.03613586E+01   2.09352097E+02  -1.40365152E+01   2.24528900E+02   3.05916882E+01  -6.87047482E+00
             3029                4   2.20000000E+02   2.24363022E+02   2.24363022E+02  -1.57428598E+01   3.24639168E+01   2.24363022E+02   2.24363022E+02   3.24639168E+01  -1.57428598E+01   2.40105881E+02  -8.03613586E+01   2.07611786E+02  -1.57381954E+01   2.24358353E+02   3.24639168E+01  -1.05892456E+00
             3030                1   2.20000000E+02   2.17885345E+02   2.17885345E+02  -1.75255795E+01   1.74981632E+01   2.17885345E+02   2.17885345E+02   1.74981632E+01  -1.75255795E+01   2.35410934E+02  -7.26193161E+01   2.13592361E+02  -1.65467587E+01   2.16906525E+02   1.74981632E+01  -1.51482134E+01
             3030                2   2.20000000E+02   2.17599533E+02   2.17599533E+02  -1.90771255E+01   1.93355236E+01   2.17599533E+02   2.17599533E+02   1.93355236E+01  -1.90771255E+01   2.36676666E+02  -7.26193161E+01   2.12257660E+02  -1.87020931E+01   2.17224503E+02   1.93355236E+01  -9.41392899E+00
             3030                3   2.20000000E+02   2.18195374E+02   2.18195374E+02  -1.56296377E+01   1.52921972E+01   2.18195374E+02   2.18195374E+02   1.52921972E+01  -1.56296377E+01   2.33825012E+02  -7.26193085E+01   2.15029373E+02  -1.52533607E+01   2.17819092E+02   1.52921972E+01  -9.37241554E+00
             3030                4   2.20000000E+02   2.17899719E+02   2.17899719E+02  -1.74431763E+01   1.74013920E+01   2.17899719E+02   2.17899719E+02   1.74013920E+01  -1.74431763E+01   2.35342896E+02  -7.26193161E+01   2.13659195E+02  -1.73903179E+01   2.17846863E+02   1.74013920E+01  -3.52658296E+00
             3031                1   2.19999985E+02   1.71000610E+02   1.71000610E+02  -4.99780769E+01  -4.80074387E+01   1.71000610E+02   1.71000610E+02  -4.80074387E+01  -4.99780769E+01   2.20978699E+02  -2.43383656E+01   2.19980133E+02  -4.96239014E+01   1.70646439E+02  -4.80074387E+01  -8.83967876E+00
             3031                2   2.20000000E+02   1.70936691E+02   1.70936691E+02  -5.28378601E+01  -4.50837326E+01   1.70936691E+02   1.70936691E+02  -4.50837326E+01  -5.28378601E+01   2.23774551E+02  -2.43383656E+01   2.19692230E+02  -5.26497002E+01   1.70748535E+02  -4.50837326E+01  -6.48607540E+00
             3031                3   2.20000000E+02   1.71004822E+02   1.71004822E+02  -4.87781258E+01  -4.92115860E+01   1.71004822E+02   1.71004822E+02  -4.87781258E+01  -4.92115860E+01   2.20216415E+02  -2.43383713E+01   2.19999039E+02  -4.87428017E+01   1.70969498E+02  -4.92115860E+01  -2.78630948E+00
             3031                4   2.20000000E+02   1.70969025E+02   1.70969025E+02  -5.17918892E+01  -4.61620255E+01   1.70969025E+02   1.70969025E+02  -4.61620255E+01  -5.17918892E+01   2.22760910E+02  -2.43383694E+01   2.19837845E+02  -5.17901993E+01   1.70967331E+02  -4.61620255E+01  -6.12818658E-01
             3032                1   2.20000000E+02   2.24677536E+02   2.24677536E+02  -1.84700832E+01   3.93901176E+01   2.24677536E+02   2.24677536E+02   3.93901176E+01  -1.84700832E+01   2.43147629E+02  -8.18658600E+01   2.01789383E+02  -1.79868088E+01   2.24194260E+02   3.93901176E+01  -1.08293705E+01
             3032                2   2.20000000E+02   2.24172012E+02   2.24172012E+02  -2.00289021E+01   4.14544487E+01   2.24172012E+02   2.24172012E+02   4.14544487E+01  -2.00289021E+01   2.44200912E+02  -8.18658524E+01   1.99252792E+02  -1.99858704E+01   2.24128983E+02   4.14544487E+01  -3.24136686E+00
             3032                3   2.20000000E+02   2.25289230E+02   2.25289230E+02  -1.64095993E+01   3.67179146E+01   2.25289230E+02   2.25289230E+02   3.67179146E+01  -1.64095993E+01   2.41698837E+02  -8.18658524E+01   2.04807373E+02  -1.63292465E+01   2.25208893E+02   3.67179146E+01  -4.40600300E+00
             3032                4   2.20000000E+02   2.24749268E+02   2.24749268E+02  -1.82390728E+01   3.90873680E+01   2.24749268E+02   2.24749268E+02   3.90873680E+01  -1.82390728E+01   2.42988342E+02  -8.18658524E+01   2.02146149E+02  -1.81980190E+01   2.24708206E+02   3.90873680E+01   3.15836334E+00
             3033                1   2.20000000E+02   2.11873505E+02   2.11873505E+02  -2.37763462E+01   1.18788710E+01   2.11873505E+02   2.11873505E+02   1.18788710E+01  -2.37763462E+01   2.35649841E+02  -6.66586761E+01   2.13353912E+02  -2.32926483E+01   2.11389801E+02   1.18788710E+01  -1.06653280E+01
             3033                2   2.20000000E+02   2.12163513E+02   2.12163513E+02  -2.20497074E+01   9.86223602E+00   2.12163513E+02   2.12163513E+02   9.86223602E+00  -2.20497074E+01   2.34213211E+02  -6.66586838E+01   2.14700134E+02  -2.20328350E+01   2.12146637E+02   9.86223602E+00  -1.98771667E+00
             3033                3   2.20000000E+02   2.12184036E+02   2.12184036E+02  -2.19189110E+01   9.71090984E+00   2.12184036E+02   2.12184036E+02   9.71090984E+00  -2.19189110E+01   2.34102951E+02  -6.66586761E+01   2.14795090E+02  -2.05452118E+01   2.10810333E+02   9.71090984E+00  -1.78801613E+01
             3033                4   2.20000000E+02   2.12488144E+02   2.12488144E+02  -1.98080196E+01   7.29590178E+00   2.12488144E+02   2.12488144E+02   7.29590178E+00  -1.98080196E+01   2.32296173E+02  -6.66586761E+01   2.16195862E+02  -1.94411068E+01   2.12121231E+02   7.29590178E+00  -9.22492695E+00
             3034                1   2.20000000E+02   1.58970322E+02   1.58970322E+02  -6.28055954E+01  -5.92096977E+01   1.58970322E+02   1.58970322E+02  -5.92096977E+01  -6.28055954E+01   2.21775909E+02  -1.23183403E+01   2.19933868E+02  -6.25302620E+01   1.58694977E+02  -5.92096977E+01  -7.80944633E+00
             3034                2   2.20000000E+02   1.58868134E+02   1.58868134E+02  -6.60262451E+01  -5.58868713E+01   1.58868134E+02   1.58868134E+02  -5.58868713E+01  -6.60262451E+01   2.24894379E+02  -1.23183365E+01   2.19473373E+02  -6.59437790E+01   1.58785660E+02  -5.58868713E+01  -4.30587435E+00
             3034                3   2.20000000E+02   1.58985001E+02   1.58985001E+02  -6.10255928E+01  -6.10043945E+01   1.58985001E+02   1.58985001E+02  -6.10043945E+01  -6.10255928E+01   2.20010590E+02  -1.23183365E+01   2.20000000E+02  -6.10222549E+01   1.58981659E+02  -6.10043945E+01  -8.57665241E-01
             3034                4   2.20000000E+02   1.58929428E+02   1.58929428E+02  -6.44836273E+01  -5.74907951E+01   1.58929428E+02   1.58929428E+02  -5.74907951E+01  -6.44836273E+01   2.23413055E+02  -1.23183374E+01   2.19749741E+02  -6.44564590E+01   1.58902267E+02  -5.74907951E+01   2.46325302E+00
             3035                1   2.20000000E+02   1.72864349E+02   1.72864349E+02  -5.40551109E+01  -3.94926453E+01   1.72864349E+02   1.72864349E+02  -3.94926453E+01  -5.40551109E+01   2.26919464E+02  -2.64388638E+01   2.18911682E+02  -5.35389862E+01   1.72348221E+02  -3.94926453E+01  -1.08098307E+01
             3035                2   2.20000000E+02   1.72644211E+02   1.72644211E+02  -5.67300606E+01  -3.65975647E+01   1.72644211E+02   1.72644211E+02  -3.65975647E+01  -5.67300606E+01   2.29374283E+02  -2.64388638E+01   2.17913055E+02  -5.65822868E+01   1.72496445E+02  -3.65975647E+01  -5.82003546E+00
             3035                3   2.20000000E+02   1.72998947E+02   1.72998947E+02  -5.16828842E+01  -4.19994545E+01   1.72998947E+02   1.72998947E+02  -4.19994545E+01  -5.16828842E+01   2.24681824E+02  -2.64388676E+01   2.19519745E+02  -5.15934944E+01   1.72909546E+02  -4.19994545E+01  -4.48076439E+00
             3035                4   2.20000000E+02   1.72820633E+02   1.72820633E+02  -5.46650276E+01  -3.88390160E+01   1.72820633E+02   1.72820633E+02  -3.88390160E+01  -5.46650276E+01   2.27485657E+02  -2.64388638E+01   2.18713791E+02  -5.46642456E+01   1.72819855E+02  -3.88390160E+01   4.21299279E-01
             3036                1   2.20000000E+02   2.12097961E+02   2.12097961E+02  -2.23277740E+01   1.01299648E+01   2.12097961E+02   2.12097961E+02   1.01299648E+01  -2.23277740E+01   2.34425735E+02  -6.66333847E+01   2.14513885E+02  -2.17537842E+01   2.11523972E+02   1.01299648E+01  -1.15857029E+01
             3036                2   2.20000000E+02   2.12362503E+02   2.12362503E+02  -2.05699081E+01   8.10754871E+00   2.12362503E+02   2.12362503E+02   8.10754871E+00  -2.05699081E+01   2.32932419E+02  -6.66333847E+01   2.15734802E+02  -2.05093269E+01   2.12301926E+02   8.10754871E+00  -3.75611520E+00
             3036                3   2.20000000E+02   2.12385315E+02   2.12385315E+02  -2.04064407E+01   7.92127514E+00   2.12385315E+02   2.12385315E+02   7.92127514E+00  -2.04064407E+01   2.32791748E+02  -6.66333847E+01   2.15839661E+02  -1.89320641E+01   2.10910934E+02   7.92127514E+00  -1.84674911E+01
             3036                4   2.20000000E+02   2.12640106E+02   2.12640106E+02  -1.84057598E+01   5.66580820E+00   2.12640106E+02   2.12640106E+02   5.66580820E+00  -1.84057598E+01   2.31045868E+02  -6.66333847E+01   2.17007538E+02  -1.79461288E+01   2.12180466E+02   5.66580820E+00  -1.02949677E+01
             3037                1   2.20000000E+02   2.29564850E+02   2.29564850E+02  -1.06936321E+01   3.79730797E+01   2.29564850E+02   2.29564850E+02   3.79730797E+01  -1.06936321E+01   2.40258484E+02  -8.56147690E+01   2.07363495E+02  -1.02016964E+01   2.29072906E+02   3.79730797E+01  -1.08605299E+01
             3037                2   2.20000000E+02   2.29265900E+02   2.29265900E+02  -1.18349609E+01   3.94133682E+01   2.29265900E+02   2.29265900E+02   3.94133682E+01  -1.18349609E+01   2.41100861E+02  -8.56147690E+01   2.05917313E+02  -1.16988592E+01   2.29129791E+02   3.94133682E+01  -5.72690296E+00
             3037                3   2.20000000E+02   2.29945786E+02   2.29945786E+02  -9.12842751E+00   3.60269432E+01   2.29945786E+02   2.29945786E+02   3.60269432E+01  -9.12842751E+00   2.39074203E+02  -8.56147690E+01   2.09188980E+02  -8.93892002E+00   2.29756271E+02   3.60269432E+01  -6.72834444E+00
             3037                4   2.20000000E+02   2.29629120E+02   2.29629120E+02  -1.04388638E+01   3.76540298E+01   2.29629120E+02   2.29629120E+02   3.76540298E+01  -1.04388638E+01   2.40067993E+02  -8.56147690E+01   2.07672852E+02  -1.04299116E+01   2.29620178E+02   3.76540298E+01  -1.46558213E+00
             3038                1   2.20000000E+02   2.26382812E+02   2.26382812E+02   5.69456339E+00   7.07757807E+00   2.26382812E+02   2.26382812E+02   7.07757807E+00   5.69456339E+00   2.20688248E+02  -7.97183151E+01   2.19990219E+02   5.82297087E+00   2.26254410E+02   7.07757807E+00  -5.32172680E+00
             3038                2   2.20000000E+02   2.26383255E+02   2.26383255E+02   7.00276566E+00   5.76893520E+00   2.26383255E+02   2.26383255E+02   7.00276566E+00   5.76893520E+00   2.20614319E+02  -7.97183151E+01   2.19992203E+02   7.13629198E+00   2.26249725E+02   5.76893520E+00  -5.41065407E+00
             3038                3   2.20000000E+02   2.26382355E+02   2.26382355E+02   5.62517452E+00   7.14743662E+00   2.26382355E+02   2.26382355E+02   7.14743662E+00   5.62517452E+00   2.20757172E+02  -7.97183151E+01   2.19988144E+02   5.89560843E+00   2.26111908E+02   7.14743662E+00  -7.72194958E+00
             3038                4   2.20000000E+02   2.26383652E+02   2.26383652E+02   6.92900801E+00   5.84229851E+00   2.26383652E+02   2.26383652E+02   6.92900801E+00   5.84229851E+00   2.20541351E+02  -7.97183151E+01   2.19993973E+02   7.21021175E+00   2.26102448E+02   5.84229851E+00  -7.85053825E+00
             3039                1   2.20000000E+02   2.05984406E+02   2.05984406E+02  -2.68526287E+01   1.58755350E+00   2.05984406E+02   2.05984406E+02   1.58755350E+00  -2.68526287E+01   2.32837036E+02  -6.02397766E+01   2.15806091E+02  -2.56074352E+01   2.04739212E+02   1.58755350E+00  -1.69816418E+01
             3039                2   2.20000000E+02   2.05696854E+02   2.05696854E+02  -2.87679043E+01   3.79037952E+00   2.05696854E+02   2.05696854E+02   3.79037952E+00  -2.87679043E+01   2.34464767E+02  -6.02397766E+01   2.14479187E+02  -2.82921352E+01   2.05221085E+02   3.79037952E+00  -1.05511265E+01
             3039                3   2.20000000E+02   2.06257812E+02   2.06257812E+02  -2.47016964E+01  -8.36789072E-01   2.06257812E+02   2.06257812E+02  -8.36789072E-01  -2.47016964E+01   2.30959518E+02  -6.02397766E+01   2.17059219E+02  -2.42692204E+01   2.05825348E+02  -8.36789072E-01  -9.98478889E+00
             3039                4   2.20000000E+02   2.05979660E+02   2.05979660E+02  -2.68866558E+01   1.62632823E+00   2.05979660E+02   2.05979660E+02   1.62632823E+00  -2.68866558E+01   2.32866318E+02  -6.02397766E+01   2.15784271E+02  -2.68280067E+01   2.05921005E+02   1.62632823E+00  -3.69524026E+00
             3040                1   2.20000000E+02   2.17786255E+02   2.17786255E+02  -2.12948208E+01   2.38805637E+01   2.17786255E+02   2.17786255E+02   2.38805637E+01  -2.12948208E+01   2.39081085E+02  -7.34573364E+01   2.09179031E+02  -2.03329182E+01   2.16824356E+02   2.38805637E+01  -1.51343260E+01
             3040                2   2.20000000E+02   2.17359253E+02   2.17359253E+02  -2.30397301E+01   2.60524826E+01   2.17359253E+02   2.17359253E+02   2.60524826E+01  -2.30397301E+01   2.40398987E+02  -7.34573364E+01   2.07131302E+02  -2.28171711E+01   2.17136688E+02   2.60524826E+01  -7.31121826E+00
             3040                3   2.20000015E+02   2.18261597E+02   2.18261597E+02  -1.91222134E+01   2.12326183E+01   2.18261597E+02   2.18261597E+02   2.12326183E+01  -1.91222134E+01   2.37383820E+02  -7.34573364E+01   2.11431046E+02  -1.89304161E+01   2.18069809E+02   2.12326183E+01  -6.74477148E+00
             3040                4   2.20000000E+02   2.17800842E+02   2.17800842E+02  -2.12321568E+01   2.38033295E+01   2.17800842E+02   2.17800842E+02   2.38033295E+01  -2.12321568E+01   2.39032990E+02  -7.34573364E+01   2.09248505E+02  -2.12272968E+01   2.17795975E+02   2.38033295E+01   1.07794929E+00
             3041                1   2.20000000E+02   2.25442871E+02   2.25442871E+02   7.46403694E+00   3.47591901E+00   2.25442871E+02   2.25442871E+02   7.46403694E+00   3.47591901E+00   2.21966949E+02  -7.87942734E+01   2.19918640E+02   8.00548649E+00   2.24901413E+02   3.47591901E+00  -1.08504763E+01
             3041                2   2.20000000E+02   2.25437485E+02   2.25437485E+02   7.74430752E+00   3.20102382E+00   2.25437485E+02   2.25437485E+02   7.74430752E+00   3.20102382E+00   2.22236465E+02  -7.87942734E+01   2.19894424E+02   8.17070103E+00   2.25011093E+02   3.20102382E+00  -9.62501812E+00
             3041                3   2.20000000E+02   2.25434555E+02   2.25434555E+02   7.88370228E+00   3.06457162E+00   2.25434555E+02   2.25434555E+02   7.88370228E+00   3.06457162E+00   2.22369980E+02  -7.87942734E+01   2.19881195E+02   8.52726078E+00   2.24790985E+02   3.06457162E+00  -1.18149881E+01
             3041                4   2.20000000E+02   2.25427490E+02   2.25427490E+02   8.19023895E+00   2.76508665E+00   2.25427490E+02   2.25427490E+02   8.19023895E+00   2.76508665E+00   2.22662399E+02  -7.87942734E+01   2.19849411E+02   8.71124172E+00   2.24906479E+02   2.76508665E+00  -1.06259108E+01
             3042                1   2.20000000E+02   2.22925278E+02   2.22925278E+02  -1.20626507E+01   2.18519726E+01   2.22925278E+02   2.22925278E+02   2.18519726E+01  -1.20626507E+01   2.34987930E+02  -7.75715332E+01   2.14000000E+02  -1.13107424E+01   2.22173370E+02   2.18519726E+01  -1.32711496E+01
             3042                2   2.20000000E+02   2.22717987E+02   2.22717987E+02  -1.32421236E+01   2.32387333E+01   2.22717987E+02   2.22717987E+02   2.32387333E+01  -1.32421236E+01   2.35960114E+02  -7.75715332E+01   2.13035080E+02  -1.28975945E+01   2.22373459E+02   2.32387333E+01  -9.00974846E+00
             3042                3   2.20000000E+02   2.23147690E+02   2.23147690E+02  -1.06768646E+01   2.02437763E+01   2.23147690E+02   2.23147690E+02   2.02437763E+01  -1.06768646E+01   2.33824554E+02  -7.75715332E+01   2.15029785E+02  -1.02593794E+01   2.22730209E+02   2.02437763E+01  -9.87131119E+00
             3042                4   2.20000000E+02   2.22947235E+02   2.22947235E+02  -1.19318275E+01   2.16991920E+01   2.22947235E+02   2.22947235E+02   2.16991920E+01  -1.19318275E+01   2.34879059E+02  -7.75715332E+01   2.14101944E+02  -1.17926054E+01   2.22808014E+02   2.16991920E+01  -5.71678352E+00
             3043                1   2.20000000E+02   2.39567841E+02   2.39567841E+02   1.95157814E+01   1.96199226E+01   2.39567841E+02   2.39567841E+02   1.96199226E+01   1.95157814E+01   2.20052048E+02  -9.29011841E+01   2.19999939E+02   1.95751114E+01   2.39508514E+02   1.96199226E+01  -3.61253071E+00
             3043                2   2.20000000E+02   2.39565460E+02   2.39565460E+02   2.02957134E+01   1.88423920E+01   2.39565460E+02   2.39565460E+02   2.02957134E+01   1.88423920E+01   2.20723068E+02  -9.29011841E+01   2.19989212E+02   2.03466358E+01   2.39514526E+02   1.88423920E+01  -3.34134245E+00
             3043                3   2.20000015E+02   2.39567841E+02   2.39567841E+02   1.96261578E+01   1.95095558E+01   2.39567841E+02   2.39567841E+02   1.96261578E+01   1.95095558E+01   2.20058289E+02  -9.29011841E+01   2.19999939E+02   1.97402935E+01   2.39453705E+02   1.95095558E+01  -5.00903130E+00
             3043                4   2.20000000E+02   2.39564621E+02   2.39564621E+02   2.04105339E+01   1.87283764E+01   2.39564621E+02   2.39564621E+02   2.04105339E+01   1.87283764E+01   2.20836243E+02  -9.29011765E+01   2.19985550E+02   2.05135765E+01   2.39461594E+02   1.87283764E+01  -4.75087690E+00
             3044                1   2.20000000E+02   2.11647812E+02   2.11647812E+02   3.51459384E+00  -1.85553303E+01   2.11647812E+02   2.11647812E+02   3.51459384E+00  -1.85553303E+01   2.30203140E+02  -6.55356903E+01   2.17488525E+02   3.61229205E+00   2.11550110E+02  -1.85553303E+01  -4.50823355E+00
             3044                2   2.20000000E+02   2.11637802E+02   2.11637802E+02   3.61846972E+00  -1.86491985E+01   2.11637802E+02   2.11637802E+02   3.61846972E+00  -1.86491985E+01   2.30287003E+02  -6.55356903E+01   2.17442932E+02   3.64080429E+00   2.11615463E+02  -1.86491985E+01  -2.15553617E+00
             3044                3   2.20000000E+02   2.11515015E+02   2.11515015E+02   4.82859373E+00  -1.97365379E+01   2.11515015E+02   2.11515015E+02   4.82859373E+00  -1.97365379E+01   2.31251556E+02  -6.55356903E+01   2.16882294E+02   4.93394995E+00   2.11409668E+02  -1.97365379E+01  -4.66513872E+00
             3044                4   2.20000000E+02   2.11503326E+02   2.11503326E+02   4.93820715E+00  -1.98344536E+01   2.11503326E+02   2.11503326E+02   4.93820715E+00  -1.98344536E+01   2.31337769E+02  -6.55356903E+01   2.16828812E+02   4.96328497E+00   2.11478241E+02  -1.98344536E+01  -2.27598286E+00
             3045                1   2.20000000E+02   2.25801224E+02   2.25801224E+02   1.18041382E+01   2.53378153E-01   2.25801224E+02   2.25801224E+02   1.18041382E+01   2.53378153E-01   2.25547852E+02  -7.92862473E+01   2.19316208E+02   1.19629316E+01   2.25642426E+02   2.53378153E-01  -5.82728100E+00
             3045                2   2.20000000E+02   2.25801575E+02   2.25801575E+02   1.17972250E+01   2.59937704E-01   2.25801575E+02   2.25801575E+02   1.17972250E+01   2.59937704E-01   2.25541641E+02  -7.92862473E+01   2.19317810E+02   1.20109196E+01   2.25587875E+02   2.59937704E-01  -6.75922298E+00
             3045                3   2.20000000E+02   2.25823395E+02   2.25823395E+02   1.13545742E+01   6.80772960E-01   2.25823395E+02   2.25823395E+02   1.13545742E+01   6.80772960E-01   2.25142609E+02  -7.92862473E+01   2.19416290E+02   1.15260725E+01   2.25651886E+02   6.80772960E-01  -6.06239843E+00
             3045                4   2.20000000E+02   2.25823761E+02   2.25823761E+02   1.13466225E+01   6.88347518E-01   2.25823761E+02   2.25823761E+02   1.13466225E+01   6.88347518E-01   2.25135406E+02  -7.92862473E+01   2.19417969E+02   1.15751295E+01   2.25595245E+02   6.88347518E-01  -6.99702358E+00
             3046                1   2.20000000E+02   2.26782822E+02   2.26782822E+02   7.92156744E+00   5.66148233E+00   2.26782822E+02   2.26782822E+02   7.92156744E+00   5.66148233E+00   2.21121338E+02  -8.01219559E+01   2.19973877E+02   8.39228916E+00   2.26312103E+02   5.66148233E+00  -1.01390810E+01
             3046                2   2.20000000E+02   2.26772247E+02   2.26772247E+02   8.69473743E+00   4.89888048E+00   2.26772247E+02   2.26772247E+02   8.69473743E+00   4.89888048E+00   2.21873367E+02  -8.01219559E+01   2.19926300E+02   9.15890694E+00   2.26308075E+02   4.89888048E+00  -1.00503292E+01
             3046                3   2.20000000E+02   2.26781876E+02   2.26781876E+02   8.01066780E+00   5.57332897E+00   2.26781876E+02   2.26781876E+02   8.01066780E+00   5.57332897E+00   2.21208542E+02  -8.01219559E+01   2.19969620E+02   8.62016201E+00   2.26172379E+02   5.57332897E+00  -1.15311937E+01
             3046                4   2.20000000E+02   2.26770355E+02   2.26770355E+02   8.80187702E+00   4.79362440E+00   2.26770355E+02   2.26770355E+02   8.80187702E+00   4.79362440E+00   2.21976730E+02  -8.01219559E+01   2.19917816E+02   9.40542793E+00   2.26166809E+02   4.79362440E+00  -1.14538355E+01
             3047                1   2.20000000E+02   2.01668091E+02   2.01668091E+02  -3.66499672E+01   6.32915831E+00   2.01668091E+02   2.01668091E+02   6.32915831E+00  -3.66499672E+01   2.38318054E+02  -5.71157646E+01   2.10240997E+02  -3.64811935E+01   2.01499329E+02   6.32915831E+00   6.33965158E+00
             3047                2   2.19999985E+02   2.02289597E+02   2.02289597E+02  -3.35473709E+01   2.60505843E+00   2.02289597E+02   2.02289597E+02   2.60505843E+00  -3.35473709E+01   2.35836975E+02  -5.71157646E+01   2.13162872E+02  -3.34965515E+01   2.02238785E+02   2.60505843E+00  -3.46153784E+00
             3047                3   2.20000000E+02   2.01107208E+02   2.01107208E+02  -3.90290718E+01   9.26915836E+00   2.01107208E+02   2.01107208E+02   9.26915836E+00  -3.90290718E+01   2.40136292E+02  -5.71157684E+01   2.07562637E+02  -3.89961891E+01   2.01074326E+02   9.26915836E+00  -2.81006646E+00
             3047                4   2.20000000E+02   2.01701797E+02   2.01701797E+02  -3.64961357E+01   6.14164782E+00   2.01701797E+02   2.01701797E+02   6.14164782E+00  -3.64961357E+01   2.38197937E+02  -5.71157684E+01   2.10400604E+02  -3.58304749E+01   2.01036133E+02   6.14164782E+00  -1.25744247E+01
             3048                1   2.20000000E+02   2.17947250E+02   2.17947250E+02  -1.10320673E+01   8.18767929E+00   2.17947250E+02   2.17947250E+02   8.18767929E+00  -1.10320673E+01   2.28979309E+02  -7.17009506E+01   2.18099167E+02  -9.89845181E+00   2.16813629E+02   8.18767929E+00  -1.60713806E+01
             3048                2   2.20000000E+02   2.17803741E+02   2.17803741E+02  -1.24776278E+01   9.77674580E+00   2.17803741E+02   2.17803741E+02   9.77674580E+00  -1.24776278E+01   2.30281372E+02  -7.17009506E+01   2.17445999E+02  -1.18616676E+01   2.17187775E+02   9.77674580E+00  -1.18939276E+01
             3048                3   2.20000000E+02   2.18058212E+02   2.18058212E+02  -9.72383022E+00   6.76847696E+00   2.18058212E+02   2.18058212E+02   6.76847696E+00  -9.72383022E+00   2.27782043E+02  -7.17009506E+01   2.18602707E+02  -9.04867077E+00   2.17383057E+02   6.76847696E+00  -1.23827438E+01
             3048                4   2.20000000E+02   2.17928040E+02   2.17928040E+02  -1.12393303E+01   8.41415977E+00   2.17928040E+02   2.17928040E+02   8.41415977E+00  -1.12393303E+01   2.29167358E+02  -7.17009506E+01   2.18011841E+02  -1.09345255E+01   2.17623230E+02   8.41415977E+00  -8.35215950E+00
             3049                1   2.20000000E+02   2.27027878E+02   2.27027878E+02   1.39778414E+01   6.81079626E-01   2.27027878E+02   2.27027878E+02   1.39778414E+01   6.81079626E-01   2.26346802E+02  -8.05622635E+01   2.19093185E+02   1.39919558E+01   2.27013763E+02   6.81079626E-01   1.73423445E+00
             3049                2   2.20000000E+02   2.27005981E+02   2.27005981E+02   1.43413744E+01   3.39450061E-01   2.27005981E+02   2.27005981E+02   1.43413744E+01   3.39450061E-01   2.26666534E+02  -8.05622635E+01   2.18994141E+02   1.43414001E+01   2.27005951E+02   3.39450061E-01  -7.43029043E-02
             3049                3   2.20000000E+02   2.27071152E+02   2.27071152E+02   1.31978636E+01   1.41778910E+00   2.27071152E+02   2.27071152E+02   1.31978636E+01   1.41778910E+00   2.25653366E+02  -8.05622635E+01   2.19288712E+02   1.32011490E+01   2.27067856E+02   1.41778910E+00   8.39254797E-01
             3049                4   2.20000000E+02   2.27052521E+02   2.27052521E+02   1.35449305E+01   1.08933544E+00   2.27052521E+02   2.27052521E+02   1.35449305E+01   1.08933544E+00   2.25963196E+02  -8.05622635E+01   2.19204575E+02   1.35491829E+01   2.27048279E+02   1.08933544E+00  -9.52428579E-01
             3050                1   2.20000000E+02   2.28342377E+02   2.28342377E+02   8.01448154E+00   8.67173672E+00   2.28342377E+02   2.28342377E+02   8.67173672E+00   8.01448154E+00   2.20327896E+02  -8.16762009E+01   2.19997787E+02   8.30599689E+00   2.28050858E+02   8.67173672E+00  -8.00903225E+00
             3050                2   2.20000000E+02   2.28340195E+02   2.28340195E+02   9.11102104E+00   7.57738447E+00   2.28340195E+02   2.28340195E+02   9.11102104E+00   7.57738447E+00   2.20762817E+02  -8.16762009E+01   2.19987976E+02   9.39795780E+00   2.28053253E+02   7.57738447E+00  -7.92616415E+00
             3050                3   2.20000000E+02   2.28342407E+02   2.28342407E+02   8.02597523E+00   8.66020775E+00   2.28342407E+02   2.28342407E+02   8.66020775E+00   8.02597523E+00   2.20316422E+02  -8.16761932E+01   2.19997940E+02   8.48080349E+00   2.27887573E+02   8.66020775E+00  -9.99997139E+00
             3050                4   2.20000000E+02   2.28340103E+02   2.28340103E+02   9.12303352E+00   7.56544638E+00   2.28340103E+02   2.28340103E+02   9.12303352E+00   7.56544638E+00   2.20774658E+02  -8.16761932E+01   2.19987595E+02   9.57509041E+00   2.27888046E+02   7.56544638E+00  -9.94453239E+00
             3051                1   2.20000000E+02   2.10672104E+02   2.10672104E+02  -1.69683094E+01  -7.94824719E-01   2.10672104E+02   2.10672104E+02  -7.94824719E-01  -1.69683094E+01   2.27640411E+02  -6.43029861E+01   2.18656448E+02  -1.55601082E+01   2.09263901E+02  -7.94824719E-01  -1.78488483E+01
             3051                2   2.20000000E+02   2.10524857E+02   2.10524857E+02  -1.86926537E+01   1.07676077E+00   2.10524857E+02   2.10524857E+02   1.07676077E+00  -1.86926537E+01   2.29217514E+02  -6.43029861E+01   2.17988144E+02  -1.79261913E+01   2.09758392E+02   1.07676077E+00  -1.32324924E+01
             3051                3   2.20000000E+02   2.10777908E+02   2.10777908E+02  -1.54271441E+01  -2.44180441E+00   2.10777908E+02   2.10777908E+02  -2.44180441E+00  -1.54271441E+01   2.26205063E+02  -6.43029861E+01   2.19135284E+02  -1.46815081E+01   2.10032272E+02  -2.44180441E+00  -1.29657946E+01
             3051                4   2.20000000E+02   2.10640503E+02   2.10640503E+02  -1.73704910E+01  -3.61062139E-01   2.10640503E+02   2.10640503E+02  -3.61062139E-01  -1.73704910E+01   2.28011002E+02  -6.43029861E+01   2.18513275E+02  -1.70695610E+01   2.10339584E+02  -3.61062139E-01  -8.27791595E+00
             3052                1   2.20000000E+02   2.12096954E+02   2.12096954E+02  -1.44005308E+01  -7.71893740E-01   2.12096954E+02   2.12096954E+02  -7.71893740E-01  -1.44005308E+01   2.26497482E+02  -6.56415100E+01   2.19047226E+02  -1.40080070E+01   2.11704437E+02  -7.71893740E-01  -9.42076206E+00
             3052                2   2.20000000E+02   2.12183868E+02   2.12183868E+02  -1.28580599E+01  -2.40127063E+00   2.12183868E+02   2.12183868E+02  -2.40127063E+00  -1.28580599E+01   2.25041931E+02  -6.56415100E+01   2.19439819E+02  -1.21030912E+01   2.11428894E+02  -2.40127063E+00  -1.30126972E+01
             3052                3   2.20000000E+02   2.12011459E+02   2.12011459E+02  -1.56188107E+01   5.31886458E-01   2.12011459E+02   2.12011459E+02   5.31886458E-01  -1.56188107E+01   2.27630280E+02  -6.56415176E+01   2.18660233E+02  -1.47789021E+01   2.11171555E+02   5.31886458E-01  -1.38015833E+01
             3052                4   2.20000000E+02   2.12109879E+02   2.12109879E+02  -1.41955566E+01  -9.89777029E-01   2.12109879E+02   2.12109879E+02  -9.89777029E-01  -1.41955566E+01   2.26305435E+02  -6.56415176E+01   2.19105606E+02  -1.28441315E+01   2.10758453E+02  -9.89777029E-01  -1.74358425E+01
             3053                1   2.20000000E+02   2.09487564E+02   2.09487564E+02  -1.98209019E+01   1.59046933E-01   2.09487564E+02   2.09487564E+02   1.59046933E-01  -1.98209019E+01   2.29308456E+02  -6.32752342E+01   2.17944763E+02  -1.95792141E+01   2.09245865E+02   1.59046933E-01  -7.44070292E+00
             3053                2   2.20000000E+02   2.09650421E+02   2.09650421E+02  -1.79161930E+01  -1.90852785E+00   2.09650421E+02   2.09650421E+02  -1.90852785E+00  -1.79161930E+01   2.27566605E+02  -6.32752342E+01   2.18683960E+02  -1.72481232E+01   2.08982346E+02  -1.90852785E+00  -1.23119507E+01
             3053                3   2.20000000E+02   2.09331818E+02   2.09331818E+02  -2.13262062E+01   1.82007909E+00   2.09331818E+02   2.09331818E+02   1.82007909E+00  -2.13262062E+01   2.30658035E+02  -6.32752342E+01   2.17235260E+02  -2.06244621E+01   2.08630081E+02   1.82007909E+00  -1.27031355E+01
             3053                4   2.20000000E+02   2.09502991E+02   2.09502991E+02  -1.96577187E+01  -1.95796061E-02   2.09502991E+02   2.09502991E+02  -1.95796061E-02  -1.96577187E+01   2.29160721E+02  -6.32752342E+01   2.18014954E+02  -1.83153057E+01   2.08160583E+02  -1.95796061E-02  -1.74878788E+01
             3054                1   2.20000000E+02   2.25582397E+02   2.25582397E+02   1.09150906E+01   6.11761212E-01   2.25582397E+02   2.25582397E+02   1.09150906E+01   6.11761212E-01   2.24970627E+02  -7.90364151E+01   2.19456161E+02   1.12743015E+01   2.25223175E+02   6.11761212E-01   8.77400017E+00
             3054                2   2.20000000E+02   2.25540146E+02   2.25540146E+02   1.17698908E+01  -2.00798452E-01   2.25540146E+02   2.25540146E+02   1.17698908E+01  -2.00798452E-01   2.25740952E+02  -7.90364151E+01   2.19265457E+02   1.19864178E+01   2.25323624E+02  -2.00798452E-01   6.80004501E+00
             3054                3   2.20000000E+02   2.25611740E+02   2.25611740E+02   1.02308016E+01   1.26670039E+00   2.25611740E+02   2.25611740E+02   1.02308016E+01   1.26670039E+00   2.24345047E+02  -7.90364151E+01   2.19588547E+02   1.04537516E+01   2.25388794E+02   1.26670039E+00   6.92598104E+00
             3054                4   2.19999985E+02   2.25575867E+02   2.25575867E+02   1.10556479E+01   4.77719277E-01   2.25575867E+02   2.25575867E+02   1.10556479E+01   4.77719277E-01   2.25098145E+02  -7.90364151E+01   2.19426727E+02   1.11694193E+01   2.25462097E+02   4.77719277E-01   4.93893719E+00
             3055                1   2.20000000E+02   2.11658508E+02   2.11658508E+02  -2.30948811E+01   1.02096071E+01   2.11658508E+02   2.11658508E+02   1.02096071E+01  -2.30948811E+01   2.34753387E+02  -6.62577438E+01   2.14218185E+02  -2.28350163E+01   2.11398651E+02   1.02096071E+01  -7.80611038E+00
             3055                2   2.20000000E+02   2.11238068E+02   2.11238068E+02  -2.54382458E+01   1.29734259E+01   2.11238068E+02   2.11238068E+02   1.29734259E+01  -2.54382458E+01   2.36676315E+02  -6.62577438E+01   2.12258072E+02  -2.41682320E+01   2.09968048E+02   1.29734259E+01  -1.72907505E+01
             3055                3   2.20000000E+02   2.11224594E+02   2.11224594E+02  -2.55075836E+01   1.30562344E+01   2.11224594E+02   2.11224594E+02   1.30562344E+01  -2.55075836E+01   2.36732178E+02  -6.62577438E+01   2.12194946E+02  -2.55068130E+01   2.11223816E+02   1.30562344E+01   4.29279715E-01
             3055                4   2.20000000E+02   2.10815002E+02   2.10815002E+02  -2.74855709E+01   1.54438143E+01   2.10815002E+02   2.10815002E+02   1.54438143E+01  -2.74855709E+01   2.38300583E+02  -6.62577515E+01   2.10264328E+02  -2.71658993E+01   2.10495331E+02   1.54438143E+01  -8.72223091E+00
             3056                1   2.20000000E+02   2.07041199E+02   2.07041199E+02  -2.46005249E+01   9.06526327E-01   2.07041199E+02   2.07041199E+02   9.06526327E-01  -2.46005249E+01   2.31641724E+02  -6.11157341E+01   2.16635849E+02  -2.44827843E+01   2.06923462E+02   9.06526327E-01  -5.22100973E+00
             3056                2   2.20000000E+02   2.07271088E+02   2.07271088E+02  -2.25587196E+01  -1.36517024E+00   2.07271088E+02   2.07271088E+02  -1.36517024E+00  -2.25587196E+01   2.29829819E+02  -6.11157341E+01   2.17685532E+02  -2.20362988E+01   2.06748672E+02  -1.36517024E+00  -1.09450788E+01
             3056                3   2.20000000E+02   2.06810425E+02   2.06810425E+02  -2.63304977E+01   2.86728191E+00   2.06810425E+02   2.06810425E+02   2.86728191E+00  -2.63304977E+01   2.33140915E+02  -6.11157341E+01   2.15576294E+02  -2.57980633E+01   2.06277985E+02   2.86728191E+00  -1.11287165E+01
             3056                4   2.20000000E+02   2.07049103E+02   2.07049103E+02  -2.45364952E+01   8.34601998E-01   2.07049103E+02   2.07049103E+02   8.34601998E-01  -2.45364952E+01   2.31585587E+02  -6.11157341E+01   2.16672012E+02  -2.33001118E+01   2.05812714E+02   8.34601998E-01  -1.68760281E+01
             3057                1   2.20000000E+02   2.00994812E+02   2.00994812E+02  -3.67968140E+01   4.69514942E+00   2.00994812E+02   2.00994812E+02   4.69514942E+00  -3.67968140E+01   2.37791626E+02  -5.62977142E+01   2.10925797E+02  -3.65228958E+01   2.00720901E+02   4.69514942E+00   8.06590271E+00
             3057                2   2.20000000E+02   2.01601959E+02   2.01601959E+02  -3.36269264E+01   9.18113530E-01   2.01601959E+02   2.01601959E+02   9.18113530E-01  -3.36269264E+01   2.35228897E+02  -5.62977142E+01   2.13770065E+02  -3.36200218E+01   2.01595062E+02   9.18113530E-01  -1.27406621E+00
             3057                3   2.20000000E+02   2.00416809E+02   2.00416809E+02  -3.93329811E+01   7.80933714E+00   2.00416809E+02   2.00416809E+02   7.80933714E+00  -3.93329811E+01   2.39749786E+02  -5.62977257E+01   2.08175735E+02  -3.93275795E+01   2.00411407E+02   7.80933714E+00  -1.13833916E+00
             3057                4   2.20000000E+02   2.00985321E+02   2.00985321E+02  -3.68416710E+01   4.74951458E+00   2.00985321E+02   2.00985321E+02   4.74951458E+00  -3.68416710E+01   2.37826981E+02  -5.62977180E+01   2.10880936E+02  -3.64181747E+01   2.00561813E+02   4.74951458E+00  -1.00270071E+01
             3058                1   2.20000000E+02   2.08771820E+02   2.08771820E+02  -3.32733917E+01   2.09615955E+01   2.08771820E+02   2.08771820E+02   2.09615955E+01  -3.32733917E+01   2.42045212E+02  -6.54866714E+01   2.04130081E+02  -3.31814461E+01   2.08679871E+02   2.09615955E+01  -4.71671104E+00
             3058                2   2.20000000E+02   2.09307968E+02   2.09307968E+02  -3.13219433E+01   1.84739799E+01   2.09307968E+02   2.09307968E+02   1.84739799E+01  -3.13219433E+01   2.40629913E+02  -6.54866714E+01   2.06741989E+02  -3.08588486E+01   2.08844879E+02   1.84739799E+01   1.05460119E+01
             3058                3   2.20000000E+02   2.09548660E+02   2.09548660E+02  -3.03758793E+01   1.72872467E+01   2.09548660E+02   2.09548660E+02   1.72872467E+01  -3.03758793E+01   2.39924530E+02  -6.54866714E+01   2.07901688E+02  -2.90436401E+01   2.08216415E+02   1.72872467E+01  -1.78286800E+01
             3058                4   2.20000000E+02   2.10189911E+02   2.10189911E+02  -2.75787888E+01   1.38488922E+01   2.10189911E+02   2.10189911E+02   1.38488922E+01  -2.75787888E+01   2.37768692E+02  -6.54866714E+01   2.10954773E+02  -2.75614738E+01   2.10172592E+02   1.38488922E+01  -2.02874112E+00
             3059                1   2.20000000E+02   2.30010345E+02   2.30010345E+02   1.02655716E+01   9.75598526E+00   2.30010345E+02   2.30010345E+02   1.02655716E+01   9.75598526E+00   2.20254349E+02  -8.33439636E+01   2.19998672E+02   1.05987730E+01   2.29677139E+02   9.75598526E+00  -8.55030155E+00
             3059                2   2.20000000E+02   2.30004211E+02   2.30004211E+02   1.12025557E+01   8.82513428E+00   2.30004211E+02   2.30004211E+02   1.12025557E+01   8.82513428E+00   2.21179077E+02  -8.33439713E+01   2.19971100E+02   1.15192537E+01   2.29687515E+02   8.82513428E+00  -8.31831741E+00
             3059                3   2.20000000E+02   2.30010071E+02   2.30010071E+02   1.03584070E+01   9.66340256E+00   2.30010071E+02   2.30010071E+02   1.03584070E+01   9.66340256E+00   2.20346680E+02  -8.33439636E+01   2.19997528E+02   1.08354836E+01   2.29533005E+02   9.66340256E+00  -1.02255659E+01
             3059                4   2.20000000E+02   2.30003143E+02   2.30003143E+02   1.12985229E+01   8.73023033E+00   2.30003143E+02   2.30003143E+02   1.12985229E+01   8.73023033E+00   2.21272919E+02  -8.33439636E+01   2.19966278E+02   1.17579260E+01   2.29543747E+02   8.73023033E+00  -1.00130453E+01
             3060                1   2.20000000E+02   2.16959274E+02   2.16959274E+02   6.34864807E+00  -1.13597527E+01   2.16959274E+02   2.16959274E+02   6.34864807E+00  -1.13597527E+01   2.28319031E+02  -7.06493912E+01   2.18387909E+02   6.46250010E+00   2.16845428E+02  -1.13597527E+01  -4.89531755E+00
             3060                2   2.20000000E+02   2.16946487E+02   2.16946487E+02   6.51227522E+00  -1.15105791E+01   2.16946487E+02   2.16946487E+02   6.51227522E+00  -1.15105791E+01   2.28457062E+02  -7.06493912E+01   2.18329819E+02   6.55373240E+00   2.16905029E+02  -1.15105791E+01  -2.95313811E+00
             3060                3   2.20000000E+02   2.16874191E+02   2.16874191E+02   7.38910246E+00  -1.23151226E+01   2.16874191E+02   2.16874191E+02   7.38910246E+00  -1.23151226E+01   2.29189316E+02  -7.06493912E+01   2.18001480E+02   7.51537085E+00   2.16747925E+02  -1.23151226E+01  -5.14142799E+00
             3060                4   2.20000000E+02   2.16859375E+02   2.16859375E+02   7.56018162E+00  -1.24713640E+01   2.16859375E+02   2.16859375E+02   7.56018162E+00  -1.24713640E+01   2.29330734E+02  -7.06493988E+01   2.17934067E+02   7.60829926E+00   2.16811249E+02  -1.24713640E+01  -3.17336369E+00
             3061                1   2.20000000E+02   2.38766083E+02   2.38766083E+02   1.95148926E+01   1.80248394E+01   2.38766083E+02   2.38766083E+02   1.95148926E+01   1.80248394E+01   2.20741241E+02  -9.21019363E+01   2.19988647E+02   1.96288700E+01   2.38652100E+02   1.80248394E+01  -4.99779701E+00
             3061                2   2.20000000E+02   2.38760269E+02   2.38760269E+02   2.01262074E+01   1.74193211E+01   2.38760269E+02   2.38760269E+02   2.01262074E+01   1.74193211E+01   2.21340942E+02  -9.21019287E+01   2.19962540E+02   2.02168980E+01   2.38669586E+02   1.74193211E+01  -4.45191240E+00
             3061                3   2.20000000E+02   2.38764191E+02   2.38764191E+02   1.97560406E+01   1.77855721E+01   2.38764191E+02   2.38764191E+02   1.97560406E+01   1.77855721E+01   2.20978622E+02  -9.21019363E+01   2.19980133E+02   1.99246712E+01   2.38595566E+02   1.77855721E+01  -6.07470512E+00
             3061                4   2.20000000E+02   2.38756958E+02   2.38756958E+02   2.03748722E+01   1.71739826E+01   2.38756958E+02   2.38756958E+02   2.03748722E+01   1.71739826E+01   2.21582977E+02  -9.21019363E+01   2.19947601E+02   2.05152359E+01   2.38616592E+02   1.71739826E+01  -5.53486204E+00
             3062                1   2.20000000E+02   2.30072189E+02   2.30072189E+02   1.51218166E+01   5.34831047E+00   2.30072189E+02   2.30072189E+02   1.51218166E+01   5.34831047E+00   2.24723877E+02  -8.35141068E+01   2.19510742E+02   1.52390537E+01   2.29954941E+02   5.34831047E+00  -5.01872969E+00
             3062                2   2.20000000E+02   2.30075348E+02   2.30075348E+02   1.50483589E+01   5.41858721E+00   2.30075348E+02   2.30075348E+02   1.50483589E+01   5.41858721E+00   2.24656754E+02  -8.35140991E+01   2.19525055E+02   1.52016487E+01   2.29922058E+02   5.41858721E+00  -5.73908997E+00
             3062                3   2.20000000E+02   2.30083481E+02   2.30083481E+02   1.48550730E+01   5.60374498E+00   2.30083481E+02   2.30083481E+02   1.48550730E+01   5.60374498E+00   2.24479736E+02  -8.35140991E+01   2.19561722E+02   1.49536352E+01   2.29984924E+02   5.60374498E+00  -4.60458040E+00
             3062                4   2.20000000E+02   2.30087540E+02   2.30087540E+02   1.47552137E+01   5.69953251E+00   2.30087540E+02   2.30087540E+02   1.47552137E+01   5.69953251E+00   2.24388016E+02  -8.35140991E+01   2.19580063E+02   1.48846951E+01   2.29958069E+02   5.69953251E+00  -5.27858973E+00
             3063                1   2.20000000E+02   2.22531693E+02   2.22531693E+02   4.18613768E+00   9.13774431E-01   2.22531693E+02   2.22531693E+02   4.18613768E+00   9.13774431E-01   2.21617920E+02  -7.58772049E+01   2.19945221E+02   4.99428654E+00   2.21723541E+02   9.13774431E-01   1.32591133E+01
             3063                2   2.20000000E+02   2.22514862E+02   2.22514862E+02   5.08420086E+00   3.25424261E-02   2.22514862E+02   2.22514862E+02   5.08420086E+00   3.25424261E-02   2.22482315E+02  -7.58772049E+01   2.19869431E+02   5.70930004E+00   2.21889755E+02   3.25424261E-02   1.16415653E+01
             3063                3   2.20000000E+02   2.22537445E+02   2.22537445E+02   3.73468995E+00   1.35945714E+00   2.22537445E+02   2.22537445E+02   3.73468995E+00   1.35945714E+00   2.21177994E+02  -7.58771973E+01   2.19971146E+02   4.32844591E+00   2.21943695E+02   1.35945714E+00   1.13825655E+01
             3063                4   2.20000000E+02   2.22524582E+02   2.22524582E+02   4.61334658E+00   4.93673384E-01   2.22524582E+02   2.22524582E+02   4.61334658E+00   4.93673384E-01   2.22030899E+02  -7.58771973E+01   2.19913193E+02   5.04953384E+00   2.22088394E+02   4.93673384E-01   9.73955822E+00
             3064                1   2.20000000E+02   2.11086639E+02   2.11086639E+02   3.80445385E+00  -1.97376728E+01   2.11086639E+02   2.11086639E+02   3.80445385E+00  -1.97376728E+01   2.30824310E+02  -6.50511398E+01   2.17138977E+02   3.80610299E+00   2.11084991E+02  -1.97376728E+01   5.85305214E-01
             3064                2   2.20000000E+02   2.11091904E+02   2.11091904E+02   3.75277805E+00  -1.96912651E+01   2.11091904E+02   2.11091904E+02   3.75277805E+00  -1.96912651E+01   2.30783173E+02  -6.50511398E+01   2.17163010E+02   3.79804039E+00   2.11046646E+02  -1.96912651E+01   3.06291008E+00
             3064                3   2.20000000E+02   2.10935928E+02   2.10935928E+02   5.20664024E+00  -2.09891548E+01   2.10935928E+02   2.10935928E+02   5.20664024E+00  -2.09891548E+01   2.31925079E+02  -6.50511398E+01   2.16449509E+02   5.20859289E+00   2.10933975E+02  -2.09891548E+01   6.32971644E-01
             3064                4   2.20000000E+02   2.10942078E+02   2.10942078E+02   5.15197039E+00  -2.09406395E+01   2.10942078E+02   2.10942078E+02   5.15197039E+00  -2.09406395E+01   2.31882721E+02  -6.50511398E+01   2.16477753E+02   5.20020533E+00   2.10893845E+02  -2.09406395E+01   3.15039515E+00
             3065                1   2.20000000E+02   2.22074646E+02   2.22074646E+02   9.44568634E+00  -4.62130404E+00   2.22074646E+02   2.22074646E+02   9.44568634E+00  -4.62130404E+00   2.26695938E+02  -7.56330032E+01   2.18984741E+02   9.57275486E+00   2.21947571E+02  -4.62130404E+00  -5.19635487E+00
             3065                2   2.20000000E+02   2.22064438E+02   2.22064438E+02   9.60816765E+00  -4.77359486E+00   2.22064438E+02   2.22064438E+02   9.60816765E+00  -4.77359486E+00   2.26838028E+02  -7.56330032E+01   2.18938614E+02   9.66466045E+00   2.22007950E+02  -4.77359486E+00  -3.46389222E+00
             3065                3   2.20000000E+02   2.22015091E+02   2.22015091E+02   1.03505993E+01  -5.46667147E+00   2.22015091E+02   2.22015091E+02   1.03505993E+01  -5.46667147E+00   2.27481766E+02  -7.56330032E+01   2.18715225E+02   1.04870129E+01   2.21878677E+02  -5.46667147E+00  -5.37175989E+00
             3065                4   2.20000000E+02   2.22003311E+02   2.22003311E+02   1.05183649E+01  -5.62266445E+00   2.22003311E+02   2.22003311E+02   1.05183649E+01  -5.62266445E+00   2.27625977E+02  -7.56330032E+01   2.18661865E+02   1.05805264E+01   2.21941162E+02  -5.62266445E+00  -3.62506938E+00
             3066                1   2.20000000E+02   2.46409454E+02   2.46409454E+02   2.67798080E+01   2.60409565E+01   2.46409454E+02   2.46409454E+02   2.67798080E+01   2.60409565E+01   2.20368500E+02  -9.97434082E+01   2.19997208E+02   2.67869434E+01   2.46402313E+02   2.60409565E+01  -1.25231147E+00
             3066                2   2.20000000E+02   2.46408478E+02   2.46408478E+02   2.70038204E+01   2.58179226E+01   2.46408478E+02   2.46408478E+02   2.70038204E+01   2.58179226E+01   2.20590546E+02  -9.97434082E+01   2.19992798E+02   2.70069523E+01   2.46405334E+02   2.58179226E+01  -8.29670012E-01
             3066                3   2.20000000E+02   2.46408646E+02   2.46408646E+02   2.69687595E+01   2.58527985E+01   2.46408646E+02   2.46408646E+02   2.69687595E+01   2.58527985E+01   2.20555847E+02  -9.97434082E+01   2.19993607E+02   2.69811516E+01   2.46396255E+02   2.58527985E+01  -1.64924610E+00
             3066                4   2.20000000E+02   2.46407288E+02   2.46407288E+02   2.71948891E+01   2.56280327E+01   2.46407288E+02   2.46407288E+02   2.71948891E+01   2.56280327E+01   2.20779251E+02  -9.97434006E+01   2.19987473E+02   2.72017593E+01   2.46400421E+02   2.56280327E+01  -1.22646630E+00
             3067                1   2.20000000E+02   2.28860474E+02   2.28860474E+02   1.30957479E+01   4.85668898E+00   2.28860474E+02   2.28860474E+02   1.30957479E+01   4.85668898E+00   2.24003784E+02  -8.22709732E+01   2.19652466E+02   1.33076582E+01   2.28648560E+02   4.85668898E+00  -6.75861263E+00
             3067                2   2.20000000E+02   2.28853317E+02   2.28853317E+02   1.32858362E+01   4.67373896E+00   2.28853317E+02   2.28853317E+02   1.32858362E+01   4.67373896E+00   2.24179581E+02  -8.22709656E+01   2.19620255E+02   1.34918261E+01   2.28647339E+02   4.67373896E+00  -6.66042805E+00
             3067                3   2.20000000E+02   2.28861740E+02   2.28861740E+02   1.30612602E+01   4.88990831E+00   2.28861740E+02   2.28861740E+02   1.30612602E+01   4.88990831E+00   2.23971832E+02  -8.22709732E+01   2.19658173E+02   1.32973785E+01   2.28625626E+02   4.88990831E+00  -7.13432503E+00
             3067                4   2.20000000E+02   2.28854660E+02   2.28854660E+02   1.32509270E+01   4.70732260E+00   2.28854660E+02   2.28854660E+02   1.32509270E+01   4.70732260E+00   2.24147339E+02  -8.22709732E+01   2.19626282E+02   1.34811497E+01   2.28624435E+02   4.70732260E+00  -7.04167461E+00
             3068                1   2.20000000E+02   2.32836975E+02   2.32836975E+02   1.60384083E+01   9.76953983E+00   2.32836975E+02   2.32836975E+02   1.60384083E+01   9.76953983E+00   2.23067429E+02  -8.62149734E+01   2.19798904E+02   1.61945057E+01   2.32680878E+02   9.76953983E+00  -5.81523371E+00
             3068                2   2.20000000E+02   2.32830704E+02   2.32830704E+02   1.62545223E+01   9.55971050E+00   2.32830704E+02   2.32830704E+02   1.62545223E+01   9.55971050E+00   2.23270981E+02  -8.62149734E+01   2.19770630E+02   1.63721409E+01   2.32713074E+02   9.55971050E+00  -5.04588509E+00
             3068                3   2.20000000E+02   2.32823547E+02   2.32823547E+02   1.64853325E+01   9.33604431E+00   2.32823547E+02   2.32823547E+02   1.64853325E+01   9.33604431E+00   2.23487503E+02  -8.62149734E+01   2.19738403E+02   1.66565113E+01   2.32652374E+02   9.33604431E+00  -6.08299112E+00
             3068                4   2.20000000E+02   2.32816147E+02   2.32816147E+02   1.67098827E+01   9.11890125E+00   2.32816147E+02   2.32816147E+02   1.67098827E+01   9.11890125E+00   2.23697250E+02  -8.62149734E+01   2.19705048E+02   1.68396263E+01   2.32686401E+02   9.11890125E+00  -5.29360247E+00
             3069                1   2.20000000E+02   2.31167084E+02   2.31167084E+02   1.68999119E+01   5.85065842E+00   2.31167084E+02   2.31167084E+02   1.68999119E+01   5.85065842E+00   2.25316437E+02  -8.46392212E+01   2.19374405E+02   1.69143505E+01   2.31152649E+02   5.85065842E+00   1.75898266E+00
             3069                2   2.20000000E+02   2.31185638E+02   2.31185638E+02   1.65082226E+01   6.22378254E+00   2.31185638E+02   2.31185638E+02   1.65082226E+01   6.22378254E+00   2.24961853E+02  -8.46392136E+01   2.19458176E+02   1.65090084E+01   2.31184860E+02   6.22378254E+00  -4.09480363E-01
             3069                3   2.20000000E+02   2.31199432E+02   2.31199432E+02   1.61978168E+01   6.52041960E+00   2.31199432E+02   2.31199432E+02   1.61978168E+01   6.52041960E+00   2.24679016E+02  -8.46392212E+01   2.19520355E+02   1.62429752E+01   2.31154266E+02   6.52041960E+00   3.11582565E+00
             3069                4   2.20000000E+02   2.31214294E+02   2.31214294E+02   1.58399868E+01   6.86338329E+00   2.31214294E+02   2.31214294E+02   1.58399868E+01   6.86338329E+00   2.24350906E+02  -8.46392212E+01   2.19587372E+02   1.58440342E+01   2.31210236E+02   6.86338329E+00   9.34258819E-01
             3070                1   2.20000000E+02   2.16814529E+02   2.16814529E+02   6.97291517E+00  -1.21017418E+01   2.16814529E+02   2.16814529E+02   6.97291517E+00  -1.21017418E+01   2.28916275E+02  -7.05618973E+01   2.18127945E+02   6.97757721E+00   2.16809875E+02  -1.21017418E+01   9.88266408E-01
             3070                2   2.20000000E+02   2.16826324E+02   2.16826324E+02   6.83036804E+00  -1.19709892E+01   2.16826324E+02   2.16826324E+02   6.83036804E+00  -1.19709892E+01   2.28797318E+02  -7.05618973E+01   2.18181534E+02   6.87521935E+00   2.16781479E+02  -1.19709892E+01   3.06844783E+00
             3070                3   2.20000000E+02   2.16714767E+02   2.16714767E+02   8.10802364E+00  -1.31370859E+01   2.16714767E+02   2.16714767E+02   8.10802364E+00  -1.31370859E+01   2.29851852E+02  -7.05618973E+01   2.17674164E+02   8.11549854E+00   2.16707291E+02  -1.31370859E+01   1.24833786E+00
             3070                4   2.20000000E+02   2.16728302E+02   2.16728302E+02   7.96068525E+00  -1.30032759E+01   2.16728302E+02   2.16728302E+02   7.96068525E+00  -1.30032759E+01   2.29731567E+02  -7.05618973E+01   2.17735779E+02   8.01348972E+00   2.16675491E+02  -1.30032759E+01   3.31977701E+00
             3071                1   2.20000000E+02   2.38317627E+02   2.38317627E+02   1.98294926E+01   1.68363400E+01   2.38317627E+02   2.38317627E+02   1.98294926E+01   1.68363400E+01   2.21481293E+02  -9.16611557E+01   2.19954193E+02   1.99321861E+01   2.38214951E+02   1.68363400E+01  -4.73560238E+00
             3071                2   2.20000000E+02   2.38311188E+02   2.38311188E+02   2.02488384E+01   1.64234428E+01   2.38311188E+02   2.38311188E+02   2.02488384E+01   1.64234428E+01   2.21887741E+02  -9.16611557E+01   2.19925171E+02   2.03230247E+01   2.38237015E+02   1.64234428E+01  -4.02130747E+00
             3071                3   2.20000000E+02   2.38312622E+02   2.38312622E+02   2.01646767E+01   1.65061913E+01   2.38312622E+02   2.38312622E+02   2.01646767E+01   1.65061913E+01   2.21806427E+02  -9.16611633E+01   2.19931519E+02   2.03015785E+01   2.38175705E+02   1.65061913E+01  -5.46322203E+00
             3071                4   2.20000000E+02   2.38304718E+02   2.38304718E+02   2.05938435E+01   1.60849113E+01   2.38304718E+02   2.38304718E+02   2.05938435E+01   1.60849113E+01   2.22219803E+02  -9.16611557E+01   2.19896027E+02   2.06972771E+01   2.38201294E+02   1.60849113E+01  -4.74415398E+00
             3072                1   2.20000000E+02   2.19723206E+02   2.19723206E+02  -4.25179720E+00   3.92624569E+00   2.19723206E+02   2.19723206E+02   3.92624569E+00  -4.25179720E+00   2.23975006E+02  -7.31325455E+01   2.19657623E+02  -3.32972336E+00   2.18801132E+02   3.92624569E+00   1.43412132E+01
             3072                2   2.20000000E+02   2.19750656E+02   2.19750656E+02  -3.44458437E+00   3.09157777E+00   2.19750656E+02   2.19750656E+02   3.09157777E+00  -3.44458437E+00   2.23195251E+02  -7.31325531E+01   2.19781372E+02  -2.60321617E+00   2.18909286E+02   3.09157777E+00   1.36778202E+01
             3072                3   2.20000000E+02   2.19721863E+02   2.19721863E+02  -4.28695250E+00   3.96274948E+00   2.19721863E+02   2.19721863E+02   3.96274948E+00  -4.28695250E+00   2.24008804E+02  -7.31325531E+01   2.19651566E+02  -3.56749558E+00   2.19002396E+02   3.96274948E+00   1.26747150E+01
             3072                4   2.20000000E+02   2.19749634E+02   2.19749634E+02  -3.47838116E+00   3.12639046E+00   2.19749634E+02   2.19749634E+02   3.12639046E+00  -3.47838116E+00   2.23228012E+02  -7.31325455E+01   2.19776764E+02  -2.83291340E+00   2.19104172E+02   3.12639046E+00   1.19862089E+01
             3073                1   2.20000000E+02   2.13891602E+02   2.13891602E+02   2.71207356E+00  -1.39782143E+01   2.13891602E+02   2.13891602E+02   2.71207356E+00  -1.39782143E+01   2.27869812E+02  -6.75418167E+01   2.18568787E+02   2.84985137E+00   2.13753815E+02  -1.39782143E+01   5.39234114E+00
             3073                2   2.20000000E+02   2.13907623E+02   2.13907623E+02   2.49041891E+00  -1.37725983E+01   2.13907623E+02   2.13907623E+02   2.49041891E+00  -1.37725983E+01   2.27680222E+02  -6.75418167E+01   2.18641464E+02   2.72726774E+00   2.13670776E+02  -1.37725983E+01   7.07227755E+00
             3073                3   2.20000000E+02   2.13822189E+02   2.13822189E+02   3.61427569E+00  -1.48110170E+01   2.13822189E+02   2.13822189E+02   3.61427569E+00  -1.48110170E+01   2.28633209E+02  -6.75418167E+01   2.18253952E+02   3.76980495E+00   2.13666656E+02  -1.48110170E+01   5.71572208E+00
             3073                4   2.20000000E+02   2.13840530E+02   2.13840530E+02   3.38396740E+00  -1.45990601E+01   2.13840530E+02   2.13840530E+02   3.38396740E+00  -1.45990601E+01   2.28439590E+02  -6.75418167E+01   2.18337234E+02   3.64542150E+00   2.13579086E+02  -1.45990601E+01   7.41318178E+00
             3074                1   2.20000000E+02   2.43272369E+02   2.43272369E+02   2.45904217E+01   2.19775791E+01   2.43272369E+02   2.43272369E+02   2.45904217E+01   2.19775791E+01   2.21294800E+02  -9.66134567E+01   2.19965088E+02   2.45951443E+01   2.43267639E+02   2.19775791E+01  -1.01644611E+00
             3074                2   2.20000000E+02   2.43271408E+02   2.43271408E+02   2.46700668E+01   2.18988991E+01   2.43271408E+02   2.43271408E+02   2.46700668E+01   2.18988991E+01   2.21372498E+02  -9.66134567E+01   2.19960739E+02   2.46704121E+01   2.43271057E+02   2.18988991E+01  -2.74058372E-01
             3074                3   2.20000000E+02   2.43267838E+02   2.43267838E+02   2.49303780E+01   2.16421585E+01   2.43267838E+02   2.43267838E+02   2.49303780E+01   2.16421585E+01   2.21625671E+02  -9.66134567E+01   2.19944702E+02   2.49364700E+01   2.43261734E+02   2.16421585E+01  -1.15406024E+00
             3074                4   2.20000000E+02   2.43266617E+02   2.43266617E+02   2.50111542E+01   2.15626030E+01   2.43266617E+02   2.43266617E+02   2.50111542E+01   2.15626030E+01   2.21704010E+02  -9.66134567E+01   2.19939178E+02   2.50119228E+01   2.43265839E+02   2.15626030E+01  -4.09862101E-01
             3075                1   2.20000000E+02   2.22126938E+02   2.22126938E+02   1.01870909E+01  -5.13242388E+00   2.22126938E+02   2.22126938E+02   1.01870909E+01  -5.13242388E+00   2.27259354E+02  -7.57271957E+01   2.18795135E+02   1.01939831E+01   2.22120041E+02  -5.13242388E+00   1.20872736E+00
             3075                2   2.20000000E+02   2.22138580E+02   2.22138580E+02   1.00124693E+01  -4.96945143E+00   2.22138580E+02   2.22138580E+02   1.00124693E+01  -4.96945143E+00   2.27108032E+02  -7.57271957E+01   2.18847855E+02   1.00557432E+01   2.22095306E+02  -4.96945143E+00   3.02937078E+00
             3075                3   2.20000000E+02   2.22056427E+02   2.22056427E+02   1.11738148E+01  -6.04863214E+00   2.22056427E+02   2.22056427E+02   1.11738148E+01  -6.04863214E+00   2.28105057E+02  -7.57272034E+01   2.18475601E+02   1.11862917E+01   2.22043945E+02  -6.04863214E+00   1.62222779E+00
             3075                4   2.20000000E+02   2.22069641E+02   2.22069641E+02   1.09970407E+01  -5.88507271E+00   2.22069641E+02   2.22069641E+02   1.09970407E+01  -5.88507271E+00   2.27954712E+02  -7.57272034E+01   2.18535538E+02   1.10517807E+01   2.22014893E+02  -5.88507271E+00   3.39893126E+00
             3076                1   2.20000000E+02   2.09913177E+02   2.09913177E+02  -3.05688992E+01   1.87759113E+01   2.09913177E+02   2.09913177E+02   1.87759113E+01  -3.05688992E+01   2.40482086E+02  -6.60400620E+01   2.06992340E+02  -3.05661888E+01   2.09910477E+02   1.87759113E+01   8.06793272E-01
             3076                2   2.20000000E+02   2.09554108E+02   2.09554108E+02  -3.19108925E+01   2.04769764E+01   2.09554108E+02   2.09554108E+02   2.04769764E+01  -3.19108925E+01   2.41465012E+02  -6.60400620E+01   2.05250092E+02  -3.18767796E+01   2.09520004E+02   2.04769764E+01   2.86961222E+00
             3076                3   2.20000000E+02   2.10206619E+02   2.10206619E+02  -2.93956776E+01   1.73092709E+01   2.10206619E+02   2.10206619E+02   1.73092709E+01  -2.93956776E+01   2.39602295E+02  -6.60400696E+01   2.08403152E+02  -2.93069382E+01   2.10117874E+02   1.73092709E+01   4.61042166E+00
             3076                4   2.20000000E+02   2.09827316E+02   2.09827316E+02  -3.08986015E+01   1.91914921E+01   2.09827316E+02   2.09827316E+02   1.91914921E+01  -3.08986015E+01   2.40725906E+02  -6.60400696E+01   2.06577255E+02  -3.07285156E+01   2.09657227E+02   1.91914921E+01   6.39648724E+00
             3077                1   2.20000000E+02   2.05448212E+02   2.05448212E+02  -2.80135345E+01   1.98955762E+00   2.05448212E+02   2.05448212E+02   1.98955762E+00  -2.80135345E+01   2.33461746E+02  -5.98080788E+01   2.15324966E+02  -2.76214638E+01   2.05056137E+02   1.98955762E+00   9.55932903E+00
             3077                2   2.20000000E+02   2.05249298E+02   2.05249298E+02  -2.92976379E+01   3.47256756E+00   2.05249298E+02   2.05249298E+02   3.47256756E+00  -2.92976379E+01   2.34546936E+02  -5.98080750E+01   2.14405716E+02  -2.91314507E+01   2.05083115E+02   3.47256756E+00   6.24100828E+00
             3077                3   2.20000015E+02   2.05212006E+02   2.05212006E+02  -2.95254211E+01   3.73766232E+00   2.05212006E+02   2.05212006E+02   3.73766232E+00  -2.95254211E+01   2.34737427E+02  -5.98080788E+01   2.14232834E+02  -2.88856888E+01   2.04572266E+02   3.73766232E+00   1.22377129E+01
             3077                4   2.20000000E+02   2.05008682E+02   2.05008682E+02  -3.07065163E+01   5.12206793E+00   2.05008682E+02   2.05008682E+02   5.12206793E+00  -3.07065163E+01   2.35715195E+02  -5.98080788E+01   2.13287643E+02  -3.03670044E+01   2.04669174E+02   5.12206793E+00   8.93939114E+00
             3078                1   2.20000000E+02   2.45636597E+02   2.45636597E+02   2.62723656E+01   2.50062962E+01   2.45636597E+02   2.45636597E+02   2.62723656E+01   2.50062962E+01   2.20630310E+02  -9.89717484E+01   2.19991791E+02   2.62806263E+01   2.45628326E+02   2.50062962E+01   1.34655774E+00
             3078                2   2.20000000E+02   2.45638016E+02   2.45638016E+02   2.59356518E+01   2.53415813E+01   2.45638016E+02   2.45638016E+02   2.59356518E+01   2.53415813E+01   2.20296432E+02  -9.89717484E+01   2.19998199E+02   2.59496365E+01   2.45624039E+02   2.53415813E+01   1.75248945E+00
             3078                3   2.20000000E+02   2.45635391E+02   2.45635391E+02   2.64554062E+01   2.48244457E+01   2.45635391E+02   2.45635391E+02   2.64554062E+01   2.48244457E+01   2.20810944E+02  -9.89717407E+01   2.19986420E+02   2.64726696E+01   2.45618134E+02   2.48244457E+01   1.94480073E+00
             3078                4   2.20000000E+02   2.45637405E+02   2.45637405E+02   2.61156540E+01   2.51622238E+01   2.45637405E+02   2.45637405E+02   2.61156540E+01   2.51622238E+01   2.20475174E+02  -9.89717636E+01   2.19995331E+02   2.61407928E+01   2.45612244E+02   2.51622238E+01   2.34939575E+00
             3079                1   2.20000000E+02   2.31062042E+02   2.31062042E+02   1.57217646E+01   6.68104887E+00   2.31062042E+02   2.31062042E+02   1.57217646E+01   6.68104887E+00   2.24380997E+02  -8.44882889E+01   2.19581482E+02   1.57231665E+01   2.31060654E+02   6.68104887E+00  -5.48195004E-01
             3079                2   2.20000000E+02   2.31050827E+02   2.31050827E+02   1.59923401E+01   6.42168903E+00   2.31050827E+02   2.31050827E+02   1.59923401E+01   6.42168903E+00   2.24629135E+02  -8.44882889E+01   2.19530884E+02   1.60013485E+01   2.31041824E+02   6.42168903E+00   1.39141726E+00
             3079                3   2.20000000E+02   2.31027573E+02   2.31027573E+02   1.65111179E+01   5.92616558E+00   2.31027573E+02   2.31027573E+02   1.65111179E+01   5.92616558E+00   2.25101410E+02  -8.44882889E+01   2.19425980E+02   1.65296173E+01   2.31009079E+02   5.92616558E+00  -1.99195623E+00
             3079                4   2.20000000E+02   2.31013687E+02   2.31013687E+02   1.67990665E+01   5.65211582E+00   2.31013687E+02   2.31013687E+02   1.67990665E+01   5.65211582E+00   2.25361572E+02  -8.44882889E+01   2.19363281E+02   1.67990665E+01   2.31013687E+02   5.65211582E+00  -3.48704606E-02
             3080                1   2.20000000E+02   2.34841751E+02   2.34841751E+02   1.85906525E+01   1.12753372E+01   2.34841751E+02   2.34841751E+02   1.85906525E+01   1.12753372E+01   2.23566422E+02  -8.82359085E+01   2.19726105E+02   1.85906467E+01   2.34841751E+02   1.12753372E+01  -6.39953138E-03
             3080                2   2.20000000E+02   2.34848221E+02   2.34848221E+02   1.83879452E+01   1.14715891E+01   2.34848221E+02   2.34848221E+02   1.83879452E+01   1.14715891E+01   2.23376633E+02  -8.82359238E+01   2.19755173E+02   1.83932457E+01   2.34842911E+02   1.14715891E+01   1.07161307E+00
             3080                3   2.20000000E+02   2.34821320E+02   2.34821320E+02   1.91710567E+01   1.07153788E+01   2.34821320E+02   2.34821320E+02   1.91710567E+01   1.07153788E+01   2.24105942E+02  -8.82359238E+01   2.19633926E+02   1.91722813E+01   2.34820084E+02   1.07153788E+01   5.14946640E-01
             3080                4   2.20000000E+02   2.34829437E+02   2.34829437E+02   1.89501362E+01   1.09281712E+01   2.34829437E+02   2.34829437E+02   1.89501362E+01   1.09281712E+01   2.23901260E+02  -8.82359085E+01   2.19670578E+02   1.89629211E+01   2.34816650E+02   1.09281712E+01   1.66132224E+00
             3081                1   2.20000000E+02   2.18422699E+02   2.18422699E+02  -1.21435299E+01   1.07848043E+01   2.18422699E+02   2.18422699E+02   1.07848043E+01  -1.21435299E+01   2.30566238E+02  -7.23546600E+01   2.17287552E+02  -1.14606638E+01   2.17739838E+02   1.07848043E+01   1.25291548E+01
             3081                2   2.20000000E+02   2.18513657E+02   2.18513657E+02  -1.12840090E+01   9.83435249E+00   2.18513657E+02   2.18513657E+02   9.83435249E+00  -1.12840090E+01   2.29797668E+02  -7.23546677E+01   2.17702057E+02  -1.04785824E+01   2.17708221E+02   9.83435249E+00   1.35807858E+01
             3081                3   2.20000000E+02   2.18488983E+02   2.18488983E+02  -1.15247421E+01   1.00997581E+01   2.18488983E+02   2.18488983E+02   1.00997581E+01  -1.15247421E+01   2.30013718E+02  -7.23546677E+01   2.17589676E+02  -1.10136795E+01   2.17977905E+02   1.00997581E+01   1.08301420E+01
             3081                4   2.20000000E+02   2.18573792E+02   2.18573792E+02  -1.06700363E+01   9.16024113E+00   2.18573792E+02   2.18573792E+02   9.16024113E+00  -1.06700363E+01   2.29243820E+02  -7.23546677E+01   2.17975647E+02  -1.00579243E+01   2.17961670E+02   9.16024113E+00   1.18299923E+01
             3082                1   2.20000000E+02   2.17735703E+02   2.17735703E+02   4.89954567E+00  -8.78890419E+00   2.17735703E+02   2.17735703E+02   4.89954567E+00  -8.78890419E+00   2.26524612E+02  -7.12821121E+01   2.19038818E+02   5.10499716E+00   2.17530258E+02  -8.78890419E+00   6.60946178E+00
             3082                2   2.20000000E+02   2.17755981E+02   2.17755981E+02   4.55589056E+00  -8.46552372E+00   2.17755981E+02   2.17755981E+02   4.55589056E+00  -8.46552372E+00   2.26221512E+02  -7.12821121E+01   2.19130478E+02   4.86177349E+00   2.17450104E+02  -8.46552372E+00   8.06970310E+00
             3082                3   2.20000000E+02   2.17687439E+02   2.17687439E+02   5.65854740E+00  -9.49965286E+00   2.17687439E+02   2.17687439E+02   5.65854740E+00  -9.49965286E+00   2.27187103E+02  -7.12821121E+01   2.18820465E+02   5.90004539E+00   2.17445953E+02  -9.49965286E+00   7.15157700E+00
             3082                4   2.20000000E+02   2.17710602E+02   2.17710602E+02   5.30373764E+00  -9.16799259E+00   2.17710602E+02   2.17710602E+02   5.30373764E+00  -9.16799259E+00   2.26878601E+02  -7.12821121E+01   2.18925262E+02   5.65426826E+00   2.17360077E+02  -9.16799259E+00   8.62158966E+00
             3083                1   2.20000000E+02   2.28370331E+02   2.28370331E+02   1.29506903E+01   4.05953407E+00   2.28370331E+02   2.28370331E+02   1.29506903E+01   4.05953407E+00   2.24310791E+02  -8.17935181E+01   2.19595215E+02   1.32485332E+01   2.28072479E+02   4.05953407E+00   8.00455189E+00
             3083                2   2.20000000E+02   2.28393158E+02   2.28393158E+02   1.23332071E+01   4.65418005E+00   2.28393158E+02   2.28393158E+02   1.23332071E+01   4.65418005E+00   2.23738983E+02  -8.17935104E+01   2.19698166E+02   1.24990234E+01   2.28227341E+02   4.65418005E+00   5.98320723E+00
             3083                3   2.20000000E+02   2.28401093E+02   2.28401093E+02   1.20951891E+01   4.88426876E+00   2.28401093E+02   2.28401093E+02   1.20951891E+01   4.88426876E+00   2.23516815E+02  -8.17935104E+01   2.19733887E+02   1.25367479E+01   2.27959534E+02   4.88426876E+00   9.76297665E+00
             3083                4   2.20000000E+02   2.28418198E+02   2.28418198E+02   1.15201454E+01   5.44219971E+00   2.28418198E+02   2.28418198E+02   1.15201454E+01   5.44219971E+00   2.22975998E+02  -8.17935104E+01   2.19810974E+02   1.17957325E+01   2.28142609E+02   5.44219971E+00   7.72643948E+00
             3084                1   2.20000000E+02   2.19245560E+02   2.19245560E+02   7.26007521E-01  -2.20558286E+00   2.19245560E+02   2.19245560E+02   7.26007521E-01  -2.20558286E+00   2.21451141E+02  -7.25886612E+01   2.19956039E+02   1.04057121E+00   2.18931000E+02  -2.20558286E+00   8.28491306E+00
             3084                2   2.20000000E+02   2.19250183E+02   2.19250183E+02   3.22742254E-01  -1.80693829E+00   2.19250183E+02   2.19250183E+02   3.22742254E-01  -1.80693829E+00   2.21057114E+02  -7.25886612E+01   2.19976822E+02   6.53494537E-01   2.18919434E+02  -1.80693829E+00   8.50293827E+00
             3084                3   2.20000000E+02   2.19244247E+02   2.19244247E+02   8.22132051E-01  -2.30039954E+00   2.19244247E+02   2.19244247E+02   8.22132051E-01  -2.30039954E+00   2.21544647E+02  -7.25886612E+01   2.19950134E+02   1.19484329E+00   2.18871536E+02  -2.30039954E+00   9.01491165E+00
             3084                4   2.20000000E+02   2.19249222E+02   2.19249222E+02   4.16926950E-01  -1.90016699E+00   2.19249222E+02   2.19249222E+02   4.16926950E-01  -1.90016699E+00   2.21149399E+02  -7.25886612E+01   2.19972534E+02   8.06897461E-01   2.18859253E+02  -1.90016699E+00   9.22966003E+00
             3085                1   2.20000000E+02   2.40916153E+02   2.40916153E+02   2.29221668E+01   1.89635506E+01   2.40916153E+02   2.40916153E+02   2.29221668E+01   1.89635506E+01   2.21952606E+02  -9.42672958E+01   2.19919846E+02   2.29221840E+01   2.40916138E+02   1.89635506E+01   5.52776195E-02
             3085                2   2.20000000E+02   2.40917282E+02   2.40917282E+02   2.28577480E+01   1.90268345E+01   2.40917282E+02   2.40917282E+02   2.28577480E+01   1.90268345E+01   2.21890442E+02  -9.42672806E+01   2.19924942E+02   2.28616714E+01   2.40913361E+02   1.90268345E+01   9.24005926E-01
             3085                3   2.20000000E+02   2.40908066E+02   2.40908066E+02   2.33334827E+01   1.85603142E+01   2.40908066E+02   2.40908066E+02   2.33334827E+01   1.85603142E+01   2.22347748E+02  -9.42672806E+01   2.19883469E+02   2.33336258E+01   2.40907928E+02   1.85603142E+01   1.71243787E-01
             3085                4   2.20000000E+02   2.40909454E+02   2.40909454E+02   2.32673016E+01   1.86250973E+01   2.40909454E+02   2.40909454E+02   2.32673016E+01   1.86250973E+01   2.22284363E+02  -9.42672806E+01   2.19889771E+02   2.32723808E+01   2.40904388E+02   1.86250973E+01   1.05099130E+00
             3086                1   2.20000000E+02   2.40783768E+02   2.40783768E+02   2.22303562E+01   1.93651695E+01   2.40783768E+02   2.40783768E+02   2.22303562E+01   1.93651695E+01   2.21418610E+02  -9.41264343E+01   2.19957993E+02   2.22778358E+01   2.40736282E+02   1.93651695E+01   3.22111559E+00
             3086                2   2.20000000E+02   2.40788864E+02   2.40788864E+02   2.17594681E+01   1.98309517E+01   2.40788864E+02   2.40788864E+02   2.17594681E+01   1.98309517E+01   2.20957916E+02  -9.41264343E+01   2.19980957E+02   2.18284645E+01   2.40719864E+02   1.98309517E+01   3.88693237E+00
             3086                3   2.20000000E+02   2.40779449E+02   2.40779449E+02   2.25326176E+01   1.90672169E+01   2.40779449E+02   2.40779449E+02   2.25326176E+01   1.90672169E+01   2.21712234E+02  -9.41264343E+01   2.19938568E+02   2.26077614E+01   2.40704315E+02   1.90672169E+01   4.04887390E+00
             3086                4   2.20000000E+02   2.40785904E+02   2.40785904E+02   2.20557461E+01   1.95376549E+01   2.40785904E+02   2.40785904E+02   2.20557461E+01   1.95376549E+01   2.21248245E+02  -9.41264343E+01   2.19967560E+02   2.21572762E+01   2.40684357E+02   1.95376549E+01   4.71149540E+00
             3087                1   2.20000000E+02   1.93880798E+02   1.93880798E+02  -3.52676201E+01  -1.56578875E+01   1.93880798E+02   1.93880798E+02  -1.56578875E+01  -3.52676201E+01   2.29148407E+02  -4.76517639E+01   2.18020721E+02  -3.43170929E+01   1.92930267E+02  -1.56578875E+01  -1.47278032E+01
             3087                2   2.20000000E+02   1.93674500E+02   1.93674500E+02  -3.72489433E+01  -1.34702559E+01   1.93674500E+02   1.93674500E+02  -1.34702559E+01  -3.72489433E+01   2.30923431E+02  -4.76517639E+01   2.17080643E+02  -3.67884789E+01   1.93214035E+02  -1.34702559E+01  -1.03014078E+01
             3087                3   2.20000000E+02   1.94041565E+02   1.94041565E+02  -3.33438454E+01  -1.77424374E+01   1.94041565E+02   1.94041565E+02  -1.77424374E+01  -3.33438454E+01   2.27385406E+02  -4.76517639E+01   2.18750183E+02  -3.29276886E+01   1.93625412E+02  -1.77424374E+01  -9.71878338E+00
             3087                4   2.20000000E+02   1.93853912E+02   1.93853912E+02  -3.55505295E+01  -1.53480806E+01   1.93853912E+02   1.93853912E+02  -1.53480806E+01  -3.55505295E+01   2.29404434E+02  -4.76517639E+01   2.17898438E+02  -3.54276237E+01   1.93731003E+02  -1.53480806E+01  -5.30843592E+00
             3088                1   2.20000000E+02   2.21375793E+02   2.21375793E+02   7.18430996E+00  -4.00564194E+00   2.21375793E+02   2.21375793E+02   7.18430996E+00  -4.00564194E+00   2.25381439E+02  -7.48514862E+01   2.19358353E+02   7.42059565E+00   2.21139511E+02  -4.00564194E+00   7.11013556E+00
             3088                2   2.20000000E+02   2.21399536E+02   2.21399536E+02   6.68490553E+00  -3.52997613E+00   2.21399536E+02   2.21399536E+02   6.68490553E+00  -3.52997613E+00   2.24929520E+02  -7.48514862E+01   2.19465500E+02   7.02472210E+00   2.21059723E+02  -3.52997613E+00   8.53507614E+00
             3088                3   2.20000000E+02   2.21339371E+02   2.21339371E+02   7.87721586E+00  -4.66211557E+00   2.21339371E+02   2.21339371E+02   7.87721586E+00  -4.66211557E+00   2.26001480E+02  -7.48514938E+01   2.19193817E+02   8.17928696E+00   2.21037292E+02  -4.66211557E+00   8.02435875E+00
             3088                4   2.20000000E+02   2.21366455E+02   2.21366455E+02   7.36939812E+00  -4.18139315E+00   2.21366455E+02   2.21366455E+02   7.36939812E+00  -4.18139315E+00   2.25547852E+02  -7.48514862E+01   2.19316193E+02   7.78608656E+00   2.20949768E+02  -4.18139315E+00   9.43379974E+00
             3089                1   2.15407120E+02   1.75608597E+02   1.75608597E+02  -4.66789856E+01  -3.21861267E+01   1.75608597E+02   1.75608597E+02  -3.21861267E+01  -4.66789856E+01   2.22287582E+02  -3.22478294E+01   2.14306076E+02  -4.64162445E+01   1.75345856E+02  -3.21861267E+01   7.63771677E+00
             3089                2   2.14873764E+02   1.75397324E+02   1.75397324E+02  -4.39542809E+01  -3.46995544E+01   1.75397324E+02   1.75397324E+02  -3.46995544E+01  -4.39542809E+01   2.19351593E+02  -3.22478294E+01   2.14424652E+02  -4.39076843E+01   1.75350723E+02  -3.46995544E+01   3.19668031E+00
             3089                3   2.15745804E+02   1.75688217E+02   1.75688217E+02  -4.86407623E+01  -3.03039608E+01   1.75688217E+02   1.75688217E+02  -3.03039608E+01  -4.86407623E+01   2.24328979E+02  -3.22478294E+01   2.13982086E+02  -4.86131058E+01   1.75660553E+02  -3.03039608E+01   2.49089885E+00
             3089                4   2.15257294E+02   1.75541840E+02   1.75541840E+02  -4.61336937E+01  -3.26646614E+01   1.75541840E+02   1.75541840E+02  -3.26646614E+01  -4.61336937E+01   2.21675537E+02  -3.22478294E+01   2.14306122E+02  -4.61158180E+01   1.75523956E+02  -3.26646614E+01  -1.99083400E+00
             3090                1   2.20000000E+02   2.37399017E+02   2.37399017E+02   1.81316528E+01   1.66736450E+01   2.37399017E+02   2.37399017E+02   1.81316528E+01   1.66736450E+01   2.20725372E+02  -9.07347717E+01   2.19989120E+02   1.81971989E+01   2.37333466E+02   1.66736450E+01   3.79063129E+00
             3090                2   2.20000000E+02   2.37401337E+02   2.37401337E+02   1.72457657E+01   1.75572262E+01   2.37401337E+02   2.37401337E+02   1.75572262E+01   1.72457657E+01   2.20155563E+02  -9.07347717E+01   2.19999512E+02   1.73186932E+01   2.37328400E+02   1.75572262E+01   4.00633240E+00
             3090                3   2.20000000E+02   2.37398407E+02   2.37398407E+02   1.82179661E+01   1.65879345E+01   2.37398407E+02   2.37398407E+02   1.82179661E+01   1.65879345E+01   2.20810486E+02  -9.07347717E+01   2.19986404E+02   1.83511009E+01   2.37265274E+02   1.65879345E+01   5.40035295E+00
             3090                4   2.20000000E+02   2.37401413E+02   2.37401413E+02   1.73282356E+01   1.74746704E+01   2.37401413E+02   2.37401413E+02   1.74746704E+01   1.73282356E+01   2.20073166E+02  -9.07347717E+01   2.19999878E+02   1.74707584E+01   2.37258881E+02   1.74746704E+01   5.59877777E+00
             3091                1   2.20000000E+02   2.29403610E+02   2.29403610E+02   1.29293041E+01   6.03977060E+00   2.29403610E+02   2.29403610E+02   1.29293041E+01   6.03977060E+00   2.23363846E+02  -8.27908936E+01   2.19757080E+02   1.31116571E+01   2.29221252E+02   6.03977060E+00   6.28035498E+00
             3091                2   2.20000000E+02   2.29386230E+02   2.29386230E+02   1.34544907E+01   5.53196669E+00   2.29386230E+02   2.29386230E+02   1.34544907E+01   5.53196669E+00   2.23854263E+02  -8.27908936E+01   2.19678711E+02   1.37883205E+01   2.29052399E+02   5.53196669E+00   8.48361969E+00
             3091                3   2.20000000E+02   2.29372330E+02   2.29372330E+02   1.38296824E+01   5.17066813E+00   2.29372330E+02   2.29372330E+02   1.38296824E+01   5.17066813E+00   2.24201660E+02  -8.27908936E+01   2.19616089E+02   1.39149904E+01   2.29287018E+02   5.17066813E+00   4.28728390E+00
             3091                4   2.20000000E+02   2.29346802E+02   2.29346802E+02   1.44480553E+01   4.57781124E+00   2.29346802E+02   2.29346802E+02   1.44480553E+01   4.57781124E+00   2.24768997E+02  -8.27908859E+01   2.19501007E+02   1.46375608E+01   2.29157303E+02   4.57781124E+00   6.37871790E+00
             3092                1   2.20000000E+02   2.31593155E+02   2.31593155E+02   1.47417402E+01   8.57427883E+00   2.31593155E+02   2.31593155E+02   1.47417402E+01   8.57427883E+00   2.23018875E+02  -8.49697266E+01   2.19805359E+02   1.48944769E+01   2.31440430E+02   8.57427883E+00   5.75295162E+00
             3092                2   2.20000000E+02   2.31610626E+02   2.31610626E+02   1.40299206E+01   9.26863384E+00   2.31610626E+02   2.31610626E+02   1.40299206E+01   9.26863384E+00   2.22341995E+02  -8.49697266E+01   2.19884033E+02   1.42603045E+01   2.31380249E+02   9.26863384E+00   7.07623148E+00
             3092                3   2.20000000E+02   2.31577927E+02   2.31577927E+02   1.52517214E+01   8.07954502E+00   2.31577927E+02   2.31577927E+02   1.52517214E+01   8.07954502E+00   2.23498383E+02  -8.49697342E+01   2.19736725E+02   1.54961491E+01   2.31333496E+02   8.07954502E+00   7.26756859E+00
             3092                4   2.20000000E+02   2.31599243E+02   2.31599243E+02   1.45133934E+01   8.79655170E+00   2.31599243E+02   2.31599243E+02   1.45133934E+01   8.79655170E+00   2.22802689E+02  -8.49697342E+01   2.19832764E+02   1.48544245E+01   2.31258209E+02   8.79655170E+00   8.59757328E+00
             3093                1   2.20000000E+02   2.02737564E+02   2.02737564E+02  -3.36103363E+01   3.91157794E+00   2.02737564E+02   2.02737564E+02   3.91157794E+00  -3.36103363E+01   2.36347900E+02  -5.76795998E+01   2.12621628E+02  -3.34558144E+01   2.02583038E+02   3.91157794E+00   6.04137659E+00
             3093                2   2.20000000E+02   2.02363602E+02   2.02363602E+02  -3.54767914E+01   6.15199614E+00   2.02363602E+02   2.02363602E+02   6.15199614E+00  -3.54767914E+01   2.37840393E+02  -5.76795998E+01   2.10863937E+02  -3.54761238E+01   2.02362930E+02   6.15199614E+00   3.99214208E-01
             3093                3   2.20000000E+02   2.02324066E+02   2.02324066E+02  -3.56621323E+01   6.37687397E+00   2.02324066E+02   2.02324066E+02   6.37687397E+00  -3.56621323E+01   2.37986191E+02  -5.76795998E+01   2.10677078E+02  -3.52607994E+01   2.01922729E+02   6.37687397E+00   9.76471996E+00
             3093                4   2.20000000E+02   2.01961060E+02   2.01961060E+02  -3.72751389E+01   8.35287189E+00   2.01961060E+02   2.01961060E+02   8.35287189E+00  -3.72751389E+01   2.39236191E+02  -5.76795959E+01   2.08952576E+02  -3.71964951E+01   2.01882416E+02   8.35287189E+00   4.33664274E+00
             3094                1   2.16830688E+02   1.75330978E+02   1.75330978E+02  -4.85842361E+01  -3.36422424E+01   1.75330978E+02   1.75330978E+02  -3.36422424E+01  -4.85842361E+01   2.23915207E+02  -3.10348301E+01   2.15667801E+02  -4.85363197E+01   1.75283051E+02  -3.36422424E+01  -3.27534008E+00
             3094                2   2.17454666E+02   1.75533966E+02   1.75533966E+02  -5.13230705E+01  -3.11064053E+01   1.75533966E+02   1.75533966E+02  -3.11064053E+01  -5.13230705E+01   2.26857040E+02  -3.10348282E+01   2.15325134E+02  -5.13107109E+01   1.75521606E+02  -3.11064053E+01   1.67419505E+00
             3094                3   2.16130997E+02   1.74999649E+02   1.74999649E+02  -4.60922661E+01  -3.58028870E+01   1.74999649E+02   1.74999649E+02  -3.58028870E+01  -4.60922661E+01   2.21091904E+02  -3.10348301E+01   2.15578888E+02  -4.60658417E+01   1.74973221E+02  -3.58028870E+01   2.41689110E+00
             3094                4   2.17017059E+02   1.75416061E+02   1.75416061E+02  -4.91774864E+01  -3.31340790E+01   1.75416061E+02   1.75416061E+02  -3.31340790E+01  -4.91774864E+01   2.24593552E+02  -3.10348301E+01   2.15676788E+02  -4.89371605E+01   1.75175735E+02  -3.31340790E+01   7.34283972E+00
             3095                1   2.20000000E+02   2.15132965E+02   2.15132965E+02  -6.42536783E+00  -3.27488208E+00   2.15132965E+02   2.15132965E+02  -3.27488208E+00  -6.42536783E+00   2.21558334E+02  -6.84775696E+01   2.19949249E+02  -5.47062349E+00   2.14178223E+02  -3.27488208E+00  -1.45127277E+01
             3095                2   2.20000000E+02   2.15102829E+02   2.15102829E+02  -7.85350943E+00  -1.81659973E+00   2.15102829E+02   2.15102829E+02  -1.81659973E+00  -7.85350943E+00   2.22956329E+02  -6.84775696E+01   2.19813538E+02  -7.03460360E+00   2.14283920E+02  -1.81659973E+00  -1.34873610E+01
             3095                3   2.20000000E+02   2.15138901E+02   2.15138901E+02  -5.93534088E+00  -3.77085876E+00   2.15138901E+02   2.15138901E+02  -3.77085876E+00  -5.93534088E+00   2.21074249E+02  -6.84775696E+01   2.19976028E+02  -5.31987238E+00   2.14523438E+02  -3.77085876E+00  -1.16484308E+01
             3095                4   2.20000000E+02   2.15114456E+02   2.15114456E+02  -7.40026093E+00  -2.28149176E+00   2.15114456E+02   2.15114456E+02  -2.28149176E+00  -7.40026093E+00   2.22514725E+02  -6.84775696E+01   2.19865967E+02  -6.88758421E+00   2.14601791E+02  -2.28149176E+00  -1.06683798E+01
             3096                1   2.20000000E+02   2.17939056E+02   2.17939056E+02  -1.90057201E+01   2.01390057E+01   2.17939056E+02   2.17939056E+02   2.01390057E+01  -1.90057201E+01   2.36944778E+02  -7.30241165E+01   2.11951416E+02  -1.86824093E+01   2.17615738E+02   2.01390057E+01   8.74664211E+00
             3096                2   2.20000000E+02   2.18132889E+02   2.18132889E+02  -1.79941292E+01   1.89335613E+01   2.18132889E+02   2.18132889E+02   1.89335613E+01  -1.79941292E+01   2.36127014E+02  -7.30241089E+01   2.12859207E+02  -1.73965855E+01   2.17535355E+02   1.89335613E+01   1.18632908E+01
             3096                3   2.20000000E+02   2.18159286E+02   2.18159286E+02  -1.78510513E+01   1.87640858E+01   2.18159286E+02   2.18159286E+02   1.87640858E+01  -1.78510513E+01   2.36010345E+02  -7.30241089E+01   2.12982483E+02  -1.76631889E+01   2.17971436E+02   1.87640858E+01   6.65591431E+00
             3096                4   2.20000000E+02   2.18345947E+02   2.18345947E+02  -1.67979298E+01   1.75243111E+01   2.18345947E+02   2.18345947E+02   1.75243111E+01  -1.67979298E+01   2.35143875E+02  -7.30241089E+01   2.13851837E+02  -1.63972664E+01   2.17945282E+02   1.75243111E+01   9.69815063E+00
             3097                1   2.20000000E+02   2.19931976E+02   2.19931976E+02   1.15848315E+00  -1.27434611E+00   2.19931976E+02   2.19931976E+02   1.15848315E+00  -1.27434611E+00   2.21206314E+02  -7.32720337E+01   2.19969727E+02   1.61266434E+00   2.19477783E+02  -1.27434611E+00   9.95780849E+00
             3097                2   2.20000000E+02   2.19936584E+02   2.19936584E+02   6.22757614E-01  -7.43228257E-01   2.19936584E+02   2.19936584E+02   6.22757614E-01  -7.43228257E-01   2.20679810E+02  -7.32720413E+01   2.19990448E+02   1.09310472E+00   2.19466232E+02  -7.43228257E-01   1.01456079E+01
             3097                3   2.20000000E+02   2.19931152E+02   2.19931152E+02   1.23158371E+00  -1.34662795E+00   2.19931152E+02   2.19931152E+02   1.23158371E+00  -1.34662795E+00   2.21277786E+02  -7.32720337E+01   2.19966019E+02   1.77965045E+00   2.19383087E+02  -1.34662795E+00   1.09343958E+01
             3097                4   2.20000000E+02   2.19936111E+02   2.19936111E+02   6.94520056E-01  -8.14521253E-01   2.19936111E+02   2.19936111E+02   6.94520056E-01  -8.14521253E-01   2.20750626E+02  -7.32720413E+01   2.19988342E+02   1.25954556E+00   2.19371078E+02  -8.14521253E-01   1.11157207E+01
             3098                1   2.20000000E+02   2.23167969E+02   2.23167969E+02   4.49602032E+00   1.86353588E+00   2.23167969E+02   2.23167969E+02   4.49602032E+00   1.86353588E+00   2.21304428E+02  -7.65091782E+01   2.19964554E+02   5.22244978E+00   2.22441544E+02   1.86353588E+00   1.25825472E+01
             3098                2   2.20000000E+02   2.23171921E+02   2.23171921E+02   4.10818958E+00   2.24743080E+00   2.23171921E+02   2.23171921E+02   4.10818958E+00   2.24743080E+00   2.20924484E+02  -7.65091782E+01   2.19982300E+02   4.60911751E+00   2.22670990E+02   2.24743080E+00   1.04634504E+01
             3098                3   2.20000000E+02   2.23175079E+02   2.23175079E+02   3.58540154E+00   2.76704454E+00   2.23175079E+02   2.23175079E+02   3.58540154E+00   2.76704454E+00   2.20408035E+02  -7.65091782E+01   2.19996582E+02   4.48070049E+00   2.22279785E+02   2.76704454E+00   1.39927206E+01
             3098                4   2.20000000E+02   2.23175827E+02   2.23175827E+02   3.22541356E+00   3.12629271E+00   2.23175827E+02   2.23175827E+02   3.22541356E+00   3.12629271E+00   2.20049545E+02  -7.65091782E+01   2.19999939E+02   3.86956048E+00   2.22531677E+02   3.12629271E+00   1.18855820E+01
             3099                1   2.20000000E+02   2.25533112E+02   2.25533112E+02  -1.42008317E+00   1.32173023E+01   2.25533112E+02   2.25533112E+02   1.32173023E+01  -1.42008317E+00   2.26953186E+02  -7.91101074E+01   2.18900421E+02  -1.07724869E+00   2.25190277E+02   1.32173023E+01   8.81409931E+00
             3099                2   2.20000000E+02   2.25486420E+02   2.25486420E+02  -2.06655931E+00   1.39104767E+01   2.25486420E+02   2.25486420E+02   1.39104767E+01  -2.06655931E+00   2.27552979E+02  -7.91101151E+01   2.18689026E+02  -1.83064342E+00   2.25250504E+02   1.39104767E+01   7.32310677E+00
             3099                3   2.20000000E+02   2.25487854E+02   2.25487854E+02  -2.04756188E+00   1.38900518E+01   2.25487854E+02   2.25487854E+02   1.38900518E+01  -2.04756188E+00   2.27535416E+02  -7.91101151E+01   2.18695511E+02  -1.58724070E+00   2.25027527E+02   1.38900518E+01   1.02239361E+01
             3099                4   2.20000000E+02   2.25438858E+02   2.25438858E+02  -2.67147326E+00   1.45629511E+01   2.25438858E+02   2.25438858E+02   1.45629511E+01  -2.67147326E+00   2.28110321E+02  -7.91101151E+01   2.18473450E+02  -2.33647656E+00   2.25103851E+02   1.45629511E+01   8.73528004E+00
             3100                1   2.20000000E+02   2.36990372E+02   2.36990372E+02   1.88671989E+01   1.51603956E+01   2.36990372E+02   2.36990372E+02   1.88671989E+01   1.51603956E+01   2.21829987E+02  -9.03393250E+01   2.19929718E+02   1.89763527E+01   2.36881226E+02   1.51603956E+01   4.87813282E+00
             3100                2   2.20000000E+02   2.36998703E+02   2.36998703E+02   1.82762451E+01   1.57430296E+01   2.36998703E+02   2.36998703E+02   1.82762451E+01   1.57430296E+01   2.21255676E+02  -9.03393250E+01   2.19967194E+02   1.84220905E+01   2.36852859E+02   1.57430296E+01   5.64606142E+00
             3100                3   2.20000000E+02   2.36984268E+02   2.36984268E+02   1.92025871E+01   1.48311119E+01   2.36984268E+02   2.36984268E+02   1.92025871E+01   1.48311119E+01   2.22153168E+02  -9.03393250E+01   2.19902252E+02   1.93646641E+01   2.36822205E+02   1.48311119E+01   5.93892527E+00
             3100                4   2.20000000E+02   2.36994537E+02   2.36994537E+02   1.85994625E+01   1.54239864E+01   2.36994537E+02   2.36994537E+02   1.85994625E+01   1.54239864E+01   2.21570541E+02  -9.03393250E+01   2.19948425E+02   1.88055496E+01   2.36788437E+02   1.54239864E+01   6.70577955E+00
             3101                1   2.20000015E+02   2.31918472E+02   2.31918472E+02   1.29394493E+01   1.09115114E+01   2.31918472E+02   2.31918472E+02   1.29394493E+01   1.09115114E+01   2.21006958E+02  -8.52564774E+01   2.19978973E+02   1.31624708E+01   2.31695450E+02   1.09115114E+01   6.98486042E+00
             3101                2   2.20000000E+02   2.31923126E+02   2.31923126E+02   1.19727249E+01   1.18735714E+01   2.31923126E+02   2.31923126E+02   1.19727249E+01   1.18735714E+01   2.20049561E+02  -8.52564774E+01   2.19999954E+02   1.22140017E+01   2.31681854E+02   1.18735714E+01   7.28088284E+00
             3101                3   2.20000000E+02   2.31917404E+02   2.31917404E+02   1.30490198E+01   1.08029976E+01   2.31917404E+02   2.31917404E+02   1.30490198E+01   1.08029976E+01   2.21114410E+02  -8.52564774E+01   2.19974213E+02   1.33983135E+01   2.31568115E+02   1.08029976E+01   8.73657703E+00
             3101                4   2.20000000E+02   2.31923019E+02   2.31923019E+02   1.20795231E+01   1.17668753E+01   2.31923019E+02   2.31923019E+02   1.20795231E+01   1.17668753E+01   2.20156143E+02  -8.52564774E+01   2.19999496E+02   1.24495201E+01   2.31553024E+02   1.17668753E+01   9.01140118E+00
             3102                1   2.20000000E+02   2.20700775E+02   2.20700775E+02   1.69154680E+00  -2.76799530E-01   2.20700775E+02   2.20700775E+02   1.69154680E+00  -2.76799530E-01   2.20977570E+02  -7.40385056E+01   2.19980179E+02   2.23177981E+00   2.20160538E+02  -2.76799530E-01   1.08639040E+01
             3102                2   2.20000000E+02   2.20704758E+02   2.20704758E+02   1.00668240E+00   4.04072762E-01   2.20704758E+02   2.20704758E+02   1.00668240E+00   4.04072762E-01   2.20300690E+02  -7.40385056E+01   2.19998154E+02   1.58485508E+00   2.20126587E+02   4.04072762E-01   1.12556181E+01
             3102                3   2.20000000E+02   2.20699631E+02   2.20699631E+02   1.81233561E+00  -3.96444201E-01   2.20699631E+02   2.20699631E+02   1.81233561E+00  -3.96444201E-01   2.21096069E+02  -7.40385056E+01   2.19975037E+02   2.48888779E+00   2.20023071E+02  -3.96444201E-01   1.21503820E+01
             3102                4   2.20000000E+02   2.20704330E+02   2.20704330E+02   1.13309777E+00   2.78083891E-01   2.20704330E+02   2.20704330E+02   1.13309777E+00   2.78083891E-01   2.20426254E+02  -7.40385056E+01   2.19996246E+02   1.84999859E+00   2.19987427E+02   2.78083891E-01   1.25259132E+01
             3103                1   2.20000000E+02   2.23186966E+02   2.23186966E+02   3.75290346E+00   2.62534261E+00   2.23186966E+02   2.23186966E+02   3.75290346E+00   2.62534261E+00   2.20561615E+02  -7.65217361E+01   2.19993515E+02   3.90466714E+00   2.23035202E+02   2.62534261E+00   5.76872635E+00
             3103                2   2.20000000E+02   2.23185059E+02   2.23185059E+02   2.33321381E+00   4.04692888E+00   2.23185059E+02   2.23185059E+02   4.04692888E+00   2.33321381E+00   2.20851852E+02  -7.65217361E+01   2.19984970E+02   2.47360253E+00   2.23044678E+02   4.04692888E+00   5.56644821E+00
             3103                3   2.20000000E+02   2.23187561E+02   2.23187561E+02   3.61929131E+00   2.75834870E+00   2.23187561E+02   2.23187561E+02   3.61929131E+00   2.75834870E+00   2.20429214E+02  -7.65217361E+01   2.19996216E+02   3.94384003E+00   2.22863022E+02   2.75834870E+00   8.43525791E+00
             3103                4   2.20000000E+02   2.23184006E+02   2.23184006E+02   2.20836711E+00   4.17282581E+00   2.23184006E+02   2.23184006E+02   4.17282581E+00   2.20836711E+00   2.20975647E+02  -7.65217361E+01   2.19980255E+02   2.51203680E+00   2.22880341E+02   4.17282581E+00   8.18607998E+00
             3104                1   2.20000000E+02   2.24736450E+02   2.24736450E+02   5.77229977E+00   3.71501446E+00   2.24736450E+02   2.24736450E+02   5.77229977E+00   3.71501446E+00   2.21021423E+02  -7.80745850E+01   2.19978363E+02   6.24944687E+00   2.24259293E+02   3.71501446E+00   1.02103529E+01
             3104                2   2.20000000E+02   2.24741211E+02   2.24741211E+02   4.83056259E+00   4.65196753E+00   2.24741211E+02   2.24741211E+02   4.83056259E+00   4.65196753E+00   2.20089249E+02  -7.80745773E+01   2.19999847E+02   5.41367292E+00   2.24158112E+02   4.65196753E+00   1.13088741E+01
             3104                3   2.20000000E+02   2.24733337E+02   2.24733337E+02   6.06405687E+00   3.42635274E+00   2.24733337E+02   2.24733337E+02   6.06405687E+00   3.42635274E+00   2.21306992E+02  -7.80745773E+01   2.19964417E+02   6.75025654E+00   2.24047134E+02   3.42635274E+00   1.22303123E+01
             3104                4   2.20000000E+02   2.24740646E+02   2.24740646E+02   5.10604048E+00   4.37706709E+00   2.24740646E+02   2.24740646E+02   5.10604048E+00   4.37706709E+00   2.20363571E+02  -7.80745773E+01   2.19997284E+02   5.91514254E+00   2.23931534E+02   4.37706709E+00   1.33061218E+01
             3105                1   2.20000000E+02   2.24457596E+02   2.24457596E+02   5.41904783E+00   3.50859451E+00   2.24457596E+02   2.24457596E+02   5.41904783E+00   3.50859451E+00   2.20949005E+02  -7.77950821E+01   2.19981339E+02   5.99151182E+00   2.23885132E+02   3.50859451E+00   1.11832428E+01
             3105                2   2.20000000E+02   2.24452881E+02   2.24452881E+02   5.86294222E+00   3.06941652E+00   2.24452881E+02   2.24452881E+02   5.86294222E+00   3.06941652E+00   2.21383469E+02  -7.77950821E+01   2.19960098E+02   6.67213440E+00   2.23643692E+02   3.06941652E+00   1.32750330E+01
             3105                3   2.20000000E+02   2.24445160E+02   2.24445160E+02   6.38012838E+00   2.55995369E+00   2.24445160E+02   2.24445160E+02   6.38012838E+00   2.55995369E+00   2.21885208E+02  -7.77950821E+01   2.19925354E+02   6.79171038E+00   2.24033569E+02   2.55995369E+00   9.46487141E+00
             3105                4   2.20000000E+02   2.24436081E+02   2.24436081E+02   6.85049772E+00   2.09864688E+00   2.24436081E+02   2.24436081E+02   6.85049772E+00   2.09864688E+00   2.22337433E+02  -7.77950745E+01   2.19884491E+02   7.46849775E+00   2.23818085E+02   2.09864688E+00   1.15794821E+01
             3106                1   2.20000000E+02   2.17893814E+02   2.17893814E+02  -5.86164284E+00   1.85215116E+00   2.17893814E+02   2.17893814E+02   1.85215116E+00  -5.86164284E+00   2.23755447E+02  -7.12947769E+01   2.19695419E+02  -4.92502117E+00   2.16957184E+02   1.85215116E+00   1.44463692E+01
             3106                2   2.20000000E+02   2.17894806E+02   2.17894806E+02  -5.83370399E+00   1.82320917E+00   2.17894806E+02   2.17894806E+02   1.82320917E+00  -5.83370399E+00   2.23728500E+02  -7.12947693E+01   2.19699905E+02  -5.13767385E+00   2.17198776E+02   1.82320917E+00   1.24593725E+01
             3106                3   2.20000000E+02   2.17859573E+02   2.17859573E+02  -6.72077656E+00   2.74551296E+00   2.17859573E+02   2.17859573E+02   2.74551296E+00  -6.72077656E+00   2.24580353E+02  -7.12947693E+01   2.19541077E+02  -5.71018744E+00   2.16848984E+02   2.74551296E+00   1.50311899E+01
             3106                4   2.20000000E+02   2.17861115E+02   2.17861115E+02  -6.68559170E+00   2.70878673E+00   2.17861115E+02   2.17861115E+02   2.70878673E+00  -6.68559170E+00   2.24546707E+02  -7.12947693E+01   2.19548035E+02  -5.92260599E+00   2.17098129E+02   2.70878673E+00   1.30668831E+01
             3107                1   2.20000000E+02   2.23323547E+02   2.23323547E+02  -2.90693951E+00   1.01341944E+01   2.23323547E+02   2.23323547E+02   1.01341944E+01  -2.90693951E+00   2.26230484E+02  -7.68502731E+01   2.19127823E+02  -2.40862727E+00   2.22825241E+02   1.01341944E+01   1.06058674E+01
             3107                2   2.20000000E+02   2.23276291E+02   2.23276291E+02  -3.63564181E+00   1.09101391E+01   2.23276291E+02   2.23276291E+02   1.09101391E+01  -3.63564181E+00   2.26911942E+02  -7.68502655E+01   2.18914169E+02  -3.26625156E+00   2.22906906E+02   1.09101391E+01   9.14783287E+00
             3107                3   2.20000000E+02   2.23282715E+02   2.23282715E+02  -3.54129529E+00   1.08093815E+01   2.23282715E+02   2.23282715E+02   1.08093815E+01  -3.54129529E+00   2.26824020E+02  -7.68502731E+01   2.18943207E+02  -2.88651133E+00   2.22627930E+02   1.08093815E+01   1.21693621E+01
             3107                4   2.20000000E+02   2.23232758E+02   2.23232758E+02  -4.24396181E+00   1.15619946E+01   2.23232758E+02   2.23232758E+02   1.15619946E+01  -4.24396181E+00   2.27476730E+02  -7.68502655E+01   2.18717072E+02  -3.73838210E+00   2.22727188E+02   1.15619946E+01   1.07121725E+01
             3108                1   2.20000000E+02   2.17733124E+02   2.17733124E+02  -2.34675083E+01   2.80915642E+01   2.17733124E+02   2.17733124E+02   2.80915642E+01  -2.34675083E+01   2.41200623E+02  -7.41190567E+01   2.05737137E+02  -2.33472576E+01   2.17612869E+02   2.80915642E+01   5.38420677E+00
             3108                2   2.20000000E+02   2.17969650E+02   2.17969650E+02  -2.25769806E+01   2.69645119E+01   2.17969650E+02   2.17969650E+02   2.69645119E+01  -2.25769806E+01   2.40546631E+02  -7.41190567E+01   2.06883530E+02  -2.22391949E+01   2.17631866E+02   2.69645119E+01   9.00769711E+00
             3108                3   2.20000000E+02   2.18097519E+02   2.18097519E+02  -2.20773430E+01   2.63370113E+01   2.18097519E+02   2.18097519E+02   2.63370113E+01  -2.20773430E+01   2.40174850E+02  -7.41190567E+01   2.07500092E+02  -2.20352955E+01   2.18055466E+02   2.63370113E+01   3.17762756E+00
             3108                4   2.20000000E+02   2.18337769E+02   2.18337769E+02  -2.10999889E+01   2.51194115E+01   2.18337769E+02   2.18337769E+02   2.51194115E+01  -2.10999889E+01   2.39437759E+02  -7.41190643E+01   2.08652725E+02  -2.09037056E+01   2.18141479E+02   2.51194115E+01   6.85272646E+00
             3109                1   2.20000000E+02   2.31145767E+02   2.31145767E+02  -3.30289221E+00   2.92138863E+01   2.31145767E+02   2.31145767E+02   2.92138863E+01  -3.30289221E+00   2.34448669E+02  -8.56855850E+01   2.14493530E+02  -3.04881477E+00   2.30891693E+02   2.92138863E+01   7.71388340E+00
             3109                2   2.20000000E+02   2.30996277E+02   2.30996277E+02  -4.20160151E+00   3.02620792E+01   2.30996277E+02   2.30996277E+02   3.02620792E+01  -4.20160151E+00   2.35197876E+02  -8.56855850E+01   2.13800003E+02  -4.11303139E+00   2.30907715E+02   3.02620792E+01   4.56314898E+00
             3109                3   2.20000000E+02   2.30963303E+02   2.30963303E+02  -4.39233875E+00   3.04857941E+01   2.30963303E+02   2.30963303E+02   3.04857941E+01  -4.39233875E+00   2.35355652E+02  -8.56855850E+01   2.13646698E+02  -3.95837927E+00   2.30529343E+02   3.04857941E+01   1.00969162E+01
             3109                4   2.20000000E+02   2.30814194E+02   2.30814194E+02  -5.22533798E+00   3.14679031E+01   2.30814194E+02   2.30814194E+02   3.14679031E+01  -5.22533798E+00   2.36039536E+02  -8.56855850E+01   2.12951767E+02  -5.01892185E+00   2.30607773E+02   3.14679031E+01   6.97710800E+00
             3110                1   2.20000000E+02   2.27698990E+02   2.27698990E+02   8.61601353E+00   6.79328680E+00   2.27698990E+02   2.27698990E+02   8.61601353E+00   6.79328680E+00   2.20905701E+02  -8.10360947E+01   2.19983017E+02   8.98349190E+00   2.27331512E+02   6.79328680E+00   8.96508789E+00
             3110                2   2.20000000E+02   2.27702728E+02   2.27702728E+02   7.60599422E+00   7.79957676E+00   2.27702728E+02   2.27702728E+02   7.79957676E+00   7.60599422E+00   2.20096725E+02  -8.10360947E+01   2.19999802E+02   7.99313164E+00   2.27315582E+02   7.79957676E+00   9.22270203E+00
             3110                3   2.20000000E+02   2.27698318E+02   2.27698318E+02   8.69347763E+00   6.71649075E+00   2.27698318E+02   2.27698318E+02   8.69347763E+00   6.71649075E+00   2.20981827E+02  -8.10360947E+01   2.19980011E+02   9.23165894E+00   2.27160141E+02   6.71649075E+00   1.08431835E+01
             3110                4   2.20000000E+02   2.27702759E+02   2.27702759E+02   7.67439032E+00   7.73114109E+00   2.27702759E+02   2.27702759E+02   7.73114109E+00   7.67439032E+00   2.20028366E+02  -8.10360947E+01   2.19999985E+02   8.23362637E+00   2.27143524E+02   7.73114109E+00   1.10785971E+01
             3111                1   2.20000000E+02   2.18739227E+02   2.18739227E+02  -1.36489010E+00  -1.15648973E+00   2.18739227E+02   2.18739227E+02  -1.15648973E+00  -1.36489010E+00   2.20104126E+02  -7.20726166E+01   2.19999786E+02  -9.36232626E-01   2.18310577E+02  -1.15648973E+00   9.70388222E+00
             3111                2   2.20000000E+02   2.18728867E+02   2.18728867E+02  -2.76920271E+00   2.58189678E-01   2.18728867E+02   2.18728867E+02   2.58189678E-01  -2.76920271E+00   2.21498077E+02  -7.20726242E+01   2.19953125E+02  -2.38034034E+00   2.18340012E+02   2.58189678E-01   9.27259541E+00
             3111                3   2.20000000E+02   2.18738678E+02   2.18738678E+02  -1.62751102E+00  -8.93299162E-01   2.18738678E+02   2.18738678E+02  -8.93299162E-01  -1.62751102E+00   2.20366180E+02  -7.20726242E+01   2.19997238E+02  -9.31005180E-01   2.18042160E+02  -8.93299162E-01   1.23694143E+01
             3111                4   2.20000000E+02   2.18725250E+02   2.18725250E+02  -3.01092267E+00   5.03530741E-01   2.18725250E+02   2.18725250E+02   5.03530741E-01  -3.01092267E+00   2.21736176E+02  -7.20726166E+01   2.19936829E+02  -2.37109375E+00   2.18085419E+02   5.03530741E-01   1.18938580E+01
             3112                1   2.20000000E+02   2.21181580E+02   2.21181580E+02  -4.33112383E+00   7.14335585E+00   2.21181580E+02   2.21181580E+02   7.14335585E+00  -4.33112383E+00   2.25512695E+02  -7.46646042E+01   2.19325226E+02  -3.71737909E+00   2.20567825E+02   7.14335585E+00   1.17486649E+01
             3112                2   2.20000000E+02   2.21132904E+02   2.21132904E+02  -5.17332268E+00   8.03421879E+00   2.21132904E+02   2.21132904E+02   8.03421879E+00  -5.17332268E+00   2.26306229E+02  -7.46646042E+01   2.19105347E+02  -4.67027378E+00   2.20629852E+02   8.03421879E+00   1.06578741E+01
             3112                3   2.20000000E+02   2.21150375E+02   2.21150375E+02  -4.88476515E+00   7.72818899E+00   2.21150375E+02   2.21150375E+02   7.72818899E+00  -4.88476515E+00   2.26035141E+02  -7.46646042E+01   2.19184296E+02  -4.07830524E+00   2.20343918E+02   7.72818899E+00   1.34772873E+01
             3112                4   2.20000000E+02   2.21099487E+02   2.21099487E+02  -5.69092083E+00   8.58523273E+00   2.21099487E+02   2.21099487E+02   8.58523273E+00  -5.69092083E+00   2.26790405E+02  -7.46646042E+01   2.18954224E+02  -5.01174212E+00   2.20420319E+02   8.58523273E+00   1.23922701E+01
             3113                1   2.20000000E+02   2.16177567E+02   2.16177567E+02  -2.68861294E+01   3.06923790E+01   2.16177567E+02   2.16177567E+02   3.06923790E+01  -2.68861294E+01   2.43063705E+02  -7.33279419E+01   2.01978210E+02  -2.68855705E+01   2.16177017E+02   3.06923790E+01   3.67082536E-01
             3113                2   2.20000000E+02   2.16620102E+02   2.16620102E+02  -2.54077797E+01   2.87714939E+01   2.16620102E+02   2.16620102E+02   2.87714939E+01  -2.54077797E+01   2.42027893E+02  -7.33279419E+01   2.04164551E+02  -2.52503700E+01   2.16462692E+02   2.87714939E+01   6.17039061E+00
             3113                3   2.20000000E+02   2.16750061E+02   2.16750061E+02  -2.49519577E+01   2.81857071E+01   2.16750061E+02   2.16750061E+02   2.81857071E+01  -2.49519577E+01   2.41702026E+02  -7.33279419E+01   2.04801224E+02  -2.49100170E+01   2.16708130E+02   2.81857071E+01  -3.18353701E+00
             3113                4   2.20000000E+02   2.17183456E+02   2.17183456E+02  -2.33490887E+01   2.61494522E+01   2.17183456E+02   2.17183456E+02   2.61494522E+01  -2.33490887E+01   2.40532547E+02  -7.33279419E+01   2.06907318E+02  -2.33239403E+01   2.17158310E+02   2.61494522E+01   2.45914292E+00
             3114                1   2.20000000E+02   2.05426971E+02   2.05426971E+02  -1.45264454E+01  -1.46195660E+01   2.05426971E+02   2.05426971E+02  -1.45264454E+01  -1.46195660E+01   2.20046539E+02  -5.87603188E+01   2.19999954E+02  -1.43106050E+01   2.05211136E+02  -1.46195660E+01   6.88677073E+00
             3114                2   2.20000000E+02   2.05410706E+02   2.05410706E+02  -1.64579124E+01  -1.26718159E+01   2.05410706E+02   2.05410706E+02  -1.26718159E+01  -1.64579124E+01   2.21868607E+02  -5.87603264E+01   2.19926682E+02  -1.62985992E+01   2.05251389E+02  -1.26718159E+01   5.94316053E+00
             3114                3   2.20000000E+02   2.05425949E+02   2.05425949E+02  -1.50509863E+01  -1.40939894E+01   2.05425949E+02   2.05425949E+02  -1.40939894E+01  -1.50509863E+01   2.20476944E+02  -5.87603264E+01   2.19995331E+02  -1.45352192E+01   2.04910187E+02  -1.40939894E+01   1.06512537E+01
             3114                4   2.20000000E+02   2.05401352E+02   2.05401352E+02  -1.69351540E+01  -1.21852245E+01   2.05401352E+02   2.05401352E+02  -1.21852245E+01  -1.69351540E+01   2.22336517E+02  -5.87603264E+01   2.19884598E+02  -1.65178986E+01   2.04984100E+02  -1.21852245E+01   9.62273693E+00
             3115                1   2.20000000E+02   2.16815628E+02   2.16815628E+02  -5.84434271E+00  -4.24240470E-01   2.16815628E+02   2.16815628E+02  -4.24240470E-01  -5.84434271E+00   2.22659973E+02  -7.01823502E+01   2.19849701E+02  -5.13245106E+00   2.16103729E+02  -4.24240470E-01   1.25699663E+01
             3115                2   2.20000000E+02   2.16785385E+02   2.16785385E+02  -6.86015177E+00   6.21806085E-01   2.16785385E+02   2.16785385E+02   6.21806085E-01  -6.86015177E+00   2.23645538E+02  -7.01823502E+01   2.19713455E+02  -6.11474895E+00   2.16039978E+02   6.21806085E-01   1.28899584E+01
             3115                3   2.20000000E+02   2.16812408E+02   2.16812408E+02  -5.97007561E+00  -2.95305908E-01   2.16812408E+02   2.16812408E+02  -2.95305908E-01  -5.97007561E+00   2.22782486E+02  -7.01823425E+01   2.19835236E+02  -4.99117517E+00   2.15833511E+02  -2.95305908E-01   1.47350769E+01
             3115                4   2.20000000E+02   2.16781097E+02   2.16781097E+02  -6.98192549E+00   7.47858882E-01   2.16781097E+02   2.16781097E+02   7.47858882E-01  -6.98192549E+00   2.23763031E+02  -7.01823502E+01   2.19694153E+02  -5.96868467E+00   2.15767868E+02   7.47858882E-01   1.50232563E+01
             3116                1   2.20000000E+02   2.18900299E+02   2.18900299E+02  -4.39453125E+00   2.35025644E+00   2.18900299E+02   2.18900299E+02   2.35025644E+00  -4.39453125E+00   2.23294830E+02  -7.22853394E+01   2.19767197E+02  -3.61821079E+00   2.18123978E+02   2.35025644E+00   1.31432819E+01
             3116                2   2.20000000E+02   2.18903442E+02   2.18903442E+02  -4.29240131E+00   2.24499345E+00   2.18903442E+02   2.18903442E+02   2.24499345E+00  -4.29240131E+00   2.23195847E+02  -7.22853470E+01   2.19781296E+02  -3.26458645E+00   2.17875626E+02   2.24499345E+00   1.51111689E+01
             3116                3   2.20000000E+02   2.18925079E+02   2.18925079E+02  -3.46891093E+00   1.39986598E+00   2.18925079E+02   2.18925079E+02   1.39986598E+00  -3.46891093E+00   2.22393982E+02  -7.22853470E+01   2.19878738E+02  -2.80051732E+00   2.18256683E+02   1.39986598E+00   1.21736994E+01
             3116                4   2.20000000E+02   2.18927460E+02   2.18927460E+02  -3.35942054E+00   1.28799224E+00   2.18927460E+02   2.18927460E+02   1.28799224E+00  -3.35942054E+00   2.22286880E+02  -7.22853470E+01   2.19889496E+02  -2.45238352E+00   2.18020416E+02   1.28799224E+00   1.41704302E+01
             3117                1   2.20000000E+02   2.10649704E+02   2.10649704E+02  -2.88948174E+01   1.76393433E+01   2.10649704E+02   2.10649704E+02   1.76393433E+01  -2.88948174E+01   2.39544510E+02  -6.64647446E+01   2.08491302E+02  -2.85953445E+01   2.10350235E+02   1.76393433E+01   8.46436024E+00
             3117                2   2.20000000E+02   2.10969467E+02   2.10969467E+02  -2.75160007E+01   1.59407721E+01   2.10969467E+02   2.10969467E+02   1.59407721E+01  -2.75160007E+01   2.38485458E+02  -6.64647446E+01   2.10015198E+02  -2.73322754E+01   2.10785736E+02   1.59407721E+01   6.61679792E+00
             3117                3   2.20000000E+02   2.10425644E+02   2.10425644E+02  -2.98010521E+01   1.87696438E+01   2.10425644E+02   2.10425644E+02   1.87696438E+01  -2.98010521E+01   2.40226700E+02  -6.64647446E+01   2.07415588E+02  -2.96787395E+01   2.10303329E+02   1.87696438E+01   5.41917896E+00
             3117                4   2.20000000E+02   2.10743607E+02   2.10743607E+02  -2.85009670E+01   1.71515865E+01   2.10743607E+02   2.10743607E+02   1.71515865E+01  -2.85009670E+01   2.39244583E+02  -6.64647446E+01   2.08940231E+02  -2.84489422E+01   2.10691589E+02   1.71515865E+01   3.52755332E+00
             3118                1   2.20000000E+02   2.26890961E+02   2.26890961E+02  -6.47180843E+00   2.32822437E+01   2.26890961E+02   2.26890961E+02   2.32822437E+01  -6.47180843E+00   2.33362778E+02  -8.12338028E+01   2.15403473E+02  -6.10501814E+00   2.26524170E+02   2.32822437E+01   9.24458122E+00
             3118                2   2.19999985E+02   2.26742310E+02   2.26742310E+02  -7.45111370E+00   2.44101830E+01   2.26742310E+02   2.26742310E+02   2.44101830E+01  -7.45111370E+00   2.34193420E+02  -8.12337952E+01   2.14717239E+02  -7.29902506E+00   2.26590225E+02   2.44101830E+01   5.96613264E+00
             3118                3   2.20000000E+02   2.26709229E+02   2.26709229E+02  -7.65962553E+00   2.46517830E+01   2.26709229E+02   2.26709229E+02   2.46517830E+01  -7.65962553E+00   2.34368851E+02  -8.12337952E+01   2.14564148E+02  -7.07002115E+00   2.26119629E+02   2.46517830E+01   1.17403994E+01
             3118                4   2.20000000E+02   2.26560287E+02   2.26560287E+02  -8.56097984E+00   2.57020779E+01   2.26560287E+02   2.26560287E+02   2.57020779E+01  -8.56097984E+00   2.35121277E+02  -8.12337952E+01   2.13873474E+02  -8.25278378E+00   2.26252090E+02   2.57020779E+01   8.50705147E+00
             3119                1   2.20000000E+02   2.14221527E+02   2.14221527E+02  -1.55870476E+01   5.55682468E+00   2.14221527E+02   2.14221527E+02   5.55682468E+00  -1.55870476E+01   2.29808563E+02  -6.80637665E+01   2.17696457E+02  -1.47549734E+01   2.13389450E+02   5.55682468E+00   1.38030863E+01
             3119                2   2.20000000E+02   2.14280563E+02   2.14280563E+02  -1.49853954E+01   4.89612627E+00   2.14280563E+02   2.14280563E+02   4.89612627E+00  -1.49853954E+01   2.29265961E+02  -6.80637665E+01   2.17965103E+02  -1.43653688E+01   2.13660538E+02   4.89612627E+00   1.19065475E+01
             3119                3   2.20000000E+02   2.14131287E+02   2.14131287E+02  -1.64391956E+01   6.49921131E+00   2.14131287E+02   2.14131287E+02   6.49921131E+00  -1.64391956E+01   2.30570480E+02  -6.80637665E+01   2.17285156E+02  -1.56968117E+01   2.13388901E+02   6.49921131E+00   1.30622120E+01
             3119                4   2.20000000E+02   2.14193542E+02   2.14193542E+02  -1.58592710E+01   5.85702753E+00   2.14193542E+02   2.14193542E+02   5.85702753E+00  -1.58592710E+01   2.30052811E+02  -6.80637665E+01   2.17569016E+02  -1.53138275E+01   2.13648102E+02   5.85702753E+00   1.11885328E+01
             3120                1   2.20000000E+02   2.35232407E+02   2.35232407E+02  -4.77986765E+00   4.31458969E+01   2.35232407E+02   2.35232407E+02   4.31458969E+01  -4.77986765E+00   2.40012283E+02  -9.11994858E+01   2.07762131E+02  -4.63022900E+00   2.35082779E+02   4.31458969E+01   5.99096155E+00
             3120                2   2.20000000E+02   2.34946503E+02   2.34946503E+02  -5.89162350E+00   4.45435677E+01   2.34946503E+02   2.34946503E+02   4.45435677E+01  -5.89162350E+00   2.40838135E+02  -9.11994858E+01   2.06382538E+02  -5.88515329E+00   2.34940033E+02   4.45435677E+01   1.24889982E+00
             3120                3   2.20000000E+02   2.34879211E+02   2.34879211E+02  -6.14400911E+00   4.48632469E+01   2.34879211E+02   2.34879211E+02   4.48632469E+01  -6.14400911E+00   2.41023224E+02  -9.11994858E+01   2.06056168E+02  -5.76388693E+00   2.34499084E+02   4.48632469E+01   9.56421280E+00
             3120                4   2.20000000E+02   2.34606842E+02   2.34606842E+02  -7.13276911E+00   4.61243706E+01   2.34606842E+02   2.34606842E+02   4.61243706E+01  -7.13276911E+00   2.41739609E+02  -9.11994858E+01   2.04728989E+02  -7.03339815E+00   2.34507477E+02   4.61243706E+01   4.90012884E+00
             3121                1   2.20000000E+02   2.15553375E+02   2.15553375E+02  -5.51049376E+00  -3.36711788E+00   2.15553375E+02   2.15553375E+02  -3.36711788E+00  -5.51049376E+00   2.21063858E+02  -6.88919220E+01   2.19976517E+02  -4.91373730E+00   2.14956619E+02  -3.36711788E+00   1.14701395E+01
             3121                2   2.20000000E+02   2.15531174E+02   2.15531174E+02  -6.88359022E+00  -1.97181273E+00   2.15531174E+02   2.15531174E+02  -1.97181273E+00  -6.88359022E+00   2.22414764E+02  -6.88919220E+01   2.19876587E+02  -6.35463619E+00   2.15002213E+02  -1.97181273E+00   1.08336906E+01
             3121                3   2.20000000E+02   2.15548981E+02   2.15548981E+02  -5.88972998E+00  -2.98350263E+00   2.15548981E+02   2.15548981E+02  -2.98350263E+00  -5.88972998E+00   2.21438721E+02  -6.88919144E+01   2.19956802E+02  -4.97869539E+00   2.14637955E+02  -2.98350263E+00   1.41741877E+01
             3121                4   2.20000000E+02   2.15522400E+02   2.15522400E+02  -7.24458885E+00  -1.60205579E+00   2.15522400E+02   2.15522400E+02  -1.60205579E+00  -7.24458885E+00   2.22766998E+02  -6.88919220E+01   2.19837097E+02  -6.42460489E+00   2.14702423E+02  -1.60205579E+00   1.34904642E+01
             3122                1   1.97837112E+02   1.71134018E+02   1.71134018E+02  -2.76988220E+01  -2.56920948E+01   1.71134018E+02   1.71134018E+02  -2.56920948E+01  -2.76988220E+01   1.98832840E+02  -3.92476997E+01   1.97814209E+02  -2.75858860E+01   1.71021088E+02  -2.56920948E+01   4.73726034E+00
             3122                2   1.97218597E+02   1.70726730E+02   1.70726730E+02  -2.63995438E+01  -2.65840740E+01   1.70726730E+02   1.70726730E+02  -2.63995438E+01  -2.65840740E+01   1.97310791E+02  -3.92476997E+01   1.97218399E+02  -2.63316040E+01   1.70658783E+02  -2.65840740E+01   3.65898848E+00
             3122                3   1.98253601E+02   1.71405426E+02   1.71405426E+02  -2.83310413E+01  -2.53312721E+01   1.71405426E+02   1.71405426E+02  -2.53312721E+01  -2.83310413E+01   1.99736465E+02  -3.92477074E+01   1.98202530E+02  -2.82972126E+01   1.71371597E+02  -2.53312721E+01   2.59926844E+00
             3122                4   1.97740036E+02   1.71073502E+02   1.71073502E+02  -2.70862846E+01  -2.62440948E+01   1.71073502E+02   1.71073502E+02  -2.62440948E+01  -2.70862846E+01   1.98159790E+02  -3.92477074E+01   1.97735992E+02  -2.70747890E+01   1.71061996E+02  -2.62440948E+01   1.50963795E+00
             3123                1   1.98751358E+02   1.68895859E+02   1.68895859E+02  -3.09662895E+01  -2.87257576E+01   1.68895859E+02   1.68895859E+02  -2.87257576E+01  -3.09662895E+01   1.99862137E+02  -3.64012718E+01   1.98722931E+02  -3.08422775E+01   1.68771835E+02  -2.87257576E+01   4.97707510E+00
             3123                2   1.98109695E+02   1.68474228E+02   1.68474228E+02  -2.94566097E+01  -2.98138237E+01   1.68474228E+02   1.68474228E+02  -2.94566097E+01  -2.98138237E+01   1.98288055E+02  -3.64012642E+01   1.98108963E+02  -2.93830624E+01   1.68400681E+02  -2.98138237E+01   3.81484127E+00
             3123                3   1.99146500E+02   1.69151901E+02   1.69151901E+02  -3.16252899E+01  -2.83228207E+01   1.69151901E+02   1.69151901E+02  -2.83228207E+01  -3.16252899E+01   2.00777191E+02  -3.64012642E+01   1.99084869E+02  -3.15955849E+01   1.69122192E+02  -2.83228207E+01   2.44208932E+00
             3123                4   1.98519455E+02   1.68746872E+02   1.68746872E+02  -3.01457329E+01  -2.93973465E+01   1.68746872E+02   1.68746872E+02  -2.93973465E+01  -3.01457329E+01   1.98892593E+02  -3.64012642E+01   1.98516296E+02  -3.01377029E+01   1.68738846E+02  -2.93973465E+01   1.26311219E+00
             3124                1   2.20000000E+02   2.04178558E+02   2.04178558E+02  -1.78823185E+01  -1.37009611E+01   2.04178558E+02   2.04178558E+02  -1.37009611E+01  -1.78823185E+01   2.22060867E+02  -5.75317574E+01   2.19910568E+02  -1.73612652E+01   2.03657501E+02  -1.37009611E+01   1.07440042E+01
             3124                2   2.20000000E+02   2.04128342E+02   2.04128342E+02  -1.96928940E+01  -1.18401566E+01   2.04128342E+02   2.04128342E+02  -1.18401566E+01  -1.96928940E+01   2.23821228E+02  -5.75317574E+01   2.19684341E+02  -1.93176308E+01   2.03753067E+02  -1.18401566E+01   9.15707207E+00
             3124                3   2.20000000E+02   2.04159485E+02   2.04159485E+02  -1.87087135E+01  -1.28554964E+01   2.04159485E+02   2.04159485E+02  -1.28554964E+01  -1.87087135E+01   2.22868210E+02  -5.75317574E+01   2.19824707E+02  -1.77765045E+01   2.03227280E+02  -1.28554964E+01   1.43836975E+01
             3124                4   2.20000000E+02   2.04098373E+02   2.04098373E+02  -2.04424400E+01  -1.10606585E+01   2.04098373E+02   2.04098373E+02  -1.10606585E+01  -2.04424400E+01   2.24540802E+02  -5.75317574E+01   2.19549240E+02  -1.97178745E+01   2.03373810E+02  -1.10606585E+01   1.27345266E+01
             3125                1   2.20000000E+02   2.22792206E+02   2.22792206E+02  -9.46039391E+00   1.75365391E+01   2.22792206E+02   2.22792206E+02   1.75365391E+01  -9.46039391E+00   2.32252609E+02  -7.69561234E+01   2.16226227E+02  -8.97837162E+00   2.22310196E+02   1.75365391E+01   1.05696259E+01
             3125                2   2.20000000E+02   2.22671478E+02   2.22671478E+02  -1.03449640E+01   1.85418644E+01   2.22671478E+02   2.22671478E+02   1.85418644E+01  -1.03449640E+01   2.33016434E+02  -7.69561234E+01   2.15671387E+02  -1.00542278E+01   2.22380737E+02   1.85418644E+01   8.22565746E+00
             3125                3   2.20000000E+02   2.22657684E+02   2.22657684E+02  -1.04419165E+01   1.86525898E+01   2.22657684E+02   2.22657684E+02   1.86525898E+01  -1.04419165E+01   2.33099609E+02  -7.69561234E+01   2.15607986E+02  -9.76778984E+00   2.21983566E+02   1.86525898E+01   1.25173407E+01
             3125                4   2.20000000E+02   2.22532440E+02   2.22532440E+02  -1.12911673E+01   1.96270962E+01   2.22532440E+02   2.22532440E+02   1.96270962E+01  -1.12911673E+01   2.33823608E+02  -7.69561234E+01   2.15030548E+02  -1.08501921E+01   2.22091461E+02   1.96270962E+01   1.01447859E+01
             3126                1   2.20000000E+02   1.87212891E+02   1.87212891E+02  -3.35672874E+01  -3.19985352E+01   1.87212891E+02   1.87212891E+02  -3.19985352E+01  -3.35672874E+01   2.20780167E+02  -4.05490227E+01   2.19987411E+02  -3.33679886E+01   1.87013580E+02  -3.19985352E+01   6.63047457E+00
             3126                2   2.20000000E+02   1.87167130E+02   1.87167130E+02  -3.60280952E+01  -2.94919853E+01   1.87167130E+02   1.87167130E+02  -2.94919853E+01  -3.60280952E+01   2.23195236E+02  -4.05490150E+01   2.19781403E+02  -3.59327621E+01   1.87071808E+02  -2.94919853E+01   4.61166954E+00
             3126                3   2.20000000E+02   1.87199738E+02   1.87199738E+02  -3.46494713E+01  -3.09032059E+01   1.87199738E+02   1.87199738E+02  -3.09032059E+01  -3.46494713E+01   2.21849213E+02  -4.05490189E+01   2.19928207E+02  -3.40423737E+01   1.86592636E+02  -3.09032059E+01   1.15894661E+01
             3126                4   2.20000000E+02   1.87133743E+02   1.87133743E+02  -3.69884529E+01  -2.84982471E+01   1.87133743E+02   1.87133743E+02  -2.84982471E+01  -3.69884529E+01   2.24122208E+02  -4.05490150E+01   2.19630951E+02  -3.65895309E+01   1.86734833E+02  -2.84982471E+01   9.44703388E+00
             3127                1   2.20000000E+02   2.10206024E+02   2.10206024E+02  -1.72011280E+01  -1.55106318E+00   2.10206024E+02   2.10206024E+02  -1.55106318E+00  -1.72011280E+01   2.27407150E+02  -6.38179474E+01   2.18742340E+02  -1.65263424E+01   2.09531235E+02  -1.55106318E+00   1.23691912E+01
             3127                2   2.20000000E+02   2.10120163E+02   2.10120163E+02  -1.82818222E+01  -3.84521097E-01   2.10120163E+02   2.10120163E+02  -3.84521097E-01  -1.82818222E+01   2.28401978E+02  -6.38179359E+01   2.18353119E+02  -1.77121544E+01   2.09550491E+02  -3.84521097E-01   1.13924513E+01
             3127                3   2.20000000E+02   2.10151413E+02   2.10151413E+02  -1.79056530E+01  -7.91932166E-01   2.10151413E+02   2.10151413E+02  -7.91932166E-01  -1.79056530E+01   2.28057068E+02  -6.38179436E+01   2.18494873E+02  -1.69593220E+01   2.09205078E+02  -7.91932166E-01   1.46602316E+01
             3127                4   2.20000000E+02   2.10061111E+02   2.10061111E+02  -1.89490185E+01   3.41731161E-01   2.10061111E+02   2.10061111E+02   3.41731161E-01  -1.89490185E+01   2.29010132E+02  -6.38179436E+01   2.18084991E+02  -1.81315517E+01   2.09243637E+02   3.41731161E-01   1.36580162E+01
             3128                1   2.20000000E+02   2.14598862E+02   2.14598862E+02  -1.40332861E+01   4.38962746E+00   2.14598862E+02   2.14598862E+02   4.38962746E+00  -1.40332861E+01   2.28632156E+02  -6.83184052E+01   2.18254395E+02  -1.34047441E+01   2.13970322E+02   4.38962746E+00   1.19712563E+01
             3128                2   2.20000000E+02   2.14566513E+02   2.14566513E+02  -1.43947449E+01   4.78344631E+00   2.14566513E+02   2.14566513E+02   4.78344631E+00  -1.43947449E+01   2.28961258E+02  -6.83184052E+01   2.18107422E+02  -1.35731401E+01   2.13744904E+02   4.78344631E+00   1.36909342E+01
             3128                3   2.20000000E+02   2.14669907E+02   2.14669907E+02  -1.31798506E+01   3.46516657E+00   2.14669907E+02   2.14669907E+02   3.46516657E+00  -1.31798506E+01   2.27849747E+02  -6.83184052E+01   2.18576584E+02  -1.25210257E+01   2.14011078E+02   3.46516657E+00   1.22343330E+01
             3128                4   2.20000000E+02   2.14639465E+02   2.14639465E+02  -1.35568180E+01   3.87257838E+00   2.14639465E+02   2.14639465E+02   3.87257838E+00  -1.35568180E+01   2.28196274E+02  -6.83184052E+01   2.18438568E+02  -1.26976805E+01   2.13780319E+02   3.87257838E+00   1.39754982E+01
             3129                1   2.20000000E+02   2.29913055E+02   2.29913055E+02  -9.09054661E+00   3.58595238E+01   2.29913055E+02   2.29913055E+02   3.58595238E+01  -9.09054661E+00   2.39003601E+02  -8.55606766E+01   2.09290802E+02  -8.88088608E+00   2.29703400E+02   3.58595238E+01   7.07565212E+00
             3129                2   2.20000000E+02   2.29626190E+02   2.29626190E+02  -1.02876282E+01   3.73434830E+01   2.29626190E+02   2.29626190E+02   3.73434830E+01  -1.02876282E+01   2.39913818E+02  -8.55606766E+01   2.07918640E+02  -1.02676897E+01   2.29606247E+02   3.73434830E+01   2.18732119E+00
             3129                3   2.20000000E+02   2.29551331E+02   2.29551331E+02  -1.05873528E+01   3.77180557E+01   2.29551331E+02   2.29551331E+02   3.77180557E+01  -1.05873528E+01   2.40138672E+02  -8.55606766E+01   2.07558792E+02  -1.01074333E+01   2.29071411E+02   3.77180557E+01   1.07245483E+01
             3129                4   2.20000000E+02   2.29278305E+02   2.29278305E+02  -1.16410837E+01   3.90448074E+01   2.29278305E+02   2.29278305E+02   3.90448074E+01  -1.16410837E+01   2.40919388E+02  -8.55606766E+01   2.06240051E+02  -1.14940348E+01   2.29131256E+02   3.90448074E+01   5.95025587E+00
             3130                1   2.20000000E+02   2.12145294E+02   2.12145294E+02  -2.33550987E+01   1.19046335E+01   2.12145294E+02   2.12145294E+02   1.19046335E+01  -2.33550987E+01   2.35500381E+02  -6.68982773E+01   2.13503815E+02  -2.28694687E+01   2.11659653E+02   1.19046335E+01   1.06832514E+01
             3130                2   2.20000000E+02   2.12262772E+02   2.12262772E+02  -2.26719971E+01   1.11040373E+01   2.12262772E+02   2.12262772E+02   1.11040373E+01  -2.26719971E+01   2.34934769E+02  -6.68982697E+01   2.14049942E+02  -2.23022137E+01   2.11892990E+02   1.11040373E+01   9.31330395E+00
             3130                3   2.20000000E+02   2.12031296E+02   2.12031296E+02  -2.39886436E+01   1.26521673E+01   2.12031296E+02   2.12031296E+02   1.26521673E+01  -2.39886436E+01   2.36019943E+02  -6.68982697E+01   2.12972397E+02  -2.35983639E+01   2.11641006E+02   1.26521673E+01   9.58972549E+00
             3130                4   2.20000015E+02   2.12152893E+02   2.12152893E+02  -2.33118744E+01   1.18537979E+01   2.12152893E+02   2.12152893E+02   1.18537979E+01  -2.33118744E+01   2.35464767E+02  -6.68982773E+01   2.13539200E+02  -2.30220928E+01   2.11863113E+02   1.18537979E+01   8.25523090E+00
             3131                1   2.20000000E+02   2.37814835E+02   2.37814835E+02  -5.83699083E+00   5.37366791E+01   2.37814835E+02   2.37814835E+02   5.37366791E+01  -5.83699083E+00   2.43651825E+02  -9.52381821E+01   2.00615021E+02  -5.76494837E+00   2.37742798E+02   5.37366791E+01   4.18888664E+00
             3131                2   2.20000000E+02   2.37370834E+02   2.37370834E+02  -7.16608524E+00   5.55097885E+01   2.37370834E+02   2.37370834E+02   5.55097885E+01  -7.16608524E+00   2.44536911E+02  -9.52381821E+01   1.98372833E+02  -7.14817429E+00   2.37352921E+02   5.55097885E+01  -2.09252548E+00
             3131                3   2.20000000E+02   2.37289764E+02   2.37289764E+02  -7.40003252E+00   5.58248100E+01   2.37289764E+02   2.37289764E+02   5.58248100E+01  -7.40003252E+00   2.44689789E+02  -9.52381821E+01   1.97960007E+02  -7.05316257E+00   2.36942886E+02   5.58248100E+01   9.20626926E+00
             3131                4   2.20000000E+02   2.36881393E+02   2.36881393E+02  -8.54144764E+00   5.73745766E+01   2.36881393E+02   2.36881393E+02   5.73745766E+01  -8.54144764E+00   2.45422852E+02  -9.52381821E+01   1.95863937E+02  -8.50425816E+00   2.36844208E+02   5.73745766E+01   3.02090859E+00
             3132                1   2.20000000E+02   2.03548920E+02   2.03548920E+02  -2.04723110E+01  -1.21962690E+01   2.03548920E+02   2.03548920E+02  -1.21962690E+01  -2.04723110E+01   2.24021240E+02  -5.69601135E+01   2.19649353E+02  -1.98489876E+01   2.02925598E+02  -1.21962690E+01   1.18004236E+01
             3132                2   2.20000000E+02   2.03469177E+02   2.03469177E+02  -2.21813431E+01  -1.04074783E+01   2.03469177E+02   2.03469177E+02  -1.04074783E+01  -2.21813431E+01   2.25650513E+02  -5.69601135E+01   2.19289474E+02  -2.17546272E+01   2.03042450E+02  -1.04074783E+01   9.80344296E+00
             3132                3   2.20000000E+02   2.03505051E+02   2.03505051E+02  -2.14861755E+01  -1.11385441E+01   2.03505051E+02   2.03505051E+02  -1.11385441E+01  -2.14861755E+01   2.24991226E+02  -5.69601097E+01   2.19451477E+02  -2.04261265E+01   2.02445007E+02  -1.11385441E+01   1.54070368E+01
             3132                4   2.20000000E+02   2.03413391E+02   2.03413391E+02  -2.31157856E+01  -9.41725540E+00   2.03413391E+02   2.03413391E+02  -9.41725540E+00  -2.31157856E+01   2.26529175E+02  -5.69601173E+01   2.19037384E+02  -2.23264198E+01   2.02624023E+02  -9.41725540E+00   1.33488607E+01
             3133                1   2.20000000E+02   1.91318756E+02   1.91318756E+02  -3.32304306E+01  -2.38307705E+01   1.91318756E+02   1.91318756E+02  -2.38307705E+01  -3.32304306E+01   2.24549179E+02  -4.47525177E+01   2.19547516E+02  -3.28072052E+01   1.90895523E+02  -2.38307705E+01   9.73941040E+00
             3133                2   2.20000000E+02   1.91193619E+02   1.91193619E+02  -3.55097809E+01  -2.14262886E+01   1.91193619E+02   1.91193619E+02  -2.14262886E+01  -3.55097809E+01   2.26703400E+02  -4.47525177E+01   2.18982330E+02  -3.53269539E+01   1.91010788E+02  -2.14262886E+01   6.43544912E+00
             3133                3   2.20000000E+02   1.91236313E+02   1.91236313E+02  -3.48301392E+01  -2.21486397E+01   1.91236313E+02   1.91236313E+02  -2.21486397E+01  -3.48301392E+01   2.26066452E+02  -4.47525139E+01   2.19175385E+02  -3.38824120E+01   1.90288589E+02  -2.21486397E+01   1.46065083E+01
             3133                4   2.20000000E+02   1.91089264E+02   1.91089264E+02  -3.69305992E+01  -1.99011135E+01   1.91089264E+02   1.91089264E+02  -1.99011135E+01  -3.69305992E+01   2.28019867E+02  -4.47525177E+01   2.18509720E+02  -3.63759651E+01   1.90534622E+02  -1.99011135E+01   1.12321501E+01
             3134                1   2.20000000E+02   2.24436325E+02   2.24436325E+02  -1.34050932E+01   2.82266026E+01   2.24436325E+02   2.24436325E+02   2.82266026E+01  -1.34050932E+01   2.37841415E+02  -7.97526169E+01   2.10862595E+02  -1.31369076E+01   2.24168137E+02   2.82266026E+01   7.98216867E+00
             3134                2   2.20000000E+02   2.24169601E+02   2.24169601E+02  -1.46173735E+01   2.97055931E+01   2.24169601E+02   2.24169601E+02   2.97055931E+01  -1.46173735E+01   2.38786972E+02  -7.97526093E+01   2.09598434E+02  -1.45671186E+01   2.24119354E+02   2.97055931E+01   3.46360826E+00
             3134                3   2.20000000E+02   2.24094772E+02   2.24094772E+02  -1.49426432E+01   3.01057091E+01   2.24094772E+02   2.24094772E+02   3.01057091E+01  -1.49426432E+01   2.39037415E+02  -7.97526169E+01   2.09242111E+02  -1.43998928E+01   2.23552017E+02   3.01057091E+01   1.13773651E+01
             3134                4   2.20000000E+02   2.23840179E+02   2.23840179E+02  -1.60064487E+01   3.14241161E+01   2.23840179E+02   2.23840179E+02   3.14241161E+01  -1.60064487E+01   2.39846619E+02  -7.97526169E+01   2.08024490E+02  -1.58017931E+01   2.23635513E+02   3.14241161E+01   7.00323296E+00
             3135                1   2.20000000E+02   1.71966278E+02   1.71966278E+02  -4.97155380E+01  -4.63124199E+01   1.71966278E+02   1.71966278E+02  -4.63124199E+01  -4.97155380E+01   2.21681824E+02  -2.53127747E+01   2.19940781E+02  -4.96168518E+01   1.71867599E+02  -4.63124199E+01   4.67619896E+00
             3135                2   2.20000000E+02   1.71877213E+02   1.71877213E+02  -5.27112503E+01  -4.32276306E+01   1.71877213E+02   1.71877213E+02  -4.32276306E+01  -5.27112503E+01   2.24588455E+02  -2.53127766E+01   2.19539398E+02  -5.27034225E+01   1.71869385E+02  -4.32276306E+01   1.32539856E+00
             3135                3   2.20000000E+02   1.71924698E+02   1.71924698E+02  -5.14632263E+01  -4.45231476E+01   1.71924698E+02   1.71924698E+02  -4.45231476E+01  -5.14632263E+01   2.23387924E+02  -2.53127747E+01   2.19753494E+02  -5.09369049E+01   1.71398376E+02  -4.45231476E+01   1.08303480E+01
             3135                4   2.20000000E+02   1.71798752E+02   1.71798752E+02  -5.42331123E+01  -4.16273117E+01   1.71798752E+02   1.71798752E+02  -4.16273117E+01  -5.42331123E+01   2.26031860E+02  -2.53127747E+01   2.19185226E+02  -5.39950027E+01   1.71560638E+02  -4.16273117E+01   7.33243036E+00
             3136                1   2.20000000E+02   2.05962799E+02   2.05962799E+02  -2.63112164E+01   7.38284707E-01   2.05962799E+02   2.05962799E+02   7.38284707E-01  -2.63112164E+01   2.32274017E+02  -6.01299553E+01   2.16211319E+02  -2.58813210E+01   2.05532898E+02   7.38284707E-01   9.98346615E+00
             3136                2   2.20000000E+02   2.05788422E+02   2.05788422E+02  -2.75667820E+01   2.16823959E+00   2.05788422E+02   2.05788422E+02   2.16823959E+00  -2.75667820E+01   2.33355194E+02  -6.01299591E+01   2.15409424E+02  -2.73402157E+01   2.05561844E+02   2.16823959E+00   7.26777935E+00
             3136                3   2.20000000E+02   2.05777161E+02   2.05777161E+02  -2.76436214E+01   2.25633383E+00   2.05777161E+02   2.05777161E+02   2.25633383E+00  -2.76436214E+01   2.33420792E+02  -6.01299591E+01   2.15357574E+02  -2.69557877E+01   2.05089325E+02   2.25633383E+00   1.26524067E+01
             3136                4   2.20000015E+02   2.05598419E+02   2.05598419E+02  -2.88070488E+01   3.59851241E+00   2.05598419E+02   2.05598419E+02   3.59851241E+00  -2.88070488E+01   2.34405472E+02  -6.01299591E+01   2.14531830E+02  -2.83840847E+01   2.05175446E+02   3.59851241E+00   9.94825172E+00
             3137                1   2.20000000E+02   2.12233521E+02   2.12233521E+02  -2.20474586E+01   1.00382471E+01   2.12233521E+02   2.12233521E+02   1.00382471E+01  -2.20474586E+01   2.34280991E+02  -6.67414398E+01   2.14641190E+02  -2.16914577E+01   2.11877518E+02   1.00382471E+01   9.12572765E+00
             3137                2   2.20000000E+02   2.12154541E+02   2.12154541E+02  -2.25362587E+01   1.06060171E+01   2.12154541E+02   2.12154541E+02   1.06060171E+01  -2.25362587E+01   2.34690796E+02  -6.67414322E+01   2.14275436E+02  -2.20772781E+01   2.11695557E+02   1.06060171E+01   1.03686790E+01
             3137                3   2.20000000E+02   2.12333435E+02   2.12333435E+02  -2.14026127E+01   9.29349422E+00   2.12333435E+02   2.12333435E+02   9.29349422E+00  -2.14026127E+01   2.33736038E+02  -6.67414322E+01   2.15102890E+02  -2.09857674E+01   2.11916580E+02   9.29349422E+00   9.86198330E+00
             3137                4   2.20000000E+02   2.12254120E+02   2.12254120E+02  -2.19170952E+01   9.88728237E+00   2.12254120E+02   2.12254120E+02   9.88728237E+00  -2.19170952E+01   2.34171204E+02  -6.67414322E+01   2.14736450E+02  -2.13893070E+01   2.11726334E+02   9.88728237E+00   1.11046286E+01
             3138                1   2.20000000E+02   2.31648666E+02   2.31648666E+02  -1.10167217E+01   4.52380447E+01   2.31648666E+02   2.31648666E+02   4.52380447E+01  -1.10167217E+01   2.42665390E+02  -8.86233292E+01   2.02849701E+02  -1.09219952E+01   2.31553940E+02   4.52380447E+01   4.79347038E+00
             3138                2   2.20000000E+02   2.31198425E+02   2.31198425E+02  -1.24566545E+01   4.71282120E+01   2.31198425E+02   2.31198425E+02   4.71282120E+01  -1.24566545E+01   2.43655090E+02  -8.86233292E+01   2.00607193E+02  -1.24458017E+01   2.31187576E+02   4.71282120E+01  -1.62619805E+00
             3138                3   2.20000000E+02   2.31099792E+02   2.31099792E+02  -1.27591467E+01   4.75293388E+01   2.31099792E+02   2.31099792E+02   4.75293388E+01  -1.27591467E+01   2.43858948E+02  -8.86233292E+01   2.00111801E+02  -1.23717079E+01   2.30712357E+02   4.75293388E+01   9.71242332E+00
             3138                4   2.20000000E+02   2.30684204E+02   2.30684204E+02  -1.39881477E+01   4.91739120E+01   2.30684204E+02   2.30684204E+02   4.91739120E+01  -1.39881477E+01   2.44672363E+02  -8.86233215E+01   1.98007492E+02  -1.39402132E+01   2.30636276E+02   4.91739120E+01   3.42422605E+00
             3139                1   2.20000000E+02   2.38999084E+02   2.38999084E+02  -6.24845028E+00   5.90147552E+01   2.38999084E+02   2.38999084E+02   5.90147552E+01  -6.24845028E+00   2.45247543E+02  -9.72551270E+01   1.96383652E+02  -6.22010946E+00   2.38970749E+02   5.90147552E+01   2.63629317E+00
             3139                2   2.20000000E+02   2.38413849E+02   2.38413849E+02  -7.80605316E+00   6.11575890E+01   2.38413849E+02   2.38413849E+02   6.11575890E+01  -7.80605316E+00   2.46219894E+02  -9.72551270E+01   1.93339432E+02  -7.70934439E+00   2.38317139E+02   6.11575890E+01  -4.87860250E+00
             3139                3   2.20000000E+02   2.38317230E+02   2.38317230E+02  -8.05301571E+00   6.15011673E+01   2.38317230E+02   2.38317230E+02   6.15011673E+01  -8.05301571E+00   2.46370255E+02  -9.72551270E+01   1.92830978E+02  -7.73803139E+00   2.38002258E+02   6.15011673E+01   8.80353451E+00
             3139                4   2.20000000E+02   2.37789124E+02   2.37789124E+02  -9.35718060E+00   6.33334389E+01   2.37789124E+02   2.37789124E+02   6.33334389E+01  -9.35718060E+00   2.47146301E+02  -9.72551270E+01   1.90020309E+02  -9.34922028E+00   2.37781174E+02   6.33334389E+01   1.40197206E+00
             3140                1   2.20000000E+02   1.94148758E+02   1.94148758E+02  -3.32689323E+01  -1.75952892E+01   1.94148758E+02   1.94148758E+02  -1.75952892E+01  -3.32689323E+01   2.27417679E+02  -4.77615089E+01   2.18738556E+02  -3.28232346E+01   1.93703064E+02  -1.75952892E+01   1.00577755E+01
             3140                2   2.20000000E+02   1.93968842E+02   1.93968842E+02  -3.53868599E+01  -1.52974482E+01   1.93968842E+02   1.93968842E+02  -1.52974482E+01  -3.53868599E+01   2.29355713E+02  -4.77615089E+01   2.17922058E+02  -3.52201195E+01   1.93802109E+02  -1.52974482E+01   6.18177986E+00
             3140                3   2.20000000E+02   1.93999237E+02   1.93999237E+02  -3.50645523E+01  -1.56501427E+01   1.93999237E+02   1.93999237E+02  -1.56501427E+01  -3.50645523E+01   2.29063782E+02  -4.77615089E+01   2.18060211E+02  -3.41123199E+01   1.93046997E+02  -1.56501427E+01   1.47382355E+01
             3140                4   2.20000000E+02   1.93800079E+02   1.93800079E+02  -3.70002899E+01  -1.35152454E+01   1.93800079E+02   1.93800079E+02  -1.35152454E+01  -3.70002899E+01   2.30800369E+02  -4.77615166E+01   2.17152969E+02  -3.64932899E+01   1.93293076E+02  -1.35152454E+01   1.08055201E+01
             3141                1   2.20000000E+02   1.81820465E+02   1.81820465E+02  -4.52048073E+01  -3.04071159E+01   1.81820465E+02   1.81820465E+02  -3.04071159E+01  -4.52048073E+01   2.27025269E+02  -3.54028473E+01   2.18876099E+02  -4.50053024E+01   1.81620956E+02  -3.04071159E+01   6.72715139E+00
             3141                2   2.20000000E+02   1.81598923E+02   1.81598923E+02  -4.78620872E+01  -2.75282860E+01   1.81598923E+02   1.81598923E+02  -2.75282860E+01  -4.78620872E+01   2.29461014E+02  -3.54028473E+01   2.17870819E+02  -4.78514977E+01   1.81588333E+02  -2.75282860E+01   1.55860054E+00
             3141                3   2.20000000E+02   1.81627182E+02   1.81627182E+02  -4.75666084E+01  -2.78520393E+01   1.81627182E+02   1.81627182E+02  -2.78520393E+01  -4.75666084E+01   2.29193802E+02  -3.54028473E+01   2.17999374E+02  -4.68768082E+01   1.80937393E+02  -2.78520393E+01   1.25547104E+01
             3141                4   2.20000000E+02   1.81376038E+02   1.81376038E+02  -4.99208450E+01  -2.52466507E+01   1.81376038E+02   1.81376038E+02  -2.52466507E+01  -4.99208450E+01   2.31296890E+02  -3.54028511E+01   2.16854233E+02  -4.96864815E+01   1.81141678E+02  -2.52466507E+01   7.35889387E+00
             3142                1   2.20000000E+02   2.25289108E+02   2.25289108E+02  -1.62150116E+01   3.62961540E+01   2.25289108E+02   2.25289108E+02   3.62961540E+01  -1.62150116E+01   2.41504120E+02  -8.17900848E+01   2.05176804E+02  -1.60817776E+01   2.25155869E+02   3.62961540E+01   5.67098951E+00
             3142                2   2.20000000E+02   2.24911774E+02   2.24911774E+02  -1.75281143E+01   3.79865837E+01   2.24911774E+02   2.24911774E+02   3.79865837E+01  -1.75281143E+01   2.42439880E+02  -8.17900772E+01   2.03325699E+02  -1.75280876E+01   2.24911743E+02   3.79865837E+01   7.45534897E-02
             3142                3   2.20000000E+02   2.24786224E+02   2.24786224E+02  -1.79464149E+01   3.85304298E+01   2.24786224E+02   2.24786224E+02   3.85304298E+01  -1.79464149E+01   2.42732635E+02  -8.17900772E+01   2.02705276E+02  -1.75820999E+01   2.24421906E+02   3.85304298E+01   9.39681149E+00
             3142                4   2.20000000E+02   2.24428131E+02   2.24428131E+02  -1.90945301E+01   4.00366364E+01   2.24428131E+02   2.24428131E+02   4.00366364E+01  -1.90945301E+01   2.43522659E+02  -8.17900772E+01   2.00922607E+02  -1.90318394E+01   2.24365448E+02   4.00366364E+01   3.90656304E+00
             3143                1   2.20000000E+02   1.62510040E+02   1.62510040E+02  -5.95885735E+01  -5.53295059E+01   1.62510040E+02   1.62510040E+02  -5.53295059E+01  -5.95885735E+01   2.22098618E+02  -1.58639860E+01   2.19907211E+02  -5.95747223E+01   1.62496185E+02  -5.53295059E+01   1.75397468E+00
             3143                2   2.20000000E+02   1.62386444E+02   1.62386444E+02  -6.30286713E+01  -5.17658043E+01   1.62386444E+02   1.62386444E+02  -5.17658043E+01  -6.30286713E+01   2.25415115E+02  -1.58639870E+01   2.19349945E+02  -6.29904404E+01   1.62348206E+02  -5.17658043E+01  -2.93522906E+00
             3143                3   2.20000000E+02   1.62436661E+02   1.62436661E+02  -6.19688606E+01  -5.28758469E+01   1.62436661E+02   1.62436661E+02  -5.28758469E+01  -6.19688606E+01   2.24405533E+02  -1.58639860E+01   2.19576599E+02  -6.16241302E+01   1.62091934E+02  -5.28758469E+01   8.78866482E+00
             3143                4   2.19999985E+02   1.62257034E+02   1.62257034E+02  -6.50875854E+01  -4.95774879E+01   1.62257034E+02   1.62257034E+02  -4.95774879E+01  -6.50875854E+01   2.27344620E+02  -1.58639841E+01   2.18764832E+02  -6.50184402E+01   1.62187881E+02  -4.95774879E+01   3.96412992E+00
             3144                1   2.20000000E+02   2.11144699E+02   2.11144699E+02  -2.71747437E+01   1.58083353E+01   2.11144699E+02   2.11144699E+02   1.58083353E+01  -2.71747437E+01   2.38319443E+02  -6.65927658E+01   2.10239120E+02  -2.70531521E+01   2.11023102E+02   1.58083353E+01   5.38184881E+00
             3144                2   2.20000000E+02   2.10919952E+02   2.10919952E+02  -2.81668530E+01   1.70251789E+01   2.10919952E+02   2.10919952E+02   1.70251789E+01  -2.81668530E+01   2.39086807E+02  -6.65927582E+01   2.09170761E+02  -2.79754429E+01   2.10728546E+02   1.70251789E+01   6.76207590E+00
             3144                3   2.20000000E+02   2.11308624E+02   2.11308624E+02  -2.64126949E+01   1.48823423E+01   2.11308624E+02   2.11308624E+02   1.48823423E+01  -2.64126949E+01   2.37721329E+02  -6.65927582E+01   2.11014420E+02  -2.61818237E+01   2.11077759E+02   1.48823423E+01   7.40471029E+00
             3144                4   2.20000000E+02   2.11094910E+02   2.11094910E+02  -2.73995266E+01   1.60828934E+01   2.11094910E+02   2.11094910E+02   1.60828934E+01  -2.73995266E+01   2.38494446E+02  -6.65927658E+01   2.10003006E+02  -2.70663090E+01   2.10761703E+02   1.60828934E+01   8.90831661E+00
             3145                1   2.20000000E+02   2.31933197E+02   2.31933197E+02  -1.16276331E+01   4.76340218E+01   2.31933197E+02   2.31933197E+02   4.76340218E+01  -1.16276331E+01   2.43560822E+02  -8.93131943E+01   2.00832214E+02  -1.16153545E+01   2.31920914E+02   4.76340218E+01   1.72916031E+00
             3145                2   2.20000000E+02   2.31274307E+02   2.31274307E+02  -1.35830851E+01   5.02483559E+01   2.31274307E+02   2.31274307E+02   5.02483559E+01  -1.35830851E+01   2.44857391E+02  -8.93131943E+01   1.97498108E+02  -1.34101620E+01   2.31101379E+02   5.02483559E+01  -6.50483608E+00
             3145                3   2.20000000E+02   2.31168304E+02   2.31168304E+02  -1.38816776E+01   5.06529617E+01   2.31168304E+02   2.31168304E+02   5.06529617E+01  -1.38816776E+01   2.45049973E+02  -8.93131943E+01   1.96955048E+02  -1.35903339E+01   2.30876953E+02   5.06529617E+01   8.44448948E+00
             3145                4   2.20000000E+02   2.30560776E+02   2.30560776E+02  -1.55184107E+01   5.28972168E+01   2.30560776E+02   2.30560776E+02   5.28972168E+01  -1.55184107E+01   2.46079178E+02  -8.93131943E+01   1.93805603E+02  -1.55180779E+01   2.30560440E+02   5.28972168E+01   2.84366637E-01
             3146                1   2.20000000E+02   2.32249802E+02   2.32249802E+02  -1.18005047E+01   4.91543274E+01   2.32249802E+02   2.32249802E+02   4.91543274E+01  -1.18005047E+01   2.44050308E+02  -8.98678818E+01   1.99635498E+02  -1.17687693E+01   2.32218063E+02   4.91543274E+01   2.78286862E+00
             3146                2   2.20000000E+02   2.31642639E+02   2.31642639E+02  -1.35505667E+01   5.15115509E+01   2.31642639E+02   2.31642639E+02   5.15115509E+01  -1.35505667E+01   2.45193207E+02  -8.98678818E+01   1.96542206E+02  -1.34505777E+01   2.31542648E+02   5.15115509E+01  -4.95044994E+00
             3146                3   2.20000000E+02   2.31544342E+02   2.31544342E+02  -1.38210192E+01   5.18802872E+01   2.31544342E+02   2.31544342E+02   5.18802872E+01  -1.38210192E+01   2.45365372E+02  -8.98678665E+01   1.96035706E+02  -1.34842615E+01   2.31207596E+02   5.18802872E+01   9.08370399E+00
             3146                4   2.20000000E+02   2.30984650E+02   2.30984650E+02  -1.53008289E+01   5.39197960E+01   2.30984650E+02   2.30984650E+02   5.39197960E+01  -1.53008289E+01   2.46285477E+02  -8.98678665E+01   1.93118958E+02  -1.52930899E+01   2.30976913E+02   5.39197960E+01   1.38045335E+00
             3147                1   2.20000000E+02   1.87811111E+02   1.87811111E+02  -4.25760612E+01  -2.00718098E+01   1.87811111E+02   1.87811111E+02  -2.00718098E+01  -4.25760612E+01   2.30387161E+02  -4.17210808E+01   2.17387833E+02  -4.23956451E+01   1.87630692E+02  -2.00718098E+01   6.44458818E+00
             3147                2   2.20000000E+02   1.87514862E+02   1.87514862E+02  -4.50128403E+01  -1.73387756E+01   1.87514862E+02   1.87514862E+02  -1.73387756E+01  -4.50128403E+01   2.32527695E+02  -4.17210808E+01   2.16031967E+02  -4.50112648E+01   1.87513275E+02  -1.73387756E+01   6.06050849E-01
             3147                3   2.20000000E+02   1.87505890E+02   1.87505890E+02  -4.50791168E+01  -1.72635269E+01   1.87505890E+02   1.87505890E+02  -1.72635269E+01  -4.50791168E+01   2.32585007E+02  -4.17210808E+01   2.15990753E+02  -4.44474640E+01   1.86874237E+02  -1.72635269E+01   1.21042891E+01
             3147                4   2.20000000E+02   1.87189056E+02   1.87189056E+02  -4.72189140E+01  -1.48069038E+01   1.87189056E+02   1.87189056E+02  -1.48069038E+01  -4.72189140E+01   2.34407974E+02  -4.17210808E+01   2.14529617E+02  -4.70518761E+01   1.87022018E+02  -1.48069038E+01   6.25510931E+00
             3148                1   2.00534576E+02   1.72233368E+02   1.72233368E+02  -3.00679150E+01  -2.64865379E+01   1.72233368E+02   1.72233368E+02  -2.64865379E+01  -3.00679150E+01   2.02301285E+02  -3.85596352E+01   2.00462616E+02  -2.98801270E+01   1.72045578E+02  -2.64865379E+01   6.16073275E+00
             3148                2   1.99835297E+02   1.71782120E+02   1.71782120E+02  -2.85113659E+01  -2.75918331E+01   1.71782120E+02   1.71782120E+02  -2.75918331E+01  -2.85113659E+01   2.00293488E+02  -3.85596390E+01   1.99830551E+02  -2.84096375E+01   1.71680389E+02  -2.75918331E+01   4.51278400E+00
             3148                3   2.01105225E+02   1.72597641E+02   1.72597641E+02  -3.10014877E+01  -2.59172401E+01   1.72597641E+02   1.72597641E+02  -2.59172401E+01  -3.10014877E+01   2.03599136E+02  -3.85596428E+01   2.00960541E+02  -3.09381409E+01   1.72534302E+02  -2.59172401E+01   3.59070683E+00
             3148                4   2.00426910E+02   1.72169876E+02   1.72169876E+02  -2.94880276E+01  -2.70029335E+01   1.72169876E+02   1.72169876E+02  -2.70029335E+01  -2.94880276E+01   2.01657913E+02  -3.85596428E+01   2.00392242E+02  -2.94695873E+01   1.72151443E+02  -2.70029335E+01   1.92818153E+00
             3149                1   2.20000000E+02   1.76435013E+02   1.76435013E+02  -5.11635056E+01  -3.50841827E+01   1.76435013E+02   1.76435013E+02  -3.50841827E+01  -5.11635056E+01   2.27598526E+02  -3.00624447E+01   2.18672119E+02  -5.11350517E+01   1.76406570E+02  -3.50841827E+01   2.54442644E+00
             3149                2   2.20000000E+02   1.76152512E+02   1.76152512E+02  -5.42344131E+01  -3.17307549E+01   1.76152512E+02   1.76152512E+02  -3.17307549E+01  -5.42344131E+01   2.30386917E+02  -3.00624447E+01   2.17387970E+02  -5.41733589E+01   1.76091446E+02  -3.17307549E+01  -3.75010157E+00
             3149                3   2.20000000E+02   1.76174637E+02   1.76174637E+02  -5.40278053E+01  -3.19595013E+01   1.76174637E+02   1.76174637E+02  -3.19595013E+01  -5.40278053E+01   2.30202454E+02  -3.00624447E+01   2.17488907E+02  -5.36540680E+01   1.75800903E+02  -3.19595013E+01   9.26799965E+00
             3149                4   2.20000000E+02   1.75848907E+02   1.75848907E+02  -5.67256126E+01  -2.89359531E+01   1.75848907E+02   1.75848907E+02  -2.89359531E+01  -5.67256126E+01   2.32574509E+02  -3.00624466E+01   2.15998322E+02  -5.66888580E+01   1.75812149E+02  -2.89359531E+01   2.92343307E+00
             3150                1   2.14607635E+02   1.59331451E+02   1.59331451E+02  -5.64268494E+01  -5.41067085E+01   1.59331451E+02   1.59331451E+02  -5.41067085E+01  -5.64268494E+01   2.15758301E+02  -1.62659645E+01   2.14579422E+02  -5.63996086E+01   1.59304214E+02  -5.41067085E+01  -2.42399693E+00
             3150                2   2.15398239E+02   1.59782166E+02   1.59782166E+02  -5.97099838E+01  -5.12742882E+01   1.59782166E+02   1.59782166E+02  -5.12742882E+01  -5.97099838E+01   2.19492157E+02  -1.62659664E+01   2.15026093E+02  -5.95472450E+01   1.59619431E+02  -5.12742882E+01  -5.97445011E+00
             3150                3   2.14873306E+02   1.59474792E+02   1.59474792E+02  -5.82715950E+01  -5.24053078E+01   1.59474792E+02   1.59474792E+02  -5.24053078E+01  -5.82715950E+01   2.17746384E+02  -1.62659645E+01   2.14693024E+02  -5.82117920E+01   1.59414993E+02  -5.24053078E+01   3.60807228E+00
             3150                4   2.15629471E+02   1.59862045E+02   1.59862045E+02  -6.13471718E+01  -4.97169685E+01   1.59862045E+02   1.59862045E+02  -4.97169685E+01  -6.13471718E+01   2.21209213E+02  -1.62659664E+01   2.14922089E+02  -6.13471603E+01   1.59862030E+02  -4.97169685E+01  -4.09976579E-02
             3151                1   4.29003105E+01   4.17015572E+01   4.17015572E+01  -6.08080685E-01  -1.76598454E+00   4.17015572E+01   4.17015572E+01  -6.08080685E-01  -1.76598454E+00   4.34675407E+01  -1.31091642E+01   4.28651276E+01   1.17864823E+00   3.99148254E+01  -1.76598454E+00   8.50902557E+00
             3151                2   4.26300774E+01   4.15186729E+01   4.15186729E+01  -4.25195724E-01  -1.76598454E+00   4.15186729E+01   4.15186729E+01  -4.25195724E-01  -1.76598454E+00   4.32846565E+01  -1.31091642E+01   4.25825958E+01   1.39743268E+00   3.96960411E+01  -1.76598454E+00   8.55138397E+00
             3151                3   4.27029800E+01   4.15680504E+01   4.15680504E+01  -4.74576324E-01  -1.76598454E+00   4.15680504E+01   4.15680504E+01  -4.74576324E-01  -1.76598454E+00   4.33340378E+01  -1.31091642E+01   4.26590080E+01   1.22321963E+00   3.98702545E+01  -1.76598454E+00   8.27631187E+00
             3151                4   4.24248734E+01   4.13795013E+01   4.13795013E+01  -2.86026180E-01  -1.76598454E+00   4.13795013E+01   4.13795013E+01  -2.86026180E-01  -1.76598454E+00   4.31454849E+01  -1.31091642E+01   4.23667336E+01   1.44465995E+00   3.96488152E+01  -1.76598454E+00   8.31352425E+00
             3152                1   2.16148849E+02   1.74167740E+02   1.74167740E+02  -4.70916176E+01  -3.64796524E+01   1.74167740E+02   1.74167740E+02  -3.64796524E+01  -4.70916176E+01   2.21259354E+02  -3.01988239E+01   2.15561554E+02  -4.70690346E+01   1.74145157E+02  -3.64796524E+01  -2.23534679E+00
             3152                2   2.17036865E+02   1.74574280E+02   1.74574280E+02  -5.02631645E+01  -3.37146339E+01   1.74574280E+02   1.74574280E+02  -3.37146339E+01  -5.02631645E+01   2.24837448E+02  -3.01988277E+01   2.15610580E+02  -5.00335083E+01   1.74344620E+02  -3.37146339E+01  -7.18211222E+00
             3152                3   2.16833481E+02   1.74481842E+02   1.74481842E+02  -4.96278191E+01  -3.42575417E+01   1.74481842E+02   1.74481842E+02  -3.42575417E+01  -4.96278191E+01   2.24109665E+02  -3.01988277E+01   2.15602707E+02  -4.95673103E+01   1.74421326E+02  -3.42575417E+01   3.68211412E+00
             3152                4   2.17467575E+02   1.74677322E+02   1.74677322E+02  -5.24576950E+01  -3.16231556E+01   1.74677322E+02   1.74677322E+02  -3.16231556E+01  -5.24576950E+01   2.27135025E+02  -3.01988239E+01   2.15205002E+02  -5.24499741E+01   1.74669601E+02  -3.16231556E+01  -1.32469821E+00
             3153                1   2.20000000E+02   2.24714050E+02   2.24714050E+02  -1.70549717E+01   3.62958107E+01   2.24714050E+02   2.24714050E+02   3.62958107E+01  -1.70549717E+01   2.41769012E+02  -8.13182907E+01   2.04672195E+02  -1.70439968E+01   2.24703064E+02   3.62958107E+01   1.62934911E+00
             3153                2   2.20000000E+02   2.24103989E+02   2.24103989E+02  -1.91007328E+01   3.89516411E+01   2.24103989E+02   2.24103989E+02   3.89516411E+01  -1.91007328E+01   2.43204712E+02  -8.13182983E+01   2.01659897E+02  -1.89437618E+01   2.23947006E+02   3.89516411E+01  -6.17680693E+00
             3153                3   2.20000000E+02   2.24004013E+02   2.24004013E+02  -1.94171257E+01   3.93679886E+01   2.24004013E+02   2.24004013E+02   3.93679886E+01  -1.94171257E+01   2.43421143E+02  -8.13182907E+01   2.01161041E+02  -1.91697350E+01   2.23756622E+02   3.93679886E+01   7.75616693E+00
             3153                4   2.20000000E+02   2.23425827E+02   2.23425827E+02  -2.11587067E+01   4.16877556E+01   2.23425827E+02   2.23425827E+02   4.16877556E+01  -2.11587067E+01   2.44584534E+02  -8.13182907E+01   1.98245071E+02  -2.11587067E+01   2.23425827E+02   4.16877556E+01   3.63566447E-03
             3154                1   2.10356522E+02   1.84213074E+02   1.84213074E+02  -3.06690540E+01  -2.13050880E+01   1.84213074E+02   1.84213074E+02  -2.13050880E+01  -3.06690540E+01   2.14882126E+02  -4.40796471E+01   2.09886826E+02  -3.05454979E+01   1.84089523E+02  -2.13050880E+01  -5.15111017E+00
             3154                2   2.11008728E+02   1.84523270E+02   1.84523270E+02  -3.30885620E+01  -1.91957664E+01   1.84523270E+02   1.84523270E+02  -1.91957664E+01  -3.30885620E+01   2.17611832E+02  -4.40796471E+01   2.09976044E+02  -3.27079430E+01   1.84142654E+02  -1.91957664E+01  -9.09293175E+00
             3154                3   2.10930374E+02   1.84495926E+02   1.84495926E+02  -3.26853485E+01  -1.95716476E+01   1.84495926E+02   1.84495926E+02  -1.95716476E+01  -3.26853485E+01   2.17181274E+02  -4.40796394E+01   2.10010300E+02  -3.26818924E+01   1.84492477E+02  -1.95716476E+01  -8.65440309E-01
             3154                4   2.11539032E+02   1.84749710E+02   1.84749710E+02  -3.49273567E+01  -1.75834160E+01   1.84749710E+02   1.84749710E+02  -1.75834160E+01  -3.49273567E+01   2.19677078E+02  -4.40796471E+01   2.09930435E+02  -3.48224297E+01   1.84644791E+02  -1.75834160E+01  -4.79984713E+00
             3155                1   2.20000000E+02   1.84217072E+02   1.84217072E+02  -4.60223923E+01  -2.38668633E+01   1.84217072E+02   1.84217072E+02  -2.38668633E+01  -4.60223923E+01   2.30239456E+02  -3.81092682E+01   2.17468842E+02  -4.60054207E+01   1.84200089E+02  -2.38668633E+01   1.97696662E+00
             3155                2   2.20000000E+02   1.83861481E+02   1.83861481E+02  -4.89284401E+01  -2.06052418E+01   1.83861481E+02   1.83861481E+02  -2.06052418E+01  -4.89284401E+01   2.32789917E+02  -3.81092682E+01   2.15840988E+02  -4.88282967E+01   1.83761337E+02  -2.06052418E+01  -4.82730961E+00
             3155                3   2.20000000E+02   1.83856995E+02   1.83856995E+02  -4.89608421E+01  -2.05683403E+01   1.83856995E+02   1.83856995E+02  -2.05683403E+01  -4.89608421E+01   2.32817825E+02  -3.81092682E+01   2.15820328E+02  -4.86434517E+01   1.83539597E+02  -2.05683403E+01   8.59036064E+00
             3155                4   2.20000000E+02   1.83468094E+02   1.83468094E+02  -5.14946938E+01  -1.76455994E+01   1.83468094E+02   1.83468094E+02  -1.76455994E+01  -5.14946938E+01   2.34962799E+02  -3.81092682E+01   2.14023636E+02  -5.14815826E+01   1.83454987E+02  -1.76455994E+01   1.75520098E+00
             3156                1   2.20000000E+02   2.01642838E+02   2.01642838E+02  -3.81027489E+01   9.02706718E+00   2.01642838E+02   2.01642838E+02   9.02706718E+00  -3.81027489E+01   2.39745575E+02  -5.75223846E+01   2.08182266E+02  -3.80527153E+01   2.01592804E+02   9.02706718E+00   3.46289873E+00
             3156                2   2.20000000E+02   2.02005814E+02   2.02005814E+02  -3.65536461E+01   7.11499405E+00   2.02005814E+02   2.02005814E+02   7.11499405E+00  -3.65536461E+01   2.38559448E+02  -5.75223846E+01   2.09914139E+02  -3.62228851E+01   2.01675049E+02   7.11499405E+00   8.87674999E+00
             3156                3   2.20000000E+02   2.02106537E+02   2.02106537E+02  -3.60980721E+01   6.55869007E+00   2.02106537E+02   2.02106537E+02   6.55869007E+00  -3.60980721E+01   2.38204605E+02  -5.75223846E+01   2.10391754E+02  -3.60973206E+01   2.02105789E+02   6.55869007E+00  -4.22885835E-01
             3156                4   2.20000000E+02   2.02472519E+02   2.02472519E+02  -3.43286324E+01   4.42328405E+00   2.02472519E+02   2.02472519E+02   4.42328405E+00  -3.43286324E+01   2.36801163E+02  -5.75223885E+01   2.12116547E+02  -3.42183762E+01   2.02362259E+02   4.42328405E+00   5.10868359E+00
             3157                1   2.20000000E+02   2.30786285E+02   2.30786285E+02  -1.03112640E+01   4.09267921E+01   2.30786285E+02   2.30786285E+02   4.09267921E+01  -1.03112640E+01   2.41097549E+02  -8.71339417E+01   2.05923218E+02  -1.03112688E+01   2.30786285E+02   4.09267921E+01   1.54850259E-03
             3157                2   2.20000000E+02   2.30165970E+02   2.30165970E+02  -1.24838724E+01   4.37196999E+01   2.30165970E+02   2.30165970E+02   4.37196999E+01  -1.24838724E+01   2.42649841E+02  -8.71339340E+01   2.02882889E+02  -1.22131271E+01   2.29895233E+02   4.37196999E+01  -8.10068130E+00
             3157                3   2.20000000E+02   2.30053650E+02   2.30053650E+02  -1.28531132E+01   4.42012711E+01   2.30053650E+02   2.30053650E+02   4.42012711E+01  -1.28531132E+01   2.42906754E+02  -8.71339340E+01   2.02326385E+02  -1.26756840E+01   2.29876221E+02   4.42012711E+01   6.56245899E+00
             3157                4   2.20000000E+02   2.29472534E+02   2.29472534E+02  -1.46642170E+01   4.65934906E+01   2.29472534E+02   2.29472534E+02   4.65934906E+01  -1.46642170E+01   2.44136749E+02  -8.71339340E+01   1.99416779E+02  -1.46568384E+01   2.29465164E+02   4.65934906E+01  -1.34148777E+00
             3158                1   2.11681213E+02   1.83431320E+02   1.83431320E+02  -3.34201241E+01  -2.26699905E+01   1.83431320E+02   1.83431320E+02  -2.26699905E+01  -3.34201241E+01   2.16851456E+02  -4.24470711E+01   2.11065735E+02  -3.33209953E+01   1.83332199E+02  -2.26699905E+01  -4.63526773E+00
             3158                2   2.12715149E+02   1.83975510E+02   1.83975510E+02  -3.60536232E+01  -2.05806713E+01   1.83975510E+02   1.83975510E+02  -2.05806713E+01  -3.60536232E+01   2.20029129E+02  -4.24470711E+01   2.11443466E+02  -3.57063446E+01   1.83628235E+02  -2.05806713E+01  -8.73444653E+00
             3158                3   2.12574768E+02   1.83908646E+02   1.83908646E+02  -3.56420746E+01  -2.09253502E+01   1.83908646E+02   1.83908646E+02  -2.09253502E+01  -3.56420746E+01   2.19550720E+02  -4.24470711E+01   2.11424072E+02  -3.56420784E+01   1.83908646E+02  -2.09253502E+01  -1.36113549E-02
             3158                4   2.13261200E+02   1.84190079E+02   1.84190079E+02  -3.80058746E+01  -1.88429813E+01   1.84190079E+02   1.84190079E+02  -1.88429813E+01  -3.80058746E+01   2.22195953E+02  -4.24470749E+01   2.11311172E+02  -3.79276695E+01   1.84111877E+02  -1.88429813E+01  -4.16767788E+00
             3159                1   2.06443024E+02   1.63033722E+02   1.63033722E+02  -4.39499969E+01  -4.28643150E+01   1.63033722E+02   1.63033722E+02  -4.28643150E+01  -4.39499969E+01   2.06983719E+02  -2.54064693E+01   2.06436600E+02  -4.38609772E+01   1.62944702E+02  -4.28643150E+01  -4.29162169E+00
             3159                2   2.07190048E+02   1.63490128E+02   1.63490128E+02  -4.66215973E+01  -4.06491089E+01   1.63490128E+02   1.63490128E+02  -4.06491089E+01  -4.66215973E+01   2.10111725E+02  -2.54064713E+01   2.06996231E+02  -4.63917160E+01   1.63260239E+02  -4.06491089E+01  -6.94614697E+00
             3159                3   2.06926025E+02   1.63340912E+02   1.63340912E+02  -4.53942337E+01  -4.17272568E+01   1.63340912E+02   1.63340912E+02  -4.17272568E+01  -4.53942337E+01   2.08735138E+02  -2.54064713E+01   2.06852905E+02  -4.53931236E+01   1.63339798E+02  -4.17272568E+01   4.80770499E-01
             3159                4   2.07636536E+02   1.63746719E+02   1.63746719E+02  -4.79420357E+01  -3.95852699E+01   1.63746719E+02   1.63746719E+02  -3.95852699E+01  -4.79420357E+01   2.11688751E+02  -2.54064732E+01   2.07257660E+02  -4.79184265E+01   1.63723114E+02  -3.95852699E+01  -2.23538637E+00
             3160                1   5.00928955E+01   5.15676117E+01   5.15676117E+01   1.53637195E+00   1.41328704E+00   5.15676117E+01   5.15676117E+01   1.53637195E+00   1.41328704E+00   5.01543274E+01  -1.81724243E+01   5.00925560E+01   1.82910788E+00   5.12748756E+01   1.41328704E+00   3.81579757E+00
             3160                2   5.04329567E+01   5.17943420E+01   5.17943420E+01   1.30964410E+00   1.41328704E+00   5.17943420E+01   5.17943420E+01   1.41328704E+00   1.30964410E+00   5.04846954E+01  -1.81724243E+01   5.04327126E+01   1.61503184E+00   5.14889526E+01   1.41328704E+00   3.91460919E+00
             3160                3   4.99961395E+01   5.15030060E+01   5.15030060E+01   1.60097778E+00   1.41328704E+00   5.15030060E+01   5.15030060E+01   1.60097778E+00   1.41328704E+00   5.00897217E+01  -1.81724243E+01   4.99953461E+01   1.92844868E+00   5.11755371E+01   1.41328704E+00   4.02916574E+00
             3160                4   5.03371506E+01   5.17305183E+01   5.17305183E+01   1.37346804E+00   1.41328704E+00   5.17305183E+01   5.17305183E+01   1.41328704E+00   1.37346804E+00   5.03570480E+01  -1.81724243E+01   5.03371162E+01   1.71415305E+00   5.13898315E+01   1.41328704E+00   4.12793350E+00
             3161                1   2.19579025E+02   2.29098160E+02   2.29098160E+02  -9.04543972E+00   3.46561661E+01   2.29098160E+02   2.29098160E+02   3.46561661E+01  -9.04543972E+00   2.38143600E+02  -8.49029617E+01   2.09456619E+02  -9.03995800E+00   2.29092682E+02   3.46561661E+01  -1.14208770E+00
             3161                2   2.19795212E+02   2.28744156E+02   2.28744156E+02  -1.12167473E+01   3.71814880E+01   2.28744156E+02   2.28744156E+02   3.71814880E+01  -1.12167473E+01   2.39960907E+02  -8.49029617E+01   2.07291321E+02  -1.09309626E+01   2.28458374E+02   3.71814880E+01  -8.27610683E+00
             3161                3   2.19810532E+02   2.28656265E+02   2.28656265E+02  -1.16069241E+01   3.76595612E+01   2.28656265E+02   2.28656265E+02   3.76595612E+01  -1.16069241E+01   2.40263199E+02  -8.49029694E+01   2.06833817E+02  -1.15231075E+01   2.28572449E+02   3.76595612E+01   4.48691654E+00
             3161                4   2.19849686E+02   2.28200272E+02   2.28200272E+02  -1.34047728E+01   3.99133949E+01   2.28200272E+02   2.28200272E+02   3.99133949E+01  -1.34047728E+01   2.41605042E+02  -8.49029617E+01   2.04530060E+02  -1.33788099E+01   2.28174316E+02   3.99133949E+01  -2.50417948E+00
             3162                1   2.09282776E+02   1.76384079E+02   1.76384079E+02  -3.61477699E+01  -2.94907913E+01   1.76384079E+02   1.76384079E+02  -2.94907913E+01  -3.61477699E+01   2.12531860E+02  -3.69151726E+01   2.09044373E+02  -3.60375938E+01   1.76273911E+02  -2.94907913E+01  -4.83766508E+00
             3162                2   2.10021957E+02   1.76775085E+02   1.76775085E+02  -3.87138062E+01  -2.73157616E+01   1.76775085E+02   1.76775085E+02  -2.73157616E+01  -3.87138062E+01   2.15488892E+02  -3.69151726E+01   2.09324387E+02  -3.83812141E+01   1.76442490E+02  -2.73157616E+01  -8.45929718E+00
             3162                3   2.09836121E+02   1.76683578E+02   1.76683578E+02  -3.80344887E+01  -2.79035721E+01   1.76683578E+02   1.76683578E+02  -2.79035721E+01  -3.80344887E+01   2.14718079E+02  -3.69151726E+01   2.09284805E+02  -3.80342407E+01   1.76683334E+02  -2.79035721E+01  -2.31474519E-01
             3162                4   2.10535583E+02   1.77018036E+02   1.77018036E+02  -4.04485283E+01  -2.58239784E+01   1.77018036E+02   1.77018036E+02  -2.58239784E+01  -4.04485283E+01   2.17466553E+02  -3.69151764E+01   2.09388199E+02  -4.03785286E+01   1.76948029E+02  -2.58239784E+01  -3.90108943E+00
             3163                1   2.14332367E+02   1.99564499E+02   1.99564499E+02  -2.42565384E+01  -3.81447291E+00   1.99564499E+02   1.99564499E+02  -3.81447291E+00  -2.42565384E+01   2.23821030E+02  -5.71644936E+01   2.12122528E+02  -2.42560539E+01   1.99564011E+02  -3.81447291E+00   3.27995420E-01
             3163                2   2.14836304E+02   1.99690048E+02   1.99690048E+02  -2.63346443E+01  -1.86193180E+00   1.99690048E+02   1.99690048E+02  -1.86193180E+00  -2.63346443E+01   2.26024704E+02  -5.71644897E+01   2.11666275E+02  -2.62047462E+01   1.99560150E+02  -1.86193180E+00   5.41702795E+00
             3163                3   2.13546967E+02   1.99220612E+02   1.99220612E+02  -2.19761086E+01  -5.75101185E+00   1.99220612E+02   1.99220612E+02  -5.75101185E+00  -2.19761086E+01   2.21196716E+02  -5.71645012E+01   2.12153519E+02  -2.18511734E+01   1.99095673E+02  -5.75101185E+00   5.25559330E+00
             3163                4   2.14553055E+02   1.99699570E+02   1.99699570E+02  -2.44544277E+01  -3.75166488E+00   1.99699570E+02   1.99699570E+02  -3.75166488E+00  -2.44544277E+01   2.24154007E+02  -5.71644936E+01   2.12288422E+02  -2.39691906E+01   1.99214340E+02  -3.75166488E+00   1.04178638E+01
             3164                1   2.16428787E+02   1.82542221E+02   1.82542221E+02  -4.09555244E+01  -2.60466633E+01   1.82542221E+02   1.82542221E+02  -2.60466633E+01  -4.09555244E+01   2.23497742E+02  -3.85133476E+01   2.15268921E+02  -4.09270439E+01   1.82513748E+02  -2.60466633E+01  -2.52256203E+00
             3164                2   2.17103577E+02   1.82759064E+02   1.82759064E+02  -4.39149742E+01  -2.33040409E+01   1.82759064E+02   1.82759064E+02  -2.33040409E+01  -4.39149742E+01   2.26674026E+02  -3.85133476E+01   2.14885910E+02  -4.36412926E+01   1.82485382E+02  -2.33040409E+01  -7.87149048E+00
             3164                3   2.16912888E+02   1.82664688E+02   1.82664688E+02  -4.35135956E+01  -2.36110458E+01   1.82664688E+02   1.82664688E+02  -2.36110458E+01  -4.35135956E+01   2.26178284E+02  -3.85133476E+01   2.14844238E+02  -4.34747581E+01   1.82625854E+02  -2.36110458E+01   2.96334481E+00
             3164                4   2.17537872E+02   1.82814087E+02   1.82814087E+02  -4.61755104E+01  -2.10985394E+01   1.82814087E+02   1.82814087E+02  -2.10985394E+01  -4.61755104E+01   2.28989609E+02  -3.85133476E+01   2.14249847E+02  -4.61512375E+01   1.82789825E+02  -2.10985394E+01  -2.35711432E+00
             3165                1   2.07595215E+02   1.86871994E+02   1.86871994E+02  -2.43748932E+01  -1.68678932E+01   1.86871994E+02   1.86871994E+02  -1.68678932E+01  -2.43748932E+01   2.11246887E+02  -4.85430717E+01   2.07289490E+02  -2.42204571E+01   1.86717560E+02  -1.68678932E+01   5.70963764E+00
             3165                2   2.08149353E+02   1.87179138E+02   1.87179138E+02  -2.59790630E+01  -1.55708618E+01   1.87179138E+02   1.87179138E+02  -1.55708618E+01  -2.59790630E+01   2.13158203E+02  -4.85430717E+01   2.07562653E+02  -2.59472733E+01   1.87147339E+02  -1.55708618E+01   2.60320282E+00
             3165                3   2.08200638E+02   1.87206573E+02   1.87206573E+02  -2.61266575E+01  -1.54507141E+01   1.87206573E+02   1.87206573E+02  -1.54507141E+01  -2.61266575E+01   2.13333221E+02  -4.85430641E+01   2.07583450E+02  -2.57579498E+01   1.86837860E+02  -1.54507141E+01   8.86123276E+00
             3165                4   2.08728409E+02   1.87478775E+02   1.87478775E+02  -2.76455345E+01  -1.42040272E+01   1.87478775E+02   1.87478775E+02  -1.42040272E+01  -2.76455345E+01   2.15124313E+02  -4.85430717E+01   2.07751297E+02  -2.74904633E+01   1.87323700E+02  -1.42040272E+01   5.77370548E+00
             3166                1   4.57647896E+01   3.96297722E+01   3.96297722E+01  -3.46992397E+00  -8.40078831E+00   3.96297722E+01   3.96297722E+01  -3.46992397E+00  -8.40078831E+00   4.80305595E+01  -9.25302029E+00   4.51613617E+01  -1.57597214E-01   3.63174438E+01  -8.40078831E+00   1.14799299E+01
             3166                2   4.51036835E+01   3.91600418E+01   3.91600418E+01  -3.00019670E+00  -8.40078831E+00   3.91600418E+01   3.91600418E+01  -3.00019670E+00  -8.40078831E+00   4.75608292E+01  -9.25301838E+00   4.43675156E+01   3.57551545E-01   3.58022919E+01  -8.40078831E+00   1.14144201E+01
             3166                3   4.54691772E+01   3.94201660E+01   3.94201660E+01  -3.26032281E+00  -8.40078831E+00   3.94201660E+01   3.94201660E+01  -3.26032281E+00  -8.40078831E+00   4.78209534E+01  -9.25301838E+00   4.48084450E+01  -2.24676549E-01   3.63845215E+01  -8.40078831E+00   1.09703083E+01
             3166                4   4.48008041E+01   3.89436417E+01   3.89436417E+01  -2.78379297E+00  -8.40078831E+00   3.89436417E+01   3.89436417E+01  -2.78379297E+00  -8.40078831E+00   4.73444290E+01  -9.25302029E+00   4.39981384E+01   2.91887820E-01   3.58679581E+01  -8.40078831E+00   1.09032335E+01
             3167                1   2.19718582E+02   2.07520996E+02   2.07520996E+02  -2.94971676E+01   1.06343451E+01   2.07520996E+02   2.07520996E+02   1.06343451E+01  -2.94971676E+01   2.37018173E+02  -6.28860588E+01   2.11235489E+02  -2.94882107E+01   2.07512039E+02   1.06343451E+01   1.45750296E+00
             3167                2   2.19745193E+02   2.07865021E+02   2.07865021E+02  -2.78190441E+01   8.61220741E+00   2.07865021E+02   2.07865021E+02   8.61220741E+00  -2.78190441E+01   2.35684067E+02  -6.28860626E+01   2.12791214E+02  -2.78167744E+01   2.07862747E+02   8.61220741E+00  -7.31666744E-01
             3167                3   2.19671341E+02   2.07225174E+02   2.07225174E+02  -3.07271576E+01   1.21601667E+01   2.07225174E+02   2.07225174E+02   1.21601667E+01  -3.07271576E+01   2.37952332E+02  -6.28860626E+01   2.09939850E+02  -3.07123566E+01   2.07210373E+02   1.21601667E+01  -1.87661517E+00
             3167                4   2.19697479E+02   2.07580185E+02   2.07580185E+02  -2.91257553E+01   1.02037554E+01   2.07580185E+02   2.07580185E+02   1.02037554E+01  -2.91257553E+01   2.36705933E+02  -6.28860588E+01   2.11558762E+02  -2.90569000E+01   2.07511322E+02   1.02037554E+01  -4.03655243E+00
             3168                1   4.86451874E+01   4.43818550E+01   4.43818550E+01  -2.95979762E+00  -5.46969032E+00   4.43818550E+01   4.43818550E+01  -2.95979762E+00  -5.46969032E+00   4.98515472E+01  -1.19841232E+01   4.84991798E+01  -6.36308908E-01   4.20583687E+01  -5.46969032E+00   1.02273712E+01
             3168                2   4.81730461E+01   4.40577774E+01   4.40577774E+01  -2.63572049E+00  -5.46969032E+00   4.40577774E+01   4.40577774E+01  -2.63572049E+00  -5.46969032E+00   4.95274696E+01  -1.19841232E+01   4.79849510E+01  -2.65484452E-01   4.16875420E+01  -5.46969032E+00   1.02497129E+01
             3168                3   4.83995552E+01   4.42134209E+01   4.42134209E+01  -2.79136157E+00  -5.46969032E+00   4.42134209E+01   4.42134209E+01  -2.79136157E+00  -5.46969032E+00   4.96831093E+01  -1.19841232E+01   4.82323990E+01  -6.23812139E-01   4.20458717E+01  -5.46969032E+00   9.85833931E+00
             3168                4   4.79229355E+01   4.38855667E+01   4.38855667E+01  -2.46350884E+00  -5.46969032E+00   4.38855667E+01   4.38855667E+01  -2.46350884E+00  -5.46969032E+00   4.93552589E+01  -1.19841232E+01   4.77101021E+01  -2.52746284E-01   4.16748047E+01  -5.46969032E+00   9.87822437E+00
             3169                1   2.01147095E+02   1.71080261E+02   1.71080261E+02  -3.29673195E+01  -2.70350971E+01   1.71080261E+02   1.71080261E+02  -2.70350971E+01  -3.29673195E+01   2.04047592E+02  -3.70259514E+01   2.00950134E+02  -3.29152145E+01   1.71028168E+02  -2.70350971E+01  -3.26000309E+00
             3169                2   2.00471207E+02   1.70666183E+02   1.70666183E+02  -3.09991856E+01  -2.85891304E+01   1.70666183E+02   1.70666183E+02  -2.85891304E+01  -3.09991856E+01   2.01665359E+02  -3.70259552E+01   2.00438599E+02  -3.09915657E+01   1.70658554E+02  -2.85891304E+01  -1.23987436E+00
             3169                3   2.00639114E+02   1.70763779E+02   1.70763779E+02  -3.19241314E+01  -2.77617817E+01   1.70763779E+02   1.70763779E+02  -2.77617817E+01  -3.19241314E+01   2.02687912E+02  -3.70259552E+01   2.00541931E+02  -3.16981411E+01   1.70537781E+02  -2.77617817E+01  -6.76429653E+00
             3169                4   1.99846115E+02   1.70256348E+02   1.70256348E+02  -2.98572617E+01  -2.93212185E+01   1.70256348E+02   1.70256348E+02  -2.93212185E+01  -2.98572617E+01   2.00113602E+02  -3.70259514E+01   1.99844498E+02  -2.97430897E+01   1.70142166E+02  -2.93212185E+01  -4.77857780E+00
             3170                1   5.53037148E+01   5.02490883E+01   5.02490883E+01  -3.76363778E+00  -6.26100063E+00   5.02490883E+01   5.02490883E+01  -3.76363778E+00  -6.26100063E+00   5.65100899E+01  -1.34081497E+01   5.51766319E+01  -1.27716959E+00   4.77626190E+01  -6.26100063E+00   1.13189430E+01
             3170                2   5.57987747E+01   5.05864220E+01   5.05864220E+01  -4.10097218E+00  -6.26100063E+00   5.05864220E+01   5.05864220E+01  -4.10097218E+00  -6.26100063E+00   5.68474236E+01  -1.34081497E+01   5.57045898E+01  -1.71786976E+00   4.82033195E+01  -6.26100063E+00   1.11645212E+01
             3170                3   5.56754913E+01   5.05025253E+01   5.05025253E+01  -4.01707649E+00  -6.26100063E+00   5.05025253E+01   5.05025253E+01  -4.01707649E+00  -6.26100063E+00   5.67635269E+01  -1.34081497E+01   5.55736122E+01  -1.34269297E+00   4.78281441E+01  -6.26100063E+00   1.17751427E+01
             3170                4   5.61858482E+01   5.08493652E+01   5.08493652E+01  -4.36391401E+00  -6.26100063E+00   5.08493652E+01   5.08493652E+01  -4.36391401E+00  -6.26100063E+00   5.71103668E+01  -1.34081497E+01   5.61137199E+01  -1.79201496E+00   4.82774658E+01  -6.26100063E+00   1.16356478E+01
             3171                1   5.24918251E+01   5.31145477E+01   5.31145477E+01   6.84428871E-01   5.61236143E-01   5.31145477E+01   5.31145477E+01   6.84428871E-01   5.61236143E-01   5.25533104E+01  -1.81200714E+01   5.24914970E+01   9.00401592E-01   5.28985748E+01   5.61236143E-01   3.35810328E+00
             3171                2   5.28262062E+01   5.33374939E+01   5.33374939E+01   4.61481661E-01   5.61236143E-01   5.33374939E+01   5.33374939E+01   5.61236143E-01   4.61481661E-01   5.28760147E+01  -1.81200714E+01   5.28259926E+01   6.87419891E-01   5.31115570E+01   5.61236143E-01   3.44900918E+00
             3171                3   5.23986664E+01   5.30523529E+01   5.30523529E+01   7.46625841E-01   5.61236143E-01   5.30523529E+01   5.30523529E+01   7.46625841E-01   5.61236143E-01   5.24911156E+01  -1.81200714E+01   5.23979263E+01   9.91518617E-01   5.28074570E+01   5.61236143E-01   3.57062888E+00
             3171                4   5.27338333E+01   5.32759514E+01   5.32759514E+01   5.23021221E-01   5.61236143E-01   5.32759514E+01   5.32759514E+01   5.61236143E-01   5.23021221E-01   5.27529297E+01  -1.81200695E+01   5.27338028E+01   7.78390646E-01   5.30205841E+01   5.61236143E-01   3.66144586E+00
             3172                1   8.21999207E+01   7.59373550E+01   7.59373550E+01  -6.16854715E+00  -6.35626841E+00   7.59373550E+01   7.59373550E+01  -6.16854715E+00  -6.35626841E+00   8.22936249E+01  -2.11375122E+01   8.21994400E+01  -4.32777119E+00   7.40965805E+01  -6.35626841E+00   1.21552410E+01
             3172                2   8.16592941E+01   7.55761185E+01   7.55761185E+01  -5.80731297E+00  -6.35626841E+00   7.55761185E+01   7.55761185E+01  -5.80731297E+00  -6.35626841E+00   8.19323883E+01  -2.11375122E+01   8.16551437E+01  -3.91686225E+00   7.36856689E+01  -6.35626841E+00   1.22587738E+01
             3172                3   8.18799744E+01   7.57236710E+01   7.57236710E+01  -5.95486403E+00  -6.35626841E+00   7.57236710E+01   7.57236710E+01  -5.95486403E+00  -6.35626841E+00   8.20799408E+01  -2.11375122E+01   8.18777618E+01  -4.23147726E+00   7.40002823E+01  -6.35626841E+00   1.17385578E+01
             3172                4   8.13370590E+01   7.53604202E+01   7.53604202E+01  -5.59161329E+00  -6.35626841E+00   7.53604202E+01   7.53604202E+01  -5.59161329E+00  -6.35626841E+00   8.17166901E+01  -2.11375122E+01   8.13289719E+01  -3.82062078E+00   7.35894241E+01  -6.35626841E+00   1.18418436E+01
             3173                1   1.43838516E+02   1.73410751E+02   1.73410751E+02   2.73553696E+01   3.18966637E+01   1.73410751E+02   1.73410751E+02   3.18966637E+01   2.73553696E+01   1.46055389E+02  -7.75542679E+01   1.43677078E+02   2.84656830E+01   1.72300446E+02   3.18966637E+01   1.26859903E+01
             3173                2   1.44840927E+02   1.74068222E+02   1.74068222E+02   2.66979065E+01   3.18966637E+01   1.74068222E+02   1.74068222E+02   3.18966637E+01   2.66979065E+01   1.47370316E+02  -7.75542679E+01   1.44630783E+02   2.77501583E+01   1.73015976E+02   3.18966637E+01   1.24081688E+01
             3173                3   1.43782822E+02   1.73374191E+02   1.73374191E+02   2.73919411E+01   3.18966637E+01   1.73374191E+02   1.73374191E+02   3.18966637E+01   2.73919411E+01   1.45982239E+02  -7.75542679E+01   1.43623917E+02   2.86286163E+01   1.72137512E+02   3.18966637E+01   1.33792076E+01
             3173                4   1.44692963E+02   1.73971252E+02   1.73971252E+02   2.67948627E+01   3.18966637E+01   1.73971252E+02   1.73971252E+02   3.18966637E+01   2.67948627E+01   1.47176392E+02  -7.75542603E+01   1.44490387E+02   2.79960556E+01   1.72770065E+02   3.18966637E+01   1.32417240E+01
             3174                1   1.90578094E+02   1.92615250E+02   1.92615250E+02   1.58666241E+00   2.49087477E+00   1.92615250E+02   1.92615250E+02   2.49087477E+00   1.58666241E+00   1.91028595E+02  -6.55642624E+01   1.90573273E+02   1.58793986E+00   1.92613983E+02   2.49087477E+00   4.93329018E-01
             3174                2   1.90649078E+02   1.92662460E+02   1.92662460E+02   1.53952956E+00   2.49080753E+00   1.92662460E+02   1.92662460E+02   2.49080753E+00   1.53952956E+00   1.91122940E+02  -6.55642700E+01   1.90643723E+02   1.54366684E+00   1.92658325E+02   2.49080753E+00   8.89627337E-01
             3174                3   1.89993729E+02   1.92226395E+02   1.92226395E+02   1.97521722E+00   2.49118876E+00   1.92226395E+02   1.92226395E+02   2.49118876E+00   1.97521722E+00   1.90251175E+02  -6.55642700E+01   1.89992142E+02   1.97677267E+00   1.92224838E+02   2.49118876E+00   5.44589937E-01
             3174                4   1.90064377E+02   1.92273438E+02   1.92273438E+02   1.92823815E+00   2.49112177E+00   1.92273438E+02   1.92273438E+02   2.49112177E+00   1.92823815E+00   1.90345200E+02  -6.55642624E+01   1.90062515E+02   1.93288183E+00   1.92268799E+02   2.49112177E+00   9.39617276E-01
             3175                1   1.95473969E+02   1.81955673E+02   1.81955673E+02  -1.39613400E+01  -1.30722046E+01   1.81955673E+02   1.81955673E+02  -1.30722046E+01  -1.39613400E+01   1.95917023E+02  -5.16407127E+01   1.95469421E+02  -1.38977032E+01   1.81892044E+02  -1.30722046E+01   3.53030968E+00
             3175                2   1.96030182E+02   1.82322510E+02   1.82322510E+02  -1.46896992E+01  -1.27106657E+01   1.82322510E+02   1.82322510E+02  -1.27106657E+01  -1.46896992E+01   1.97012207E+02  -5.16407166E+01   1.96007706E+02  -1.46591492E+01   1.82291962E+02  -1.27106657E+01   2.45311260E+00
             3175                3   1.95924301E+02   1.82251755E+02   1.82251755E+02  -1.46698351E+01  -1.26597786E+01   1.82251755E+02   1.82251755E+02  -1.26597786E+01  -1.46698351E+01   1.96921600E+02  -5.16407166E+01   1.95901093E+02  -1.45593300E+01   1.82141251E+02  -1.26597786E+01   4.66363239E+00
             3175                4   1.96472366E+02   1.82610199E+02   1.82610199E+02  -1.53851976E+01  -1.23028526E+01   1.82610199E+02   1.82610199E+02  -1.23028526E+01  -1.53851976E+01   1.97995407E+02  -5.16407166E+01   1.96417953E+02  -1.53201199E+01   1.82545120E+02  -1.23028526E+01   3.58915353E+00
             3176                1   1.78219166E+01   1.08636045E+01   1.08636045E+01  -4.16861683E-01  -9.68246651E+00   1.08636045E+01   1.08636045E+01  -4.16861683E-01  -9.68246651E+00   2.05460720E+01  -2.54758835E-01   9.85062218E+00   7.88618088E+00   2.56056213E+00  -9.68246651E+00   4.97208977E+00
             3176                2   1.77217064E+01   1.07573528E+01   1.07573528E+01  -3.10609907E-01  -9.68246651E+00   1.07573528E+01   1.07573528E+01  -3.10609907E-01  -9.68246651E+00   2.04398193E+01  -2.54758835E-01   9.26991653E+00   8.55822182E+00   1.88852155E+00  -9.68246651E+00   4.41630220E+00
             3176                3   1.70977039E+01   1.00589151E+01   1.00589151E+01   3.87828082E-01  -9.68246651E+00   1.00589151E+01   1.00589151E+01   3.87828082E-01  -9.68246651E+00   1.97413807E+01  -2.54758835E-01  -5.59365320E+00   7.31160498E+00   3.13513827E+00  -9.68246651E+00   4.36139441E+00
             3176                4   1.69857426E+01   9.92555046E+00   9.92555046E+00   5.21192253E-01  -9.68246651E+00   9.92555046E+00   9.92555046E+00   5.21192253E-01  -9.68246651E+00   1.96080170E+01  -2.54758835E-01  -7.01805115E+00   8.00689316E+00   2.43985009E+00  -9.68246651E+00   3.78978848E+00
             3177                1   3.74941216E+01   3.49328842E+01   3.49328842E+01  -7.29839265E-01  -4.15728235E+00   3.49328842E+01   3.49328842E+01  -7.29839265E-01  -4.15728235E+00   3.90901680E+01  -1.00152540E+01   3.71392174E+01   4.41618830E-01   3.37614250E+01  -4.15728235E+00   6.35650110E+00
             3177                2   3.71119881E+01   3.46643867E+01   3.46643867E+01  -4.61347103E-01  -4.15728235E+00   3.46643867E+01   3.46643867E+01  -4.61347103E-01  -4.15728235E+00   3.88216705E+01  -1.00152531E+01   3.66945114E+01   7.10920334E-01   3.34921227E+01  -4.15728235E+00   6.30892086E+00
             3177                3   3.74293861E+01   3.48874931E+01   3.48874931E+01  -6.84450626E-01  -4.15728235E+00   3.48874931E+01   3.48874931E+01  -6.84450626E-01  -4.15728235E+00   3.90447731E+01  -1.00152531E+01   3.70643158E+01   3.89795035E-01   3.38132477E+01  -4.15728235E+00   6.08760595E+00
             3177                4   3.70461884E+01   3.46180229E+01   3.46180229E+01  -4.14977372E-01  -4.15728235E+00   3.46180229E+01   3.46180229E+01  -4.14977372E-01  -4.15728235E+00   3.87753029E+01  -1.00152540E+01   3.66173096E+01   6.59353316E-01   3.35436897E+01  -4.15728235E+00   6.04010773E+00
             3178                1   4.25361137E+01   4.06165771E+01   4.06165771E+01  -1.00572813E+00  -2.77795362E+00   4.06165771E+01   4.06165771E+01  -1.00572813E+00  -2.77795362E+00   4.33945274E+01  -1.22776308E+01   4.24529305E+01   7.38904059E-01   3.88719444E+01  -2.77795362E+00   8.34097290E+00
             3178                2   4.22172470E+01   4.03990059E+01   4.03990059E+01  -7.88158715E-01  -2.77795362E+00   4.03990059E+01   4.03990059E+01  -7.88158715E-01  -2.77795362E+00   4.31769600E+01  -1.22776308E+01   4.21115494E+01   9.86328840E-01   3.86245193E+01  -2.77795362E+00   8.36285114E+00
             3178                3   4.23610649E+01   4.04972153E+01   4.04972153E+01  -8.86368990E-01  -2.77795362E+00   4.04972153E+01   4.04972153E+01  -8.86368990E-01  -2.77795362E+00   4.32751694E+01  -1.22776308E+01   4.22658882E+01   7.60182559E-01   3.88506660E+01  -2.77795362E+00   8.08882141E+00
             3178                4   4.20396423E+01   4.02775383E+01   4.02775383E+01  -6.66690886E-01  -2.77795362E+00   4.02775383E+01   4.02775383E+01  -6.66690886E-01  -2.77795362E+00   4.30554924E+01  -1.22776308E+01   4.19201126E+01   1.00750673E+00   3.86033401E+01  -2.77795362E+00   8.10837936E+00
             3179                1   2.50266113E+01   1.79743614E+01   1.79743614E+01   4.69389260E-02  -1.06180763E+01   1.79743614E+01   1.79743614E+01   4.69389260E-02  -1.06180763E+01   2.85924377E+01  -2.46774173E+00   1.87875614E+01   7.33097672E-01   1.72882042E+01  -1.06180763E+01   3.43951082E+00
             3179                2   2.54745827E+01   1.83855724E+01   1.83855724E+01  -3.64271015E-01  -1.06180763E+01   1.83855724E+01   1.83855724E+01  -3.64271015E-01  -1.06180763E+01   2.90036488E+01  -2.46774173E+00   1.99696865E+01   3.36251944E-01   1.76850491E+01  -1.06180763E+01   3.55583572E+00
             3179                3   2.50773373E+01   1.80214939E+01   1.80214939E+01  -1.90808554E-04  -1.06180763E+01   1.80214939E+01   1.80214939E+01  -1.90808554E-04  -1.06180763E+01   2.86395702E+01  -2.46774220E+00   1.89278412E+01   8.57270598E-01   1.71640320E+01  -1.06180763E+01   3.83636141E+00
             3179                4   2.55240879E+01   1.84303493E+01   1.84303493E+01  -4.09045398E-01  -1.06180763E+01   1.84303493E+01   1.84303493E+01  -4.09045398E-01  -1.06180763E+01   2.90484257E+01  -2.46774220E+00   2.00931835E+01   4.60177958E-01   1.75611248E+01  -1.06180763E+01   3.95222712E+00
             3180                1   2.11488083E+02   1.99416412E+02   1.99416412E+02  -1.91181545E+01  -4.23935318E+00   1.99416412E+02   1.99416412E+02  -4.23935318E+00  -1.91181545E+01   2.18534576E+02  -5.86863060E+01   2.10305679E+02  -1.89733295E+01   1.99271591E+02  -4.23935318E+00  -5.62394762E+00
             3180                2   2.11747787E+02   1.99500854E+02   1.99500854E+02  -2.03323040E+01  -3.10965538E+00   1.99500854E+02   1.99500854E+02  -3.10965538E+00  -2.03323040E+01   2.19833160E+02  -5.86862984E+01   2.10163315E+02  -2.00231876E+01   1.99191742E+02  -3.10965538E+00  -8.23755741E+00
             3180                3   2.12142044E+02   1.99748337E+02   1.99748337E+02  -2.06505852E+01  -3.03884935E+00   1.99748337E+02   1.99748337E+02  -3.03884935E+00  -2.06505852E+01   2.20398911E+02  -5.86862984E+01   2.10487869E+02  -2.05805035E+01   1.99678253E+02  -3.03884935E+00  -3.92943883E+00
             3180                4   2.12369095E+02   1.99805267E+02   1.99805267E+02  -2.17535000E+01  -1.99286878E+00   1.99805267E+02   1.99805267E+02  -1.99286878E+00  -2.17535000E+01   2.21558777E+02  -5.86862984E+01   2.10285797E+02  -2.15588493E+01   1.99610626E+02  -1.99286878E+00  -6.56414270E+00
             3181                1   2.16523636E+02   2.13432602E+02   2.13432602E+02  -1.50803938E+01   1.13191586E+01   2.13432602E+02   2.13432602E+02   1.13191586E+01  -1.50803938E+01   2.28512985E+02  -6.98904495E+01   2.12857681E+02  -1.50241871E+01   2.13376389E+02   1.13191586E+01  -3.58346677E+00
             3181                2   2.16645966E+02   2.13329300E+02   2.13329300E+02  -1.64621830E+01   1.28042402E+01   2.13329300E+02   2.13329300E+02   1.28042402E+01  -1.64621830E+01   2.29791473E+02  -6.98904495E+01   2.12130173E+02  -1.62254677E+01   2.13092575E+02   1.28042402E+01  -7.37157154E+00
             3181                3   2.16869247E+02   2.13404663E+02   2.13404663E+02  -1.70382957E+01   1.33049927E+01   2.13404663E+02   2.13404663E+02   1.33049927E+01  -1.70382957E+01   2.30442947E+02  -6.98904495E+01   2.12014542E+02  -1.70302296E+01   2.13396591E+02   1.33049927E+01  -1.36346984E+00
             3181                4   2.16985214E+02   2.13285599E+02   2.13285599E+02  -1.83167458E+01   1.47024946E+01   2.13285599E+02   2.13285599E+02   1.47024946E+01  -1.83167458E+01   2.31602341E+02  -6.98904495E+01   2.11221848E+02  -1.82047424E+01   2.13173599E+02   1.47024946E+01  -5.09190893E+00
             3182                1   2.17281631E+02   2.13781296E+02   2.13781296E+02  -1.64790974E+01   1.23584366E+01   2.13781296E+02   2.13781296E+02   1.23584366E+01  -1.64790974E+01   2.30260391E+02  -6.98868790E+01   2.12912415E+02  -1.64407177E+01   2.13742920E+02   1.23584366E+01  -2.97240949E+00
             3182                2   2.17691116E+02   2.13807373E+02   2.13807373E+02  -1.82488327E+01   1.41021042E+01   2.13807373E+02   2.13807373E+02   1.41021042E+01  -1.82488327E+01   2.32056198E+02  -6.98868790E+01   2.12181732E+02  -1.80133610E+01   2.13571899E+02   1.41021042E+01  -7.38822746E+00
             3182                3   2.17829575E+02   2.13858276E+02   2.13858276E+02  -1.85533581E+01   1.43557310E+01   2.13858276E+02   2.13858276E+02   1.43557310E+01  -1.85533581E+01   2.32411636E+02  -6.98868790E+01   2.12128418E+02  -1.85524769E+01   2.13857391E+02   1.43557310E+01  -4.53281045E-01
             3182                4   2.18012970E+02   2.13719376E+02   2.13719376E+02  -2.01229668E+01   1.60642471E+01   2.13719376E+02   2.13719376E+02   1.60642471E+01  -2.01229668E+01   2.33842331E+02  -6.98868790E+01   2.11096939E+02  -2.00221939E+01   2.13618591E+02   1.60642471E+01  -4.85351086E+00
             3183                1   2.15101517E+02   2.12889297E+02   2.12889297E+02  -1.25298328E+01   9.85628510E+00   2.12889297E+02   2.12889297E+02   9.85628510E+00  -1.25298328E+01   2.25419128E+02  -7.00719223E+01   2.12457031E+02  -1.25279160E+01   2.12887390E+02   9.85628510E+00   6.56083047E-01
             3183                2   2.15550171E+02   2.12993469E+02   2.12993469E+02  -1.43257618E+01   1.15480385E+01   2.12993469E+02   2.12993469E+02   1.15480385E+01  -1.43257618E+01   2.27319229E+02  -7.00719147E+01   2.12014252E+02  -1.41920605E+01   2.12859772E+02   1.15480385E+01   5.51130629E+00
             3183                3   2.14785889E+02   2.12849960E+02   2.12849960E+02  -1.07235746E+01   8.08936214E+00   2.12849960E+02   2.12849960E+02   8.08936214E+00  -1.07235746E+01   2.23573532E+02  -7.00719147E+01   2.12920410E+02  -1.05671377E+01   2.12693527E+02   8.08936214E+00   5.91189861E+00
             3183                4   2.15283218E+02   2.12996597E+02   2.12996597E+02  -1.27199497E+01   9.93911934E+00   2.12996597E+02   2.12996597E+02   9.93911934E+00  -1.27199497E+01   2.25716537E+02  -7.00719223E+01   2.12575577E+02  -1.22013550E+01   2.12477997E+02   9.93911934E+00   1.08067808E+01
             3184                1   2.18417236E+02   2.20242966E+02   2.20242966E+02  -1.52227259E+01   2.42603607E+01   2.20242966E+02   2.20242966E+02   2.42603607E+01  -1.52227259E+01   2.35465683E+02  -7.64268646E+01   2.10162155E+02  -1.51484699E+01   2.20168701E+02   2.42603607E+01  -4.18086624E+00
             3184                2   2.18175034E+02   2.20400787E+02   2.20400787E+02  -1.34602289E+01   2.23400326E+01   2.20400787E+02   2.20400787E+02   2.23400326E+01  -1.34602289E+01   2.33861008E+02  -7.64268570E+01   2.11414856E+02  -1.34526358E+01   2.20393188E+02   2.23400326E+01   1.33247280E+00
             3184                3   2.18150391E+02   2.20442703E+02   2.20442703E+02  -1.31246424E+01   2.19625359E+01   2.20442703E+02   2.20442703E+02   2.19625359E+01  -1.31246424E+01   2.33567337E+02  -7.64268646E+01   2.11662064E+02  -1.28001080E+01   2.20118164E+02   2.19625359E+01  -8.70028400E+00
             3184                4   2.17695007E+02   2.20451904E+02   2.20451904E+02  -1.10656586E+01   1.98943520E+01   2.20451904E+02   2.20451904E+02   1.98943520E+01  -1.10656586E+01   2.31517563E+02  -7.64268646E+01   2.12657333E+02  -1.10245495E+01   2.20410797E+02   1.98943520E+01  -3.08471012E+00
             3185                1   2.02673752E+02   1.84207230E+02   1.84207230E+02  -2.05362854E+01  -1.63313293E+01   1.84207230E+02   1.84207230E+02  -1.63313293E+01  -2.05362854E+01   2.04743515E+02  -4.91132050E+01   2.02575577E+02  -2.03878441E+01   1.84058792E+02  -1.63313293E+01   5.51086521E+00
             3185                2   2.03343430E+02   1.84626862E+02   1.84626862E+02  -2.17878284E+01  -1.54994144E+01   1.84626862E+02   1.84626862E+02  -1.54994144E+01  -2.17878284E+01   2.06414688E+02  -4.91132050E+01   2.03124481E+02  -2.17315865E+01   1.84570618E+02  -1.54994144E+01   3.40689850E+00
             3185                3   2.03205933E+02   1.84533096E+02   1.84533096E+02  -2.18073235E+01  -1.53861589E+01   1.84533096E+02   1.84533096E+02  -1.53861589E+01  -2.18073235E+01   2.06340408E+02  -4.91132050E+01   2.02977478E+02  -2.15179195E+01   1.84243683E+02  -1.53861589E+01   7.72224522E+00
             3185                4   2.03854874E+02   1.84929245E+02   1.84929245E+02  -2.30104790E+01  -1.45791569E+01   1.84929245E+02   1.84929245E+02  -1.45791569E+01  -2.30104790E+01   2.07939728E+02  -4.91132011E+01   2.03462021E+02  -2.28584900E+01   1.84777252E+02  -1.45791569E+01   5.61974049E+00
             3186                1   2.16585159E+02   2.06730118E+02   2.06730118E+02  -2.24359093E+01   5.42149973E+00   2.06730118E+02   2.06730118E+02   5.42149973E+00  -2.24359093E+01   2.29166016E+02  -6.32385674E+01   2.12498505E+02  -2.23988457E+01   2.06693054E+02   5.42149973E+00  -2.91399670E+00
             3186                2   2.16226929E+02   2.06619034E+02   2.06619034E+02  -2.13446159E+01   4.44129705E+00   2.06619034E+02   2.06619034E+02   4.44129705E+00  -2.13446159E+01   2.27963654E+02  -6.32385712E+01   2.12726532E+02  -2.12780304E+01   2.06552444E+02   4.44129705E+00  -3.89547944E+00
             3186                3   2.16561539E+02   2.06597122E+02   2.06597122E+02  -2.32465038E+01   6.36509085E+00   2.06597122E+02   2.06597122E+02   6.36509085E+00  -2.32465038E+01   2.29843628E+02  -6.32385712E+01   2.11935028E+02  -2.31538086E+01   2.06504425E+02   6.36509085E+00  -4.61482668E+00
             3186                4   2.16202744E+02   2.06489380E+02   2.06489380E+02  -2.21931000E+01   5.41944456E+00   2.06489380E+02   2.06489380E+02   5.41944456E+00  -2.21931000E+01   2.28682480E+02  -6.32385750E+01   2.12181290E+02  -2.20550900E+01   2.06351364E+02   5.41944456E+00  -5.61630583E+00
             3187                1   5.68799591E+01   5.50160599E+01   5.50160599E+01  -1.71747828E+00  -2.00919962E+00   5.50160599E+01   5.50160599E+01  -1.71747828E+00  -2.00919962E+00   5.70252571E+01  -1.70964603E+01   5.68782768E+01  -1.03420711E+00   5.43327866E+01  -2.00919962E+00   6.18850279E+00
             3187                2   5.72033157E+01   5.52319794E+01   5.52319794E+01  -1.93339908E+00  -2.00919962E+00   5.52319794E+01   5.52319794E+01  -1.93339908E+00  -2.00919962E+00   5.72411804E+01  -1.70964603E+01   5.72032051E+01  -1.21500039E+00   5.45135803E+01  -2.00919962E+00   6.36800194E+00
             3187                3   5.66781960E+01   5.48811188E+01   5.48811188E+01  -1.58254051E+00  -2.00919962E+00   5.48811188E+01   5.48811188E+01  -1.58254051E+00  -2.00919962E+00   5.68903198E+01  -1.70964603E+01   5.66745834E+01  -8.54691744E-01   5.41532707E+01  -2.00919962E+00   6.36924696E+00
             3187                4   5.70027580E+01   5.50981064E+01   5.50981064E+01  -1.79952598E+00  -2.00919962E+00   5.50981064E+01   5.50981064E+01  -1.79952598E+00  -2.00919962E+00   5.71073074E+01  -1.70964603E+01   5.70018921E+01  -1.03553140E+00   5.43341103E+01  -2.00919962E+00   6.54873037E+00
             3188                1   2.18825058E+02   2.20581512E+02   2.20581512E+02  -1.64151917E+01   2.61962376E+01   2.20581512E+02   2.20581512E+02   2.61962376E+01  -1.64151917E+01   2.36996704E+02  -7.67875214E+01   2.09182922E+02  -1.63512478E+01   2.20517563E+02   2.61962376E+01  -3.89251161E+00
             3188                2   2.18613556E+02   2.20828110E+02   2.20828110E+02  -1.44644928E+01   2.39989414E+01   2.20828110E+02   2.20828110E+02   2.39989414E+01  -1.44644928E+01   2.35292603E+02  -7.67875214E+01   2.10798248E+02  -1.44390926E+01   2.20802704E+02   2.39989414E+01   2.44480443E+00
             3188                3   2.18575363E+02   2.20850143E+02   2.20850143E+02  -1.42051010E+01   2.37174988E+01   2.20850143E+02   2.20850143E+02   2.37174988E+01  -1.42051010E+01   2.35055252E+02  -7.67875137E+01   2.10982697E+02  -1.39079609E+01   2.20553009E+02   2.37174988E+01  -8.35202980E+00
             3188                4   2.18354843E+02   2.21065781E+02   2.21065781E+02  -1.21081953E+01   2.14049644E+01   2.21065781E+02   2.21065781E+02   2.14049644E+01  -1.21081953E+01   2.33173965E+02  -7.67875137E+01   2.12452957E+02  -1.20871162E+01   2.21044693E+02   2.14049644E+01  -2.21708727E+00
             3189                1   4.77259369E+01   4.05672417E+01   4.05672417E+01  -4.11109400E+00  -9.71203899E+00   4.05672417E+01   4.05672417E+01  -4.11109400E+00  -9.71203899E+00   5.02792778E+01  -8.91470242E+00   4.69779968E+01   1.31927884E+00   3.51368675E+01  -9.71203899E+00   1.45990086E+01
             3189                2   4.69640770E+01   4.00223732E+01   4.00223732E+01  -3.56622648E+00  -9.71203899E+00   4.00223732E+01   4.00223732E+01  -3.56622648E+00  -9.71203899E+00   4.97344131E+01  -8.91470242E+00   4.60463295E+01   2.01477385E+00   3.44413719E+01  -9.71203899E+00   1.45643549E+01
             3189                3   4.72180099E+01   4.02045059E+01   4.02045059E+01  -3.74835968E+00  -9.71203899E+00   4.02045059E+01   4.02045059E+01  -3.74835968E+00  -9.71203899E+00   4.99165459E+01  -8.91470242E+00   4.63593597E+01   1.21120250E+00   3.52449455E+01  -9.71203899E+00   1.39064608E+01
             3189                4   4.64356346E+01   3.96416054E+01   3.96416054E+01  -3.18546009E+00  -9.71203899E+00   3.96416054E+01   3.96416054E+01  -3.18546009E+00  -9.71203899E+00   4.93536453E+01  -8.91470242E+00   4.53865204E+01   1.90204239E+00   3.45541039E+01  -9.71203899E+00   1.38564110E+01
             3190                1   3.66633568E+01   4.43500481E+01   4.43500481E+01   7.65778208E+00   7.71566963E+00   4.43500481E+01   4.43500481E+01   7.71566963E+00   7.65778208E+00   3.66922684E+01  -1.99078350E+01   3.66632538E+01   8.13398647E+00   4.38738441E+01   7.71566963E+00   4.15286350E+00
             3190                2   3.70434113E+01   4.46027908E+01   4.46027908E+01   7.40503788E+00   7.71566963E+00   4.46027908E+01   4.46027908E+01   7.71566963E+00   7.40503788E+00   3.71977539E+01  -1.99078312E+01   3.70404854E+01   7.89500475E+00   4.41128235E+01   7.71566963E+00   4.24094200E+00
             3190                3   3.66219177E+01   4.43224411E+01   4.43224411E+01   7.68539143E+00   7.71566963E+00   4.43224411E+01   4.43224411E+01   7.71566963E+00   7.68539143E+00   3.66370468E+01  -1.99078350E+01   3.66218872E+01   8.21694088E+00   4.37908897E+01   7.71566963E+00   4.38085461E+00
             3190                4   3.70053062E+01   4.45774879E+01   4.45774879E+01   7.43034029E+00   7.71566963E+00   4.45774879E+01   4.45774879E+01   7.71566963E+00   7.43034029E+00   3.71471481E+01  -1.99078312E+01   3.70028343E+01   7.97662926E+00   4.40312004E+01   7.71566963E+00   4.47152901E+00
             3191                1   5.55314331E+01   5.35994415E+01   5.35994415E+01  -1.72554398E+00  -2.13616204E+00   5.35994415E+01   5.35994415E+01  -1.72554398E+00  -2.13616204E+00   5.57356033E+01  -1.65792446E+01   5.55280151E+01  -7.73486972E-01   5.26473846E+01  -2.13616204E+00   7.19486761E+00
             3191                2   5.58542557E+01   5.38152428E+01   5.38152428E+01  -1.94134986E+00  -2.13616204E+00   5.38152428E+01   5.38152428E+01  -1.94134986E+00  -2.13616204E+00   5.59514046E+01  -1.65792446E+01   5.58534889E+01  -9.40055370E-01   5.28139496E+01  -2.13616204E+00   7.40446854E+00
             3191                3   5.52949333E+01   5.34410706E+01   5.34410706E+01  -1.56717587E+00  -2.13616204E+00   5.34410706E+01   5.34410706E+01  -1.56717587E+00  -2.13616204E+00   5.55772324E+01  -1.65792446E+01   5.52883492E+01  -5.63658118E-01   5.24375534E+01  -2.13616204E+00   7.36169958E+00
             3191                4   5.56195602E+01   5.36583977E+01   5.36583977E+01  -1.78450274E+00  -2.13616204E+00   5.36583977E+01   5.36583977E+01  -1.78450274E+00  -2.13616204E+00   5.57945595E+01  -1.65792446E+01   5.56170616E+01  -7.30490088E-01   5.26043854E+01  -2.13616204E+00   7.57142591E+00
             3192                1   5.29097900E+01   5.16938438E+01   5.16938438E+01  -1.00180519E+00  -1.42751193E+00   5.16938438E+01   5.16938438E+01  -1.00180519E+00  -1.42751193E+00   5.31213570E+01  -1.64215088E+01   5.29059334E+01   4.34711017E-02   5.06485672E+01  -1.42751193E+00   7.34771872E+00
             3192                2   5.32639313E+01   5.19306297E+01   5.19306297E+01  -1.23858893E+00  -1.42751193E+00   5.19306297E+01   5.19306297E+01  -1.23858893E+00  -1.42751193E+00   5.33581390E+01  -1.64215088E+01   5.32631760E+01  -1.36142626E-01   5.08281822E+01  -1.42751193E+00   7.57633257E+00
             3192                3   5.26868477E+01   5.15445061E+01   5.15445061E+01  -8.52464736E-01  -1.42751193E+00   5.15445061E+01   5.15445061E+01  -8.52464736E-01  -1.42751193E+00   5.29720154E+01  -1.64215088E+01   5.26797867E+01   2.51353174E-01   5.04406853E+01  -1.42751193E+00   7.52451658E+00
             3192                4   5.30331383E+01   5.17763786E+01   5.17763786E+01  -1.08434010E+00  -1.42751193E+00   5.17763786E+01   5.17763786E+01  -1.08434010E+00  -1.42751193E+00   5.32038918E+01  -1.64215088E+01   5.30306435E+01   7.59404972E-02   5.06161003E+01  -1.42751193E+00   7.74512434E+00
             3193                1   5.11910210E+01   4.71244164E+01   4.71244164E+01  -2.82324696E+00  -5.22538233E+00   4.71244164E+01   4.71244164E+01  -2.82324696E+00  -5.22538233E+00   5.23498001E+01  -1.30252619E+01   5.10639839E+01  -6.22612417E-01   4.49237823E+01  -5.22538233E+00   1.02505503E+01
             3193                2   5.16512108E+01   4.74382896E+01   4.74382896E+01  -3.13711905E+00  -5.22538233E+00   4.74382896E+01   4.74382896E+01  -3.13711905E+00  -5.22538233E+00   5.26636734E+01  -1.30252619E+01   5.15561028E+01  -9.98297632E-01   4.52994690E+01  -5.22538233E+00   1.01782694E+01
             3193                3   5.14998970E+01   4.73352089E+01   4.73352089E+01  -3.03403831E+00  -5.22538233E+00   4.73352089E+01   4.73352089E+01  -3.03403831E+00  -5.22538233E+00   5.25605927E+01  -1.30252619E+01   5.13948441E+01  -6.74290538E-01   4.49754601E+01  -5.22538233E+00   1.06437941E+01
             3193                4   5.19490242E+01   4.76408272E+01   4.76408272E+01  -3.33965755E+00  -5.22538233E+00   4.76408272E+01   4.76408272E+01  -3.33965755E+00  -5.22538233E+00   5.28662109E+01  -1.30252619E+01   5.18719330E+01  -1.04698324E+00   4.53481522E+01  -5.22538233E+00   1.05652905E+01
             3194                1   5.24869156E+01   4.71442146E+01   4.71442146E+01  -3.59551501E+00  -6.93081284E+00   4.71442146E+01   4.71442146E+01  -3.59551501E+00  -6.93081284E+00   5.40750275E+01  -1.22059622E+01   5.22476921E+01  -8.20614040E-01   4.43693123E+01  -6.93081284E+00   1.15367956E+01
             3194                2   5.30612907E+01   4.75394058E+01   4.75394058E+01  -3.99070573E+00  -6.93081284E+00   4.75394058E+01   4.75394058E+01  -3.99070573E+00  -6.93081284E+00   5.44702187E+01  -1.22059622E+01   5.28775558E+01  -1.28261948E+00   4.48313179E+01  -6.93081284E+00   1.14984455E+01
             3194                3   5.28275871E+01   4.73788261E+01   4.73788261E+01  -3.83012867E+00  -6.93081284E+00   4.73788261E+01   4.73788261E+01  -3.83012867E+00  -6.93081284E+00   5.43096390E+01  -1.22059622E+01   5.26222725E+01  -8.36123645E-01   4.43848228E+01  -6.93081284E+00   1.20148144E+01
             3194                4   5.33921890E+01   4.77662659E+01   4.77662659E+01  -4.21756887E+00  -6.93081284E+00   4.77662659E+01   4.77662659E+01  -4.21756887E+00  -6.93081284E+00   5.46970787E+01  -1.22059622E+01   5.32367477E+01  -1.29855657E+00   4.48472557E+01  -6.93081284E+00   1.19674892E+01
             3195                1   2.10706467E+02   2.01790741E+02   2.01790741E+02  -1.54102468E+01  -1.75718892E+00   2.01790741E+02   2.01790741E+02  -1.75718892E+00  -1.54102468E+01   2.17200989E+02  -6.15411034E+01   2.09707794E+02  -1.53626051E+01   2.01743103E+02  -1.75718892E+00   3.21628141E+00
             3195                2   2.11214493E+02   2.02042450E+02   2.02042450E+02  -1.67749462E+01  -6.44188464E-01   2.02042450E+02   2.02042450E+02  -6.44188464E-01  -1.67749462E+01   2.18817398E+02  -6.15411034E+01   2.09821945E+02  -1.65818348E+01   2.01849335E+02  -6.44188464E-01   6.49762535E+00
             3195                3   2.09709244E+02   2.01206940E+02   2.01206940E+02  -1.37150745E+01  -2.86856246E+00   2.01206940E+02   2.01206940E+02  -2.86856246E+00  -1.37150745E+01   2.14922012E+02  -6.15411034E+01   2.09076736E+02  -1.35388279E+01   2.01030701E+02  -2.86856246E+00   6.15199852E+00
             3195                4   2.10646439E+02   2.01755936E+02   2.01755936E+02  -1.53109932E+01  -1.82163513E+00   2.01755936E+02   2.01755936E+02  -1.82163513E+00  -1.53109932E+01   2.17066925E+02  -6.15411034E+01   2.09671371E+02  -1.48974333E+01   2.01342377E+02  -1.82163513E+00   9.46571064E+00
             3196                1   2.15023987E+02   2.12592010E+02   2.12592010E+02  -1.23912811E+01   9.14871311E+00   2.12592010E+02   2.12592010E+02   9.14871311E+00  -1.23912811E+01   2.24983292E+02  -6.97831497E+01   2.12576370E+02  -1.22876883E+01   2.12488419E+02   9.14871311E+00  -4.82655430E+00
             3196                2   2.15287354E+02   2.12611313E+02   2.12611313E+02  -1.38635635E+01   1.06016951E+01   2.12611313E+02   2.12611313E+02   1.06016951E+01  -1.38635635E+01   2.26474869E+02  -6.97831497E+01   2.12126053E+02  -1.34916162E+01   2.12239365E+02   1.06016951E+01  -9.17043781E+00
             3196                3   2.15450775E+02   2.12685303E+02   2.12685303E+02  -1.42076368E+01   1.08717794E+01   2.12685303E+02   2.12685303E+02   1.08717794E+01  -1.42076368E+01   2.26892929E+02  -6.97831497E+01   2.12129517E+02  -1.41948185E+01   2.12672485E+02   1.08717794E+01  -1.70495474E+00
             3196                4   2.15736954E+02   2.12683517E+02   2.12683517E+02  -1.57651730E+01   1.24310961E+01   2.12683517E+02   2.12683517E+02   1.24310961E+01  -1.57651730E+01   2.28448700E+02  -6.97831497E+01   2.11531906E+02  -1.56001139E+01   2.12518463E+02   1.24310961E+01  -6.13844109E+00
             3197                1   9.50242767E+01   9.42147522E+01   9.42147522E+01  -8.91714990E-01  -7.27123797E-01   9.42147522E+01   9.42147522E+01  -7.27123797E-01  -8.91714990E-01   9.51064682E+01  -3.08653030E+01   9.50239639E+01   3.38878846E+00   8.99342499E+01  -7.27123797E-01   1.97175217E+01
             3197                2   9.46576614E+01   9.39703903E+01   9.39703903E+01  -6.47357106E-01  -7.27123797E-01   9.39703903E+01   9.39703903E+01  -6.47357106E-01  -7.27123797E-01   9.46975174E+01  -3.08653030E+01   9.46575851E+01   3.37239766E+00   8.99506378E+01  -7.27123797E-01   1.90835476E+01
             3197                3   9.58614426E+01   9.47715759E+01   9.47715759E+01  -1.44853318E+00  -7.27123797E-01   9.47715759E+01   9.47715759E+01  -7.27123797E-01  -1.44853318E+00   9.62201080E+01  -3.08653049E+01   9.58553391E+01   2.79076934E+00   9.05322723E+01  -7.27123797E-01   1.97467632E+01
             3197                4   9.55065536E+01   9.45357208E+01   9.45357208E+01  -1.21268606E+00  -7.27123797E-01   9.45357208E+01   9.45357208E+01  -7.27123797E-01  -1.21268606E+00   9.57484055E+01  -3.08653030E+01   9.55037842E+01   2.76680255E+00   9.05562363E+01  -7.27123797E-01   1.91100273E+01
             3198                1   2.05201584E+02   1.73758408E+02   1.73758408E+02  -3.58099327E+01  -2.67781944E+01   1.73758408E+02   1.73758408E+02  -2.67781944E+01  -3.58099327E+01   2.09568329E+02  -3.70567589E+01   2.04753677E+02  -3.57241783E+01   1.73672653E+02  -2.67781944E+01  -4.23826885E+00
             3198                2   2.04566833E+02   1.73401062E+02   1.73401062E+02  -3.37365723E+01  -2.84942055E+01   1.73401062E+02   1.73401062E+02  -2.84942055E+01  -3.37365723E+01   2.07137634E+02  -3.70567627E+01   2.04415619E+02  -3.37239952E+01   1.73388489E+02  -2.84942055E+01  -1.61388445E+00
             3198                3   2.04695984E+02   1.73465347E+02   1.73465347E+02  -3.45146713E+01  -2.77803974E+01   1.73465347E+02   1.73465347E+02  -2.77803974E+01  -3.45146713E+01   2.07980026E+02  -3.70567627E+01   2.04446518E+02  -3.42050858E+01   1.73155762E+02  -2.77803974E+01  -8.01829815E+00
             3198                4   2.04028961E+02   1.73066483E+02   1.73066483E+02  -3.23467903E+01  -2.95494022E+01   1.73066483E+02   1.73066483E+02  -2.95494022E+01  -3.23467903E+01   2.05413269E+02  -3.70567665E+01   2.03985809E+02  -3.22033272E+01   1.72923019E+02  -2.95494022E+01  -5.42671728E+00
             3199                1   9.90140686E+01   9.77387924E+01   9.77387924E+01  -1.49707139E+00  -1.05198240E+00   9.77387924E+01   9.77387924E+01  -1.05198240E+00  -1.49707139E+00   9.92358627E+01  -3.17299137E+01   9.90118179E+01   2.17371210E-01   9.60243530E+01  -1.05198240E+00   1.29303780E+01
             3199                2   9.84850388E+01   9.73865814E+01   9.73865814E+01  -1.14486063E+00  -1.05198240E+00   9.73865814E+01   9.73865814E+01  -1.05198240E+00  -1.14486063E+00   9.85314407E+01  -3.17299137E+01   9.84849396E+01   5.89662731E-01   9.56520615E+01  -1.05198240E+00   1.29574814E+01
             3199                3   9.88353271E+01   9.76198654E+01   9.76198654E+01  -1.37813377E+00  -1.05198240E+00   9.76198654E+01   9.76198654E+01  -1.05198240E+00  -1.37813377E+00   9.89980011E+01  -3.17299175E+01   9.88341064E+01   2.38270327E-01   9.60034561E+01  -1.05198240E+00   1.25462475E+01
             3199                4   9.83058167E+01   9.72671204E+01   9.72671204E+01  -1.02539897E+00  -1.05198240E+00   9.72671204E+01   9.72671204E+01  -1.02539897E+00  -1.05198240E+00   9.83191071E+01  -3.17299137E+01   9.83058014E+01   6.09765708E-01   9.56319580E+01  -1.05198240E+00   1.25718155E+01
             3200                1   1.98912094E+02   1.97275497E+02   1.97275497E+02  -9.04336262E+00   6.70658445E+00   1.97275497E+02   1.97275497E+02   6.70658445E+00  -9.04336262E+00   2.06318863E+02  -6.49795761E+01   1.97501892E+02  -9.02334404E+00   1.97255478E+02   6.70658445E+00   2.03209591E+00
             3200                2   1.96618225E+02   1.95852707E+02   1.95852707E+02  -6.81368017E+00   5.89968157E+00   1.95852707E+02   1.95852707E+02   5.89968157E+00  -6.81368017E+00   2.02666397E+02  -6.49795761E+01   1.95690247E+02  -6.81364012E+00   1.95852676E+02   5.89968157E+00  -8.51706713E-02
             3200                3   1.98981155E+02   1.97292572E+02   1.97292572E+02  -9.41014099E+00   7.05627108E+00   1.97292572E+02   1.97292572E+02   7.05627108E+00  -9.41014099E+00   2.06702713E+02  -6.49795685E+01   1.97439545E+02  -9.40290356E+00   1.97285339E+02   7.05627108E+00  -1.22268426E+00
             3200                4   1.97518982E+02   1.96405670E+02   1.96405670E+02  -7.80233669E+00   6.33537912E+00   1.96405670E+02   1.96405670E+02   6.33537912E+00  -7.80233669E+00   2.04208008E+02  -6.49795685E+01   1.96375793E+02  -7.76882219E+00   1.96372162E+02   6.33537912E+00  -2.61560583E+00
             3201                1   5.18230286E+01   5.23857384E+01   5.23857384E+01   6.38787985E-01   4.86957461E-01   5.23857384E+01   5.23857384E+01   6.38787985E-01   4.86957461E-01   5.18987808E+01  -1.78371601E+01   5.18225288E+01   1.03538966E+00   5.19891357E+01   4.86957461E-01   4.51282597E+00
             3201                2   5.21582870E+01   5.26093292E+01   5.26093292E+01   4.15197134E-01   4.86957461E-01   5.26093292E+01   5.26093292E+01   4.86957461E-01   4.15197134E-01   5.21941299E+01  -1.78371601E+01   5.21581764E+01   8.29701722E-01   5.21948242E+01   4.86957461E-01   4.63279915E+00
             3201                3   5.17006073E+01   5.23039703E+01   5.23039703E+01   7.20557809E-01   4.86957461E-01   5.23039703E+01   5.23039703E+01   7.20557809E-01   4.86957461E-01   5.18170128E+01  -1.78371620E+01   5.16994209E+01   1.15576530E+00   5.18687630E+01   4.86957461E-01   4.71806049E+00
             3201                4   5.20368347E+01   5.25283852E+01   5.25283852E+01   4.96144831E-01   4.86957461E-01   5.25283852E+01   5.25283852E+01   4.96144831E-01   4.86957461E-01   5.20414276E+01  -1.78371620E+01   5.20368309E+01   9.49937880E-01   5.20745888E+01   4.86957461E-01   4.83797836E+00
             3202                1   4.39519806E+01   3.70757942E+01   3.70757942E+01  -3.53550076E+00  -9.58926392E+00   3.70757942E+01   3.70757942E+01  -3.53550076E+00  -9.58926392E+00   4.66650581E+01  -7.98367691E+00   4.29990005E+01   7.33609617E-01   3.28066864E+01  -9.58926392E+00   1.24558725E+01
             3202                2   4.31331291E+01   3.64818077E+01   3.64818077E+01  -2.94150782E+00  -9.58926392E+00   3.64818077E+01   3.64818077E+01  -2.94150782E+00  -9.58926392E+00   4.60710716E+01  -7.98367834E+00   4.19573250E+01   1.33745062E+00   3.22028465E+01  -9.58926392E+00   1.22630033E+01
             3202                3   4.36251945E+01   3.68395195E+01   3.68395195E+01  -3.29922104E+00  -9.58926392E+00   3.68395195E+01   3.68395195E+01  -3.29922104E+00  -9.58926392E+00   4.64287834E+01  -7.98367834E+00   4.25870514E+01   5.92197299E-01   3.29481010E+01  -9.58926392E+00   1.18765945E+01
             3202                4   4.28204308E+01   3.62532234E+01   3.62532234E+01  -2.71292639E+00  -9.58926392E+00   3.62532234E+01   3.62532234E+01  -2.71292639E+00  -9.58926392E+00   4.58424873E+01  -7.98367834E+00   4.15509529E+01   1.20230341E+00   3.23379936E+01  -9.58926392E+00   1.17146244E+01
             3203                1   5.77122383E+01   5.42909012E+01   5.42909012E+01  -3.16525269E+00  -3.67406130E+00   5.42909012E+01   5.42909012E+01  -3.16525269E+00  -3.67406130E+00   5.79649620E+01  -1.58171959E+01   5.77071953E+01  -1.74822450E+00   5.28738747E+01  -3.67406130E+00   8.91116905E+00
             3203                2   5.73959160E+01   5.40788765E+01   5.40788765E+01  -2.95322752E+00  -3.67406130E+00   5.40788765E+01   5.40788765E+01  -2.95322752E+00  -3.67406130E+00   5.77529373E+01  -1.58171959E+01   5.73857307E+01  -1.47950232E+00   5.26051521E+01  -3.67406130E+00   9.04863071E+00
             3203                3   5.73952484E+01   5.40784302E+01   5.40784302E+01  -2.95277715E+00  -3.67406130E+00   5.40784302E+01   5.40784302E+01  -2.95277715E+00  -3.67406130E+00   5.77524910E+01  -1.58171968E+01   5.73850479E+01  -1.61156785E+00   5.27372208E+01  -3.67406130E+00   8.64244843E+00
             3203                4   5.70769043E+01   5.38646355E+01   5.38646355E+01  -2.73898768E+00  -3.67406130E+00   5.38646355E+01   5.38646355E+01  -2.73898768E+00  -3.67406130E+00   5.75386963E+01  -1.58171959E+01   5.70596695E+01  -1.34266162E+00   5.24683113E+01  -3.67406130E+00   8.77993870E+00
             3204                1   1.90726639E+02   2.10494202E+02   2.10494202E+02   9.93104935E+00   3.14251537E+01   2.10494202E+02   2.10494202E+02   3.14251537E+01   9.93104935E+00   2.00563141E+02  -8.39501343E+01   1.87972809E+02   1.10091658E+01   2.09416077E+02   3.14251537E+01   1.46652298E+01
             3204                2   1.89571182E+02   2.09897949E+02   2.09897949E+02   1.19242640E+01   3.00281811E+01   2.09897949E+02   2.09897949E+02   3.00281811E+01   1.19242640E+01   1.97973694E+02  -8.39501343E+01   1.87611526E+02   1.41817007E+01   2.07640518E+02   3.00281811E+01   2.10194492E+01
             3204                3   1.89106934E+02   2.09675919E+02   2.09675919E+02   1.30096855E+01   2.91647968E+01   2.09675919E+02   2.09675919E+02   2.91647968E+01   1.30096855E+01   1.96666245E+02  -8.39501343E+01   1.87544998E+02   1.35280447E+01   2.09157562E+02   2.91647968E+01   1.00834169E+01
             3204                4   1.87841476E+02   2.08977570E+02   2.08977570E+02   1.53062162E+01   2.75666275E+01   2.08977570E+02   2.08977570E+02   2.75666275E+01   1.53062162E+01   1.93671356E+02  -8.39501343E+01   1.86938065E+02   1.67461014E+01   2.07537674E+02   2.75666275E+01   1.66370850E+01
             3205                1   5.04735336E+01   4.34148254E+01   4.34148254E+01  -4.43158579E+00  -9.32883358E+00   4.34148254E+01   4.34148254E+01  -4.43158579E+00  -9.32883358E+00   5.27436562E+01  -9.88480091E+00   4.99348259E+01   6.32324636E-01   3.83509140E+01  -9.32883358E+00   1.47189245E+01
             3205                2   4.97411308E+01   4.28978996E+01   4.28978996E+01  -3.91465759E+00  -9.32883358E+00   4.28978996E+01   4.28978996E+01  -3.91465759E+00  -9.32883358E+00   5.22267342E+01  -9.88480282E+00   4.90716400E+01   1.30708146E+00   3.76761589E+01  -9.32883358E+00   1.47369080E+01
             3205                3   4.99893303E+01   4.30734940E+01   4.30734940E+01  -4.09025717E+00  -9.32883358E+00   4.30734940E+01   4.30734940E+01  -4.09025717E+00  -9.32883358E+00   5.24023285E+01  -9.88480091E+00   4.93661270E+01   5.46059906E-01   3.84371796E+01  -9.32883358E+00   1.40417461E+01
             3205                4   4.92485580E+01   4.25480881E+01   4.25480881E+01  -3.56484890E+00  -9.32883358E+00   4.25480881E+01   4.25480881E+01  -3.56484890E+00  -9.32883358E+00   5.18769226E+01  -9.88480091E+00   4.84809799E+01   1.22124517E+00   3.77619934E+01  -9.32883358E+00   1.40639305E+01
             3206                1   7.41199188E+01   6.85988235E+01   6.85988235E+01  -5.53811550E+00  -5.50406265E+00   6.85988235E+01   6.85988235E+01  -5.50406265E+00  -5.53811550E+00   7.41369400E+01  -1.91855488E+01   7.41199036E+01  -5.16960669E+00   6.82303162E+01  -5.50406265E+00   5.21385574E+00
             3206                2   7.39101868E+01   6.84589691E+01   6.84589691E+01  -5.39825916E+00  -5.50406265E+00   6.84589691E+01   6.84589691E+01  -5.39825916E+00  -5.50406265E+00   7.39630280E+01  -1.91855488E+01   7.39100113E+01  -5.00430155E+00   6.80650101E+01  -5.50406265E+00   5.37971210E+00
             3206                3   7.38409576E+01   6.84127731E+01   6.84127731E+01  -5.35206079E+00  -5.50406265E+00   6.84127731E+01   6.84127731E+01  -5.35206079E+00  -5.50406265E+00   7.39168320E+01  -1.91855488E+01   7.38405991E+01  -5.00516891E+00   6.80658798E+01  -5.50406265E+00   5.04660702E+00
             3206                4   7.36302338E+01   6.82720795E+01   6.82720795E+01  -5.21136713E+00  -5.50406265E+00   6.82720795E+01   6.82720795E+01  -5.21136713E+00  -5.50406265E+00   7.37761459E+01  -1.91855507E+01   7.36289215E+01  -4.83976173E+00   6.79004745E+01  -5.50406265E+00   5.21237993E+00
             3207                1   2.58125668E+01   4.02158394E+01   4.02158394E+01   1.44503584E+01   1.43564453E+01   4.02158394E+01   4.02158394E+01   1.44503584E+01   1.43564453E+01   2.58593941E+01  -2.30075474E+01   2.58121815E+01   1.45028381E+01   4.01633606E+01   1.43564453E+01   1.16163719E+00
             3207                2   2.62526283E+01   4.05089226E+01   4.05089226E+01   1.41572771E+01   1.43564453E+01   4.05089226E+01   4.05089226E+01   1.43564453E+01   1.41572771E+01   2.63516445E+01  -2.30075474E+01   2.62509270E+01   1.42099533E+01   4.04562454E+01   1.43564453E+01   1.17700505E+00
             3207                3   2.58283195E+01   4.02263603E+01   4.02263603E+01   1.44398384E+01   1.43564453E+01   4.02263603E+01   4.02263603E+01   1.44398384E+01   1.43564453E+01   2.58699150E+01  -2.30075474E+01   2.58280163E+01   1.45216522E+01   4.01445465E+01   1.43564453E+01   1.45017314E+00
             3207                4   2.62682152E+01   4.05192757E+01   4.05192757E+01   1.41469250E+01   1.43564453E+01   4.05192757E+01   4.05192757E+01   1.43564453E+01   1.41469250E+01   2.63723488E+01  -2.30075474E+01   2.62663326E+01   1.42286510E+01   4.04375458E+01   1.43564453E+01   1.46583188E+00
             3208                1   2.65851173E+01   1.93724442E+01   1.93724442E+01  -3.13310862E-01  -1.08694963E+01   1.93724442E+01   1.93724442E+01  -3.13310862E-01  -1.08694963E+01   3.02419415E+01  -2.72987914E+00   2.10281315E+01   1.02990937E+00   1.80292244E+01  -1.08694963E+01   4.96367407E+00
             3208                2   2.70837231E+01   1.98155804E+01   1.98155804E+01  -7.56447136E-01  -1.08694963E+01   1.98155804E+01   1.98155804E+01  -7.56447136E-01  -1.08694963E+01   3.06850777E+01  -2.72987914E+00   2.21965008E+01   5.85365951E-01   1.84737682E+01  -1.08694963E+01   5.07969904E+00
             3208                3   2.67237682E+01   1.94968147E+01   1.94968147E+01  -4.37680572E-01  -1.08694963E+01   1.94968147E+01   1.94968147E+01  -4.37680572E-01  -1.08694963E+01   3.03663101E+01  -2.72987914E+00   2.13637295E+01   1.15675390E+00   1.79023800E+01  -1.08694963E+01   5.40758896E+00
             3208                4   2.72194691E+01   1.99343376E+01   1.99343376E+01  -8.75203729E-01  -1.08694963E+01   1.99343376E+01   1.99343376E+01  -8.75203729E-01  -1.08694963E+01   3.08038330E+01  -2.72987914E+00   2.24976063E+01   7.11960196E-01   1.83471737E+01  -1.08694963E+01   5.52350044E+00
             3209                1   4.93932762E+01   5.07933159E+01   5.07933159E+01   1.47217429E+00   1.32822227E+00   5.07933159E+01   5.07933159E+01   1.47217429E+00   1.32822227E+00   4.94650955E+01  -1.78645706E+01   4.93928070E+01   1.96338058E+00   5.03021126E+01   1.32822227E+00   4.89749861E+00
             3209                2   4.97335701E+01   5.10202522E+01   5.10202522E+01   1.24524450E+00   1.32822227E+00   5.10202522E+01   5.10202522E+01   1.32822227E+00   1.24524450E+00   4.97750053E+01  -1.78645725E+01   4.97334099E+01   1.75726271E+00   5.05082321E+01   1.32822227E+00   5.02230740E+00
             3209                3   4.92717743E+01   5.07121658E+01   5.07121658E+01   1.55332983E+00   1.32822227E+00   5.07121658E+01   5.07121658E+01   1.55332983E+00   1.32822227E+00   4.93839417E+01  -1.78645725E+01   4.92706146E+01   2.08892870E+00   5.01765671E+01   1.32822227E+00   5.10318804E+00
             3209                4   4.96130486E+01   5.09399376E+01   5.09399376E+01   1.32555473E+00   1.32822227E+00   5.09399376E+01   5.09399376E+01   1.32822227E+00   1.32555473E+00   4.96143837E+01  -1.78645706E+01   4.96130524E+01   1.88271856E+00   5.03827744E+01   1.32822227E+00   5.22808170E+00
             3210                1   4.09532433E+01   4.23982201E+01   4.23982201E+01   1.45326757E+00   1.43669224E+00   4.23982201E+01   4.23982201E+01   1.45326757E+00   1.43669224E+00   4.09615250E+01  -1.50960588E+01   4.09532356E+01   3.37193990E+00   4.04795456E+01   1.43669224E+00   8.65324593E+00
             3210                2   4.07076721E+01   4.22343063E+01   4.22343063E+01   1.61717713E+00   1.43669224E+00   4.22343063E+01   4.22343063E+01   1.61717713E+00   1.43669224E+00   4.07976112E+01  -1.50960579E+01   4.07067719E+01   3.48256397E+00   4.03689194E+01   1.43669224E+00   8.50217342E+00
             3210                3   4.10766373E+01   4.24804573E+01   4.24804573E+01   1.37102628E+00   1.43669224E+00   4.24804573E+01   4.24804573E+01   1.43669224E+00   1.37102628E+00   4.11094284E+01  -1.50960579E+01   4.10765190E+01   3.23192263E+00   4.06195602E+01   1.43669224E+00   8.54619408E+00
             3210                4   4.08268089E+01   4.23138695E+01   4.23138695E+01   1.53761399E+00   1.43669224E+00   4.23138695E+01   4.23138695E+01   1.53761399E+00   1.43669224E+00   4.08771744E+01  -1.50960579E+01   4.08265305E+01   3.34576917E+00   4.05057144E+01   1.43669224E+00   8.39406490E+00
             3211                1   1.89267975E+02   1.71620621E+02   1.71620621E+02  -1.94470158E+01  -1.57948427E+01   1.71620621E+02   1.71620621E+02  -1.57948427E+01  -1.94470158E+01   1.91067627E+02  -4.54595833E+01   1.89188675E+02  -1.94409046E+01   1.71614502E+02  -1.57948427E+01  -1.08077216E+00
             3211                2   1.87336197E+02   1.70349670E+02   1.70349670E+02  -1.73505993E+01  -1.66203117E+01   1.70349670E+02   1.70349670E+02  -1.66203117E+01  -1.73505993E+01   1.87700272E+02  -4.54595833E+01   1.87332993E+02  -1.73505859E+01   1.70349655E+02  -1.66203117E+01   5.03298827E-02
             3211                3   1.88504684E+02   1.71119995E+02   1.71119995E+02  -1.87000561E+01  -1.60411873E+01   1.71119995E+02   1.71119995E+02  -1.60411873E+01  -1.87000561E+01   1.89820053E+02  -4.54595833E+01   1.88462479E+02  -1.86157665E+01   1.71035706E+02  -1.60411873E+01  -3.99903989E+00
             3211                4   1.86545715E+02   1.69823273E+02   1.69823273E+02  -1.65688438E+01  -1.68756695E+01   1.69823273E+02   1.69823273E+02  -1.65688438E+01  -1.68756695E+01   1.86698944E+02  -4.54595833E+01   1.86545151E+02  -1.65241756E+01   1.69778595E+02  -1.68756695E+01  -2.88530684E+00
             3212                1   6.52326202E+01   5.86527634E+01   5.86527634E+01  -4.98054838E+00  -8.06942654E+00   5.86527634E+01   5.86527634E+01  -4.98054838E+00  -8.06942654E+00   6.67221909E+01  -1.52009287E+01   6.50677795E+01  -2.20282719E-01   5.38924980E+01  -8.06942654E+00   1.67407074E+01
             3212                2   6.61028519E+01   5.92459335E+01   5.92459335E+01  -5.57371664E+00  -8.06942654E+00   5.92459335E+01   5.92459335E+01  -5.57371664E+00  -8.06942654E+00   6.73153610E+01  -1.52009306E+01   6.59967270E+01  -9.89904225E-01   5.46621208E+01  -8.06942654E+00   1.66165543E+01
             3212                3   6.58153763E+01   5.90503273E+01   5.90503273E+01  -5.37810707E+00  -8.06942654E+00   5.90503273E+01   5.90503273E+01  -5.37810707E+00  -8.06942654E+00   6.71197510E+01  -1.52009306E+01   6.56913986E+01  -2.02678964E-01   5.38748970E+01  -8.06942654E+00   1.75117016E+01
             3212                4   6.66623993E+01   5.96257362E+01   5.96257362E+01  -5.95351601E+00  -8.06942654E+00   5.96257362E+01   5.96257362E+01  -5.95351601E+00  -8.06942654E+00   6.76951599E+01  -1.52009306E+01   6.65867767E+01  -9.66667354E-01   5.46388855E+01  -8.06942654E+00   1.73828983E+01
             3213                1   6.90214310E+01   6.22461052E+01   6.22461052E+01  -5.72042418E+00  -7.78395605E+00   6.22461052E+01   6.22461052E+01  -5.72042418E+00  -7.78395605E+00   7.00300598E+01  -1.62472420E+01   6.89519806E+01  -1.38499475E+00   5.79106750E+01  -7.78395605E+00   1.66092796E+01
             3213                2   6.95697174E+01   6.26167564E+01   6.26167564E+01  -6.09107208E+00  -7.78395605E+00   6.26167564E+01   6.26167564E+01  -6.09107208E+00  -7.78395605E+00   7.04007111E+01  -1.62472439E+01   6.95233536E+01  -1.39120221E+00   5.79168854E+01  -7.78395605E+00   1.73444271E+01
             3213                3   6.81919327E+01   6.16832352E+01   6.16832352E+01  -5.15755129E+00  -7.78395605E+00   6.16832352E+01   6.16832352E+01  -5.15755129E+00  -7.78395605E+00   6.94671936E+01  -1.62472439E+01   6.80779953E+01  -6.68656051E-01   5.71943398E+01  -7.78395605E+00   1.67299480E+01
             3213                4   6.87267075E+01   6.20464096E+01   6.20464096E+01  -5.52073050E+00  -7.78395605E+00   6.20464096E+01   6.20464096E+01  -5.52073050E+00  -7.78395605E+00   6.98303680E+01  -1.62472420E+01   6.86427841E+01  -6.58809543E-01   5.71844902E+01  -7.78395605E+00   1.74604645E+01
             3214                1   5.38963928E+01   5.19125862E+01   5.19125862E+01  -1.69708610E+00  -2.26602221E+00   5.19125862E+01   5.19125862E+01  -1.69708610E+00  -2.26602221E+00   5.41786079E+01  -1.59831591E+01   5.38896332E+01  -4.76724237E-01   5.06922226E+01  -2.26602221E+00   7.99587345E+00
             3214                2   5.42347984E+01   5.21391525E+01   5.21391525E+01  -1.92365170E+00  -2.26602221E+00   5.21391525E+01   5.21391525E+01  -1.92365170E+00  -2.26602221E+00   5.44051743E+01  -1.59831591E+01   5.42323647E+01  -6.34439111E-01   5.08499374E+01  -2.26602221E+00   8.24842167E+00
             3214                3   5.36347313E+01   5.17370605E+01   5.17370605E+01  -1.52156246E+00  -2.26602221E+00   5.17370605E+01   5.17370605E+01  -1.52156246E+00  -2.26602221E+00   5.40030861E+01  -1.59831591E+01   5.36231041E+01  -2.39413783E-01   5.04549141E+01  -2.26602221E+00   8.16342735E+00
             3214                4   5.39689560E+01   5.19612083E+01   5.19612083E+01  -1.74570954E+00  -2.26602221E+00   5.19612083E+01   5.19612083E+01  -1.74570954E+00  -2.26602221E+00   5.42272301E+01  -1.59831591E+01   5.39633141E+01  -3.94854575E-01   5.06103554E+01  -2.26602221E+00   8.40983963E+00
             3215                1   4.79816666E+01   4.92724380E+01   4.92724380E+01   1.38758516E+00   1.19453442E+00   4.92724380E+01   4.92724380E+01   1.38758516E+00   1.19453442E+00   4.80779037E+01  -1.72848530E+01   4.79807968E+01   2.23086715E+00   4.84291573E+01   1.19453442E+00   6.29835129E+00
             3215                2   4.83493233E+01   4.95177231E+01   4.95177231E+01   1.14230144E+00   1.19453442E+00   4.95177231E+01   4.95177231E+01   1.19453442E+00   1.14230144E+00   4.83754196E+01  -1.72848530E+01   4.83492622E+01   2.02515817E+00   4.86348648E+01   1.19453442E+00   6.47526979E+00
             3215                3   4.78356857E+01   4.91748695E+01   4.91748695E+01   1.48515618E+00   1.19453442E+00   4.91748695E+01   4.91748695E+01   1.48515618E+00   1.19453442E+00   4.79803352E+01  -1.72848530E+01   4.78337021E+01   2.38514256E+00   4.82748833E+01   1.19453442E+00   6.48923349E+00
             3215                4   4.81994095E+01   4.94177818E+01   4.94177818E+01   1.24224424E+00   1.19453442E+00   4.94177818E+01   4.94177818E+01   1.24224424E+00   1.19453442E+00   4.82232475E+01  -1.72848530E+01   4.81993561E+01   2.18062854E+00   4.84793968E+01   1.19453442E+00   6.65782690E+00
             3216                1   4.89798698E+01   5.03372993E+01   5.03372993E+01   1.43643713E+00   1.27879751E+00   5.03372993E+01   5.03372993E+01   1.43643713E+00   1.27879751E+00   4.90585022E+01  -1.76841774E+01   4.89793015E+01   2.04125643E+00   4.97324791E+01   1.27879751E+00   5.40466070E+00
             3216                2   4.93197365E+01   5.05639801E+01   5.05639801E+01   1.20975673E+00   1.27879751E+00   5.05639801E+01   5.05639801E+01   1.27879751E+00   1.20975673E+00   4.93542213E+01  -1.76841774E+01   4.93196297E+01   1.83956659E+00   4.99341698E+01   1.27879751E+00   5.53958941E+00
             3216                3   4.88505592E+01   5.02509117E+01   5.02509117E+01   1.52282357E+00   1.27879751E+00   5.02509117E+01   5.02509117E+01   1.52282357E+00   1.27879751E+00   4.89721146E+01  -1.76841774E+01   4.88491859E+01   2.17654133E+00   4.95971947E+01   1.27879751E+00   5.60598135E+00
             3216                4   4.91914062E+01   5.04784470E+01   5.04784470E+01   1.29528677E+00   1.27879751E+00   5.04784470E+01   5.04784470E+01   1.29528677E+00   1.27879751E+00   4.91996498E+01  -1.76841774E+01   4.91914024E+01   1.97476351E+00   4.97989731E+01   1.27879751E+00   5.74082327E+00
             3217                1   4.64965591E+01   4.87524529E+01   4.87524529E+01   2.32199025E+00   2.19007492E+00   4.87524529E+01   4.87524529E+01   2.32199025E+00   2.19007492E+00   4.65623779E+01  -1.77548389E+01   4.64961395E+01   3.02996564E+00   4.80444794E+01   2.19007492E+00   5.68949413E+00
             3217                2   4.68758469E+01   4.90053291E+01   4.90053291E+01   2.06912041E+00   2.19007492E+00   4.90053291E+01   4.90053291E+01   2.19007492E+00   2.06912041E+00   4.69362068E+01  -1.77548409E+01   4.68754959E+01   2.80969977E+00   4.82647476E+01   2.19007492E+00   5.84906340E+00
             3217                3   4.63673096E+01   4.86661224E+01   4.86661224E+01   2.40832067E+00   2.19007492E+00   4.86661224E+01   4.86661224E+01   2.40832067E+00   2.19007492E+00   4.64760475E+01  -1.77548389E+01   4.63661537E+01   3.17183447E+00   4.79026108E+01   2.19007492E+00   5.89367867E+00
             3217                4   4.67425041E+01   4.89165039E+01   4.89165039E+01   2.15794349E+00   2.19007492E+00   4.89165039E+01   4.89165039E+01   2.19007492E+00   2.15794349E+00   4.67585602E+01  -1.77548409E+01   4.67424774E+01   2.95376396E+00   4.81206818E+01   2.19007492E+00   6.04798985E+00
             3218                1   5.10868874E+01   5.06581345E+01   5.06581345E+01  -2.53264308E-01  -6.02452755E-01   5.06581345E+01   5.06581345E+01  -2.53264308E-01  -6.02452755E-01   5.12605858E+01  -1.66008053E+01   5.10842018E+01   7.58416295E-01   4.96464539E+01  -6.02452755E-01   7.10510540E+00
             3218                2   5.14293709E+01   5.08869858E+01   5.08869858E+01  -4.82111901E-01  -6.02452755E-01   5.08869858E+01   5.08869858E+01  -4.82111901E-01  -6.02452755E-01   5.14894371E+01  -1.66008072E+01   5.14290543E+01   5.81741333E-01   4.98231316E+01  -6.02452755E-01   7.31555843E+00
             3218                3   5.08844223E+01   5.05226021E+01   5.05226021E+01  -1.17728539E-01  -6.02452755E-01   5.05226021E+01   5.05226021E+01  -1.17728539E-01  -6.02452755E-01   5.11250534E+01  -1.66008072E+01   5.08792267E+01   9.54604805E-01   4.94502678E+01  -6.02452755E-01   7.29063988E+00
             3218                4   5.12292137E+01   5.07532997E+01   5.07532997E+01  -3.48427683E-01  -6.02452755E-01   5.07532997E+01   5.07532997E+01  -3.48427683E-01  -6.02452755E-01   5.13557549E+01  -1.66008072E+01   5.12277946E+01   7.75432646E-01   4.96294403E+01  -6.02452755E-01   7.49454069E+00
             3219                1   7.26247025E+01   7.04179916E+01   7.04179916E+01  -1.32510638E+00  -3.05731463E+00   7.04179916E+01   7.04179916E+01  -1.32510638E+00  -3.05731463E+00   7.34753113E+01  -2.20118580E+01   7.25781937E+01   1.12541552E+01   5.78387337E+01  -3.05731463E+00   2.72807140E+01
             3219                2   7.28667374E+01   7.05812302E+01   7.05812302E+01  -1.48834550E+00  -3.05731463E+00   7.05812302E+01   7.05812302E+01  -1.48834550E+00  -3.05731463E+00   7.36385498E+01  -2.20118580E+01   7.28287125E+01   1.06021338E+01   5.84907570E+01  -3.05731463E+00   2.69290924E+01
             3219                3   7.36487503E+01   7.11073380E+01   7.11073380E+01  -2.01444197E+00  -3.05731463E+00   7.11073380E+01   7.11073380E+01  -2.01444197E+00  -3.05731463E+00   7.41646500E+01  -2.20118618E+01   7.36321335E+01   1.10697947E+01   5.80230980E+01  -3.05731463E+00   2.80275841E+01
             3219                4   7.38689575E+01   7.12551193E+01   7.12551193E+01  -2.16222453E+00  -3.05731463E+00   7.12551193E+01   7.12551193E+01  -2.16222453E+00  -3.05731463E+00   7.43124313E+01  -2.20118618E+01   7.38567505E+01   1.04088945E+01   5.86839981E+01  -3.05731463E+00   2.76569195E+01
             3220                1   4.61868172E+01   3.97542229E+01   3.97542229E+01  -3.65898609E+00  -8.77945709E+00   3.97542229E+01   3.97542229E+01  -3.65898609E+00  -8.77945709E+00   4.85336800E+01  -9.10525990E+00   4.55416679E+01   1.97885698E-03   3.60932579E+01  -8.77945709E+00   1.20636482E+01
             3220                2   4.54992180E+01   3.92646484E+01   3.92646484E+01  -3.16941023E+00  -8.77945709E+00   3.92646484E+01   3.92646484E+01  -3.16941023E+00  -8.77945709E+00   4.80441055E+01  -9.10525990E+00   4.47111740E+01   5.45520067E-01   3.55497169E+01  -8.77945709E+00   1.19932852E+01
             3220                3   4.58533516E+01   3.95172729E+01   3.95172729E+01  -3.42203426E+00  -8.77945709E+00   3.95172729E+01   3.95172729E+01  -3.42203426E+00  -8.77945709E+00   4.82967300E+01  -9.10525990E+00   4.51411629E+01  -6.47355393E-02   3.61599731E+01  -8.77945709E+00   1.15277328E+01
             3220                4   4.51613922E+01   3.90226784E+01   3.90226784E+01  -2.92744184E+00  -8.77945709E+00   3.90226784E+01   3.90226784E+01  -2.92744184E+00  -8.77945709E+00   4.78021355E+01  -9.10525990E+00   4.42963257E+01   4.74334717E-01   3.56209030E+01  -8.77945709E+00   1.14513254E+01
             3221                1   3.90818710E+01   4.13011513E+01   4.13011513E+01   2.13771582E+00   2.30135202E+00   4.13011513E+01   4.13011513E+01   2.30135202E+00   2.13771582E+00   3.91634331E+01  -1.52467394E+01   3.90811005E+01   4.09490681E+00   3.93439598E+01   2.30135202E+00   8.53344536E+00
             3221                2   3.91602058E+01   4.13532448E+01   4.13532448E+01   2.08562112E+00   2.30135202E+00   4.13532448E+01   4.13532448E+01   2.30135202E+00   2.08562112E+00   3.92676239E+01  -1.52467394E+01   3.91588631E+01   3.97839260E+00   3.94604721E+01   2.30135202E+00   8.41083145E+00
             3221                3   3.93290405E+01   4.14654160E+01   4.14654160E+01   1.97345138E+00   2.30135202E+00   4.14654160E+01   4.14654160E+01   2.30135202E+00   1.97345138E+00   3.94919624E+01  -1.52467394E+01   3.93259583E+01   3.97327614E+00   3.94655876E+01   2.30135202E+00   8.65897083E+00
             3221                4   3.94099884E+01   4.15191422E+01   4.15191422E+01   1.91972387E+00   2.30135202E+00   4.15191422E+01   4.15191422E+01   2.30135202E+00   1.91972387E+00   3.95994186E+01  -1.52467394E+01   3.94058304E+01   3.85459638E+00   3.95842705E+01   2.30135202E+00   8.53674698E+00
             3222                1   3.85477791E+01   4.16956596E+01   4.16956596E+01   2.84377313E+00   3.45935965E+00   4.16956596E+01   4.16956596E+01   3.45935965E+00   2.84377313E+00   3.88518867E+01  -1.59995966E+01   3.85367203E+01   4.91412878E+00   3.96253052E+01   3.45935965E+00   8.72644234E+00
             3222                2   3.82707901E+01   4.15122375E+01   4.15122375E+01   3.02719593E+00   3.45935965E+00   4.15122375E+01   4.15122375E+01   3.45935965E+00   3.02719593E+00   3.84850426E+01  -1.59995966E+01   3.82653008E+01   5.06560850E+00   3.94738235E+01   3.45935965E+00   8.61935520E+00
             3222                3   3.85890770E+01   4.17229729E+01   4.17229729E+01   2.81646156E+00   3.45935965E+00   4.17229729E+01   4.17229729E+01   3.45935965E+00   2.81646156E+00   3.89065094E+01  -1.59995966E+01   3.85770264E+01   4.80947924E+00   3.97299538E+01   3.45935965E+00   8.57725048E+00
             3222                4   3.83123436E+01   4.15397797E+01   4.15397797E+01   2.99965143E+00   3.45935965E+00   4.15397797E+01   4.15397797E+01   3.45935965E+00   2.99965143E+00   3.85401306E+01  -1.59995966E+01   3.83061409E+01   4.96079779E+00   3.95786362E+01   3.45935965E+00   8.46975136E+00
             3223                1   2.12161667E+02   2.12938965E+02   2.12938965E+02  -4.43311167E+00   6.40300035E+00   2.12938965E+02   2.12938965E+02   6.40300035E+00  -4.43311167E+00   2.17372086E+02  -7.16362839E+01   2.11537720E+02  -4.39234352E+00   2.12898209E+02   6.40300035E+00   2.97640038E+00
             3223                2   2.12386612E+02   2.13055115E+02   2.13055115E+02  -5.11958456E+00   6.97333145E+00   2.13055115E+02   2.13055115E+02   6.97333145E+00  -5.11958456E+00   2.18174698E+02  -7.16362839E+01   2.11609940E+02  -5.00478888E+00   2.12940323E+02   6.97333145E+00   5.00318193E+00
             3223                3   2.11488144E+02   2.12531082E+02   2.12531082E+02  -3.34659028E+00   5.72436810E+00   2.12531082E+02   2.12531082E+02   5.72436810E+00  -3.34659028E+00   2.15877670E+02  -7.16362839E+01   2.11049789E+02  -3.27222824E+00   2.12456726E+02   5.72436810E+00   4.00583839E+00
             3223                4   2.11757523E+02   2.12680115E+02   2.12680115E+02  -4.08766222E+00   6.31639767E+00   2.12680115E+02   2.12680115E+02   6.31639767E+00  -4.08766222E+00   2.16767776E+02  -7.16362839E+01   2.11181335E+02  -3.93303871E+00   2.12525497E+02   6.31639767E+00   5.78724861E+00
             3224                1   4.38497162E+01   4.48286095E+01   4.48286095E+01   1.12530911E+00   8.33927691E-01   4.48286095E+01   4.48286095E+01   1.12530911E+00   8.33927691E-01   4.39946823E+01  -1.55959482E+01   4.38475418E+01   2.74300122E+00   4.32109184E+01   8.33927691E-01   8.25115204E+00
             3224                2   4.41445580E+01   4.50256042E+01   4.50256042E+01   9.28315938E-01   8.33927691E-01   4.50256042E+01   4.50256042E+01   9.28315938E-01   8.33927691E-01   4.41916733E+01  -1.55959482E+01   4.41443291E+01   2.60238647E+00   4.33515320E+01   8.33927691E-01   8.42730427E+00
             3224                3   4.36942749E+01   4.47245712E+01   4.47245712E+01   1.22934806E+00   8.33927691E-01   4.47245712E+01   4.47245712E+01   1.22934806E+00   8.33927691E-01   4.38906441E+01  -1.55959482E+01   4.36902504E+01   2.91139388E+00   4.30425262E+01   8.33927691E-01   8.38639450E+00
             3224                4   4.39870453E+01   4.49204178E+01   4.49204178E+01   1.03349984E+00   8.33927691E-01   4.49204178E+01   4.49204178E+01   1.03349984E+00   8.33927691E-01   4.40864906E+01  -1.55959482E+01   4.39860268E+01   2.77416182E+00   4.31797562E+01   8.33927691E-01   8.56518555E+00
             3225                1   9.72891159E+01   9.44940796E+01   9.44940796E+01  -2.84829330E+00  -2.74167895E+00   9.44940796E+01   9.44940796E+01  -2.74167895E+00  -2.84829330E+00   9.73423767E+01  -2.96347046E+01   9.72889786E+01  -2.24331141E+00   9.38890991E+01  -2.74167895E+00   7.65013695E+00
             3225                2   9.74074478E+01   9.45729141E+01   9.45729141E+01  -2.92712402E+00  -2.74167895E+00   9.45729141E+01   9.45729141E+01  -2.74167895E+00  -2.92712402E+00   9.75000381E+01  -2.96347046E+01   9.74070435E+01  -2.28901887E+00   9.39348068E+01  -2.74167895E+00   7.86182594E+00
             3225                3   9.69873962E+01   9.42929459E+01   9.42929459E+01  -2.64715409E+00  -2.74167895E+00   9.42929459E+01   9.42929459E+01  -2.64715409E+00  -2.74167895E+00   9.70346222E+01  -2.96347046E+01   9.69872894E+01  -2.03278089E+00   9.36785736E+01  -2.74167895E+00   7.69283438E+00
             3225                4   9.71057892E+01   9.43718948E+01   9.43718948E+01  -2.72610593E+00  -2.74167895E+00   9.43718948E+01   9.43718948E+01  -2.72610593E+00  -2.74167895E+00   9.71135788E+01  -2.96347046E+01   9.71057816E+01  -2.07837820E+00   9.37241669E+01  -2.74167895E+00   7.90402842E+00
             3226                1   5.49090996E+01   4.77504654E+01   4.77504654E+01  -4.88162231E+00  -9.18267441E+00   4.77504654E+01   4.77504654E+01  -4.88162231E+00  -9.18267441E+00   5.69331398E+01  -1.12287226E+01   5.45281715E+01   1.44972050E+00   4.14191208E+01  -9.18267441E+00   1.71215057E+01
             3226                2   5.39805565E+01   4.71021309E+01   4.71021309E+01  -4.23329067E+00  -9.18267441E+00   4.71021309E+01   4.71021309E+01  -4.23329067E+00  -9.18267441E+00   5.62848053E+01  -1.12287216E+01   5.34664955E+01   2.20177126E+00   4.06670685E+01  -9.18267441E+00   1.69981346E+01
             3226                3   5.43343811E+01   4.73497849E+01   4.73497849E+01  -4.48094177E+00  -9.18267441E+00   4.73497849E+01   4.73497849E+01  -4.48094177E+00  -9.18267441E+00   5.65324593E+01  -1.12287226E+01   5.38738441E+01   1.34538853E+00   4.15234528E+01  -9.18267441E+00   1.63718319E+01
             3226                4   5.34050217E+01   4.66976318E+01   4.66976318E+01  -3.82879043E+00  -9.18267441E+00   4.66976318E+01   4.66976318E+01  -3.82879043E+00  -9.18267441E+00   5.58803062E+01  -1.12287226E+01   5.27961845E+01   2.09338951E+00   4.07754517E+01  -9.18267441E+00   1.62528286E+01
             3227                1   4.18573570E+01   4.35788040E+01   4.35788040E+01   1.77162981E+00   1.67144084E+00   4.35788040E+01   4.35788040E+01   1.77162981E+00   1.67144084E+00   4.19073639E+01  -1.56739578E+01   4.18570900E+01   3.48550963E+00   4.18649254E+01   1.67144084E+00   8.28945255E+00
             3227                2   4.21448746E+01   4.37704926E+01   4.37704926E+01   1.57994211E+00   1.67144084E+00   4.37704926E+01   4.37704926E+01   1.67144084E+00   1.57994211E+00   4.21905479E+01  -1.56739578E+01   4.21446495E+01   3.34414148E+00   4.20062904E+01   1.67144084E+00   8.44512844E+00
             3227                3   4.17347107E+01   4.34968987E+01   4.34968987E+01   1.85353386E+00   1.67144084E+00   4.34968987E+01   4.34968987E+01   1.85353386E+00   1.67144084E+00   4.18254585E+01  -1.56739578E+01   4.17338181E+01   3.63542151E+00   4.17150116E+01   1.67144084E+00   8.42785168E+00
             3227                4   4.20221977E+01   4.36887589E+01   4.36887589E+01   1.66167617E+00   1.67144084E+00   4.36887589E+01   4.36887589E+01   1.67144084E+00   1.66167617E+00   4.20270805E+01  -1.56739578E+01   4.20221977E+01   3.49520493E+00   4.18552284E+01   1.67144084E+00   8.58463955E+00
             3228                1   1.10478874E+02   1.20002838E+02   1.20002838E+02   9.30302238E+00   9.74624729E+00   1.20002838E+02   1.20002838E+02   9.74624729E+00   9.30302238E+00   1.10699814E+02  -4.63507042E+01   1.10476883E+02   1.00335140E+01   1.19272354E+02   9.74624729E+00   8.96278191E+00
             3228                2   1.10569405E+02   1.20063065E+02   1.20063065E+02   9.24279499E+00   9.74624729E+00   1.20063065E+02   1.20063065E+02   9.74624729E+00   9.24279499E+00   1.10820274E+02  -4.63507042E+01   1.10566833E+02   9.95732498E+00   1.19348541E+02   9.74624729E+00   8.86980724E+00
             3228                3   1.10630997E+02   1.20104027E+02   1.20104027E+02   9.20183277E+00   9.74624729E+00   1.20104027E+02   1.20104027E+02   9.74624729E+00   9.20183277E+00   1.10902199E+02  -4.63507042E+01   1.10627983E+02   9.94387054E+00   1.19361992E+02   9.74624729E+00   9.04118633E+00
             3228                4   1.10721390E+02   1.20164139E+02   1.20164139E+02   9.14173508E+00   9.74624729E+00   1.20164139E+02   1.20164139E+02   9.74624729E+00   9.14173508E+00   1.11022408E+02  -4.63507080E+01   1.10717667E+02   9.86769867E+00   1.19438171E+02   9.74624729E+00   8.94827461E+00
             3229                1   4.82525253E+01   4.20681381E+01   4.20681381E+01  -3.83525395E+00  -8.23250866E+00   4.20681381E+01   4.20681381E+01  -3.83525395E+00  -8.23250866E+00   5.03006477E+01  -1.00001249E+01   4.77986259E+01  -4.03011888E-01   3.86358948E+01  -8.23250866E+00   1.20735779E+01
             3229                2   4.76043396E+01   4.16124268E+01   4.16124268E+01  -3.37954450E+00  -8.23250866E+00   4.16124268E+01   4.16124268E+01  -3.37954450E+00  -8.23250866E+00   4.98449364E+01  -1.00001249E+01   4.70429878E+01   1.13486804E-01   3.81193962E+01  -8.23250866E+00   1.20398140E+01
             3229                3   4.79266891E+01   4.18394318E+01   4.18394318E+01  -3.60654664E+00  -8.23250866E+00   4.18394318E+01   4.18394318E+01  -3.60654664E+00  -8.23250866E+00   5.00719376E+01  -1.00001249E+01   4.74205132E+01  -4.49099451E-01   3.86819839E+01  -8.23250866E+00   1.15552483E+01
             3229                4   4.72740364E+01   4.13790398E+01   4.13790398E+01  -3.14615464E+00  -8.23250866E+00   4.13790398E+01   4.13790398E+01  -3.14615464E+00  -8.23250866E+00   4.96115456E+01  -1.00001249E+01   4.66524696E+01   6.30990043E-02   3.81697845E+01  -8.23250866E+00   1.15149174E+01
             3230                1   3.73120422E+01   3.97411995E+01   3.97411995E+01   2.00411248E+00   2.86924577E+00   3.97411995E+01   3.97411995E+01   2.86924577E+00   2.00411248E+00   3.77370872E+01  -1.48715200E+01   3.72894669E+01   3.97573948E+00   3.77695732E+01   2.86924577E+00   8.39738750E+00
             3230                2   3.71350746E+01   3.96244659E+01   3.96244659E+01   2.12084651E+00   2.86924577E+00   3.96244659E+01   3.96244659E+01   2.86924577E+00   2.12084651E+00   3.75036201E+01  -1.48715200E+01   3.71180992E+01   4.07225800E+00   3.76730537E+01   2.86924577E+00   8.32928467E+00
             3230                3   3.73380432E+01   3.97583351E+01   3.97583351E+01   1.98697555E+00   2.86924577E+00   3.97583351E+01   3.97583351E+01   2.86924577E+00   1.98697555E+00   3.77713623E+01  -1.48715200E+01   3.73145790E+01   3.91220641E+00   3.78331070E+01   2.86924577E+00   8.30734730E+00
             3230                4   3.71583328E+01   3.96398163E+01   3.96398163E+01   2.10549474E+00   2.86924577E+00   3.96398163E+01   3.96398163E+01   2.86924577E+00   2.10549474E+00   3.75343208E+01  -1.48715200E+01   3.71406670E+01   4.01054287E+00   3.77347679E+01   2.86924577E+00   8.23865986E+00
             3231                1   5.54481888E+01   5.43570976E+01   5.43570976E+01  -9.80304122E-01  -1.20122337E+00   5.43570976E+01   5.43570976E+01  -9.80304122E-01  -1.20122337E+00   5.55583191E+01  -1.73918552E+01   5.54472046E+01  -4.44166601E-01   5.38209610E+01  -1.20122337E+00   5.42041826E+00
             3231                2   5.57747002E+01   5.45749893E+01   5.45749893E+01  -1.19819725E+00  -1.20122337E+00   5.45749893E+01   5.45749893E+01  -1.19819725E+00  -1.20122337E+00   5.57762146E+01  -1.73918552E+01   5.57747040E+01  -6.35639012E-01   5.40124321E+01  -1.20122337E+00   5.57307673E+00
             3231                3   5.52813797E+01   5.42456093E+01   5.42456093E+01  -8.68817806E-01  -1.20122337E+00   5.42456093E+01   5.42456093E+01  -8.68817806E-01  -1.20122337E+00   5.54468346E+01  -1.73918552E+01   5.52791328E+01  -2.91374594E-01   5.36681671E+01  -1.20122337E+00   5.61177635E+00
             3231                4   5.56089973E+01   5.44644623E+01   5.44644623E+01  -1.08767116E+00  -1.20122337E+00   5.44644623E+01   5.44644623E+01  -1.08767116E+00  -1.20122337E+00   5.56656876E+01  -1.73918552E+01   5.56087418E+01  -4.82942998E-01   5.38597374E+01  -1.20122337E+00   5.76438761E+00
             3232                1   4.04482765E+01   4.30442657E+01   4.30442657E+01   2.53855944E+00   2.65366435E+00   4.30442657E+01   4.30442657E+01   2.65366435E+00   2.53855944E+00   4.05057068E+01  -1.60788288E+01   4.04479103E+01   4.29405642E+00   4.12887688E+01   2.65366435E+00   8.24777889E+00
             3232                2   4.07434502E+01   4.32405357E+01   4.32405357E+01   2.34228921E+00   2.65366435E+00   4.32405357E+01   4.32405357E+01   2.65366435E+00   2.34228921E+00   4.08982468E+01  -1.60788288E+01   4.07407761E+01   4.14043474E+00   4.14423904E+01   2.65366435E+00   8.38496590E+00
             3232                3   4.03575439E+01   4.29838409E+01   4.29838409E+01   2.59898353E+00   2.65366435E+00   4.29838409E+01   4.29838409E+01   2.65366435E+00   2.59898353E+00   4.03848572E+01  -1.60788288E+01   4.03574638E+01   4.42854643E+00   4.11542778E+01   2.65366435E+00   8.39877129E+00
             3232                4   4.06530113E+01   4.31804466E+01   4.31804466E+01   2.40237641E+00   2.65366435E+00   4.31804466E+01   4.31804466E+01   2.65366435E+00   2.40237641E+00   4.07780724E+01  -1.60788288E+01   4.06512642E+01   4.27535009E+00   4.13074760E+01   2.65366435E+00   8.53628540E+00
             3233                1   7.51582413E+01   6.95435104E+01   6.95435104E+01  -4.74907732E+00  -6.45146418E+00   6.95435104E+01   6.95435104E+01  -4.74907732E+00  -6.45146418E+00   7.59949722E+01  -1.94476566E+01   7.51148529E+01   1.26140594E+00   6.35330315E+01  -6.45146418E+00   2.02585373E+01
             3233                2   7.56517487E+01   6.98759613E+01   6.98759613E+01  -5.08151770E+00  -6.45146418E+00   6.98759613E+01   6.98759613E+01  -5.08151770E+00  -6.45146418E+00   7.63274231E+01  -1.94476585E+01   7.56238327E+01   1.11825216E+00   6.36761856E+01  -6.45146418E+00   2.06465988E+01
             3233                3   7.45332336E+01   6.91213379E+01   6.91213379E+01  -4.32690096E+00  -6.45146418E+00   6.91213379E+01   6.91213379E+01  -4.32690096E+00  -6.45146418E+00   7.55727997E+01  -1.94476566E+01   7.44650574E+01   1.77274942E+00   6.30216866E+01  -6.45146418E+00   2.02682705E+01
             3233                4   7.52550430E+01   6.96087875E+01   6.96087875E+01  -4.81434345E+00  -6.45146418E+00   6.96087875E+01   6.96087875E+01  -4.81434345E+00  -6.45146418E+00   7.60602493E+01  -1.94476585E+01   7.52149582E+01   1.47961819E+00   6.33148193E+01  -6.45146418E+00   2.07075462E+01
             3234                1   4.52907333E+01   3.94900360E+01   3.94900360E+01  -3.25233340E+00  -7.97842646E+00   3.94900360E+01   3.94900360E+01  -3.25233340E+00  -7.97842646E+00   4.74684601E+01  -9.41975880E+00   4.47309189E+01  -2.54785657E-01   3.64924889E+01  -7.97842646E+00   1.09149866E+01
             3234                2   4.46699829E+01   3.90500031E+01   3.90500031E+01  -2.81230283E+00  -7.97842646E+00   3.90500031E+01   3.90500031E+01  -2.81230283E+00  -7.97842646E+00   4.70284309E+01  -9.41975880E+00   4.39903603E+01   2.25507349E-01   3.60121956E+01  -7.97842646E+00   1.08600826E+01
             3234                3   4.50237885E+01   3.93011856E+01   3.93011856E+01  -3.06347942E+00  -7.97842646E+00   3.93011856E+01   3.93011856E+01  -3.06347942E+00  -7.97842646E+00   4.72796097E+01  -9.41975975E+00   4.44142265E+01  -3.12524199E-01   3.65502281E+01  -7.97842646E+00   1.04391375E+01
             3234                4   4.43983231E+01   3.88564415E+01   3.88564415E+01  -2.61873770E+00  -7.97842646E+00   3.88564415E+01   3.88564415E+01  -2.61873770E+00  -7.97842646E+00   4.68348694E+01  -9.41975975E+00   4.36615982E+01   1.68978631E-01   3.60687256E+01  -7.97842646E+00   1.03850718E+01
             3235                1   3.89932861E+01   4.25002174E+01   4.25002174E+01   3.34431601E+00   3.67160368E+00   4.25002174E+01   4.25002174E+01   3.67160368E+00   3.34431601E+00   3.91558990E+01  -1.65053787E+01   3.89901962E+01   5.15756655E+00   4.06869659E+01   3.67160368E+00   8.22870350E+00
             3235                2   3.92986526E+01   4.27026939E+01   4.27026939E+01   3.14183664E+00   3.67160368E+00   4.27026939E+01   4.27026939E+01   3.67160368E+00   3.14183664E+00   3.95608597E+01  -1.65053787E+01   3.92906189E+01   4.99155140E+00   4.08529816E+01   3.67160368E+00   8.35193539E+00
             3235                3   3.89336014E+01   4.24605827E+01   4.24605827E+01   3.38394976E+00   3.67160368E+00   4.24605827E+01   4.24605827E+01   3.67160368E+00   3.38394976E+00   3.90766335E+01  -1.65053787E+01   3.89312096E+01   5.27827406E+00   4.05662575E+01   3.67160368E+00   8.39257812E+00
             3235                4   3.92397499E+01   4.26636772E+01   4.26636772E+01   3.18085384E+00   3.67160368E+00   4.26636772E+01   4.26636772E+01   3.67160368E+00   3.18085384E+00   3.94828224E+01  -1.65053787E+01   3.92328453E+01   5.11184025E+00   4.07326927E+01   3.67160368E+00   8.51540089E+00
             3236                1   3.65233994E+01   3.98124352E+01   3.98124352E+01   2.61303973E+00   4.00482130E+00   3.98124352E+01   3.98124352E+01   4.00482130E+00   2.61303973E+00   3.71993980E+01  -1.54767656E+01   3.64636612E+01   4.78104734E+00   3.76444283E+01   4.00482130E+00   8.71483421E+00
             3236                2   3.63270035E+01   3.96837845E+01   3.96837845E+01   2.74169159E+00   4.00482130E+00   3.96837845E+01   3.96837845E+01   4.00482130E+00   2.74169159E+00   3.69420929E+01  -1.54767656E+01   3.62775421E+01   4.91185188E+00   3.75136223E+01   4.00482130E+00   8.68681335E+00
             3236                3   3.64716721E+01   3.97785683E+01   3.97785683E+01   2.64690614E+00   4.00482130E+00   3.97785683E+01   3.97785683E+01   4.00482130E+00   2.64690614E+00   3.71316643E+01  -1.54767656E+01   3.64147263E+01   4.75257730E+00   3.76728973E+01   4.00482130E+00   8.58797264E+00
             3236                4   3.62732925E+01   3.96485672E+01   3.96485672E+01   2.77690840E+00   4.00482130E+00   3.96485672E+01   3.96485672E+01   4.00482130E+00   2.77690840E+00   3.68716583E+01  -1.54767656E+01   3.62264862E+01   4.88451815E+00   3.75409584E+01   4.00482130E+00   8.55973339E+00
             3237                1   4.18522072E+01   3.73090286E+01   3.73090286E+01  -2.18042850E+00  -6.56129646E+00   3.73090286E+01   3.73090286E+01  -2.18042850E+00  -6.56129646E+00   4.38703270E+01  -9.52243519E+00   4.13316460E+01  -8.91557336E-02   3.52177582E+01  -6.56129646E+00   8.84362793E+00
             3237                2   4.13475685E+01   3.69513817E+01   3.69513817E+01  -1.82278192E+00  -6.56129646E+00   3.69513817E+01   3.69513817E+01  -1.82278192E+00  -6.56129646E+00   4.35126801E+01  -9.52243519E+00   4.07299767E+01   2.97745079E-01   3.48308563E+01  -6.56129646E+00   8.81617928E+00
             3237                3   4.16619987E+01   3.71744843E+01   3.71744843E+01  -2.04588223E+00  -6.56129646E+00   3.71744843E+01   3.71744843E+01  -2.04588223E+00  -6.56129646E+00   4.37357788E+01  -9.52243519E+00   4.11060753E+01  -1.33907288E-01   3.52625084E+01  -6.56129646E+00   8.44586945E+00
             3237                4   4.11543465E+01   3.68138542E+01   3.68138542E+01  -1.68525314E+00  -6.56129646E+00   3.68138542E+01   3.68138542E+01  -1.68525314E+00  -6.56129646E+00   4.33751488E+01  -9.52243519E+00   4.04968185E+01   2.53567725E-01   3.48750343E+01  -6.56129646E+00   8.41925240E+00
             3238                1   4.25672760E+01   4.43362465E+01   4.43362465E+01   1.76279199E+00   1.77514827E+00   4.43362465E+01   4.43362465E+01   1.77514827E+00   1.76279199E+00   4.25734520E+01  -1.59580612E+01   4.25672722E+01   3.51678348E+00   4.25822525E+01   1.77514827E+00   8.46150303E+00
             3238                2   4.22669868E+01   4.41358414E+01   4.41358414E+01   1.96319437E+00   1.77514827E+00   4.41358414E+01   4.41358414E+01   1.96319437E+00   1.77514827E+00   4.23606949E+01  -1.59580612E+01   4.22660446E+01   3.66683578E+00   4.24322014E+01   1.77514827E+00   8.30329323E+00
             3238                3   4.26952133E+01   4.44214821E+01   4.44214821E+01   1.67755604E+00   1.77514827E+00   4.44214821E+01   4.44214821E+01   1.77514827E+00   1.67755604E+00   4.27439232E+01  -1.59580612E+01   4.26949615E+01   3.35998058E+00   4.27390556E+01   1.77514827E+00   8.31161308E+00
             3238                4   4.23947182E+01   4.42211418E+01   4.42211418E+01   1.87789023E+00   1.77514827E+00   4.42211418E+01   4.42211418E+01   1.87789023E+00   1.77514827E+00   4.24459953E+01  -1.59580603E+01   4.23944397E+01   3.51101327E+00   4.25880203E+01   1.77514827E+00   8.15381145E+00
             3239                1   2.59135799E+01   1.83334141E+01   1.83334141E+01  -3.50373626E-01  -1.12495441E+01   1.83334141E+01   1.83334141E+01  -3.50373626E-01  -1.12495441E+01   2.95829582E+01  -2.24449849E+00   1.96655521E+01   1.18023980E+00   1.68027992E+01  -1.12495441E+01   5.12395191E+00
             3239                2   2.64128666E+01   1.87884388E+01   1.87884388E+01  -8.05398941E-01  -1.12495441E+01   1.87884388E+01   1.87884388E+01  -8.05398941E-01  -1.12495441E+01   3.00379829E+01  -2.24449849E+00   2.09475555E+01   7.16760218E-01   1.72662792E+01  -1.12495441E+01   5.24480486E+00
             3239                3   2.60802288E+01   1.84867401E+01   1.84867401E+01  -5.03700495E-01  -1.12495441E+01   1.84867401E+01   1.84867401E+01  -5.03700495E-01  -1.12495441E+01   2.97362843E+01  -2.24449849E+00   2.01089783E+01   1.31183195E+00   1.66712074E+01  -1.12495441E+01   5.58404970E+00
             3239                4   2.65760860E+01   1.89344845E+01   1.89344845E+01  -9.51444805E-01  -1.12495441E+01   1.89344845E+01   1.89344845E+01  -9.51444805E-01  -1.12495441E+01   3.01840286E+01  -2.24449849E+00   2.13391418E+01   8.48586202E-01   1.71344528E+01  -1.12495441E+01   5.70571566E+00
             3240                1   4.67402954E+01   4.70205956E+01   4.70205956E+01   4.36160773E-01   1.25986069E-01   4.70205956E+01   4.70205956E+01   4.36160773E-01   1.25986069E-01   4.68946114E+01  -1.58609133E+01   4.67379799E+01   1.98600471E+00   4.54707527E+01   1.25986069E-01   8.35443306E+00
             3240                2   4.64303665E+01   4.68130493E+01   4.68130493E+01   6.43708169E-01   1.25986069E-01   4.68130493E+01   4.68130493E+01   6.43708169E-01   1.25986069E-01   4.66870613E+01  -1.58609133E+01   4.64238739E+01   2.14088178E+00   4.53158760E+01   1.25986069E-01   8.17813778E+00
             3240                3   4.69267120E+01   4.71452065E+01   4.71452065E+01   3.11549515E-01   1.25986069E-01   4.71452065E+01   4.71452065E+01   3.11549515E-01   1.25986069E-01   4.70192223E+01  -1.58609133E+01   4.69258919E+01   1.80042398E+00   4.56563339E+01   1.25986069E-01   8.21660709E+00
             3240                4   4.66086006E+01   4.69324646E+01   4.69324646E+01   5.24292409E-01   1.25986069E-01   4.69324646E+01   4.69324646E+01   5.24292409E-01   1.25986069E-01   4.68064766E+01  -1.58609133E+01   4.66047745E+01   1.96434009E+00   4.54924164E+01   1.25986069E-01   8.04712677E+00
             3241                1   4.07241135E+01   3.46728821E+01   3.46728821E+01  -2.67136574E+00  -8.74816132E+00   3.46728821E+01   3.46728821E+01  -2.67136574E+00  -8.74816132E+00   4.34210434E+01  -7.75111771E+00   3.96848259E+01   2.29842529E-01   3.17716713E+01  -8.74816132E+00   9.99632168E+00
             3241                2   4.00952568E+01   3.42135773E+01   3.42135773E+01  -2.21206379E+00  -8.74816132E+00   3.42135773E+01   3.42135773E+01  -2.21206379E+00  -8.74816132E+00   4.29617386E+01  -7.75111771E+00   3.88695030E+01   7.14457095E-01   3.12870579E+01  -8.74816132E+00   9.90130615E+00
             3241                3   4.04765015E+01   3.44925423E+01   3.44925423E+01  -2.49102664E+00  -8.74816132E+00   3.44925423E+01   3.44925423E+01  -2.49102664E+00  -8.74816132E+00   4.32407036E+01  -7.75111771E+00   3.93663101E+01   1.39653727E-01   3.18618603E+01  -8.74816132E+00   9.50639153E+00
             3241                4   3.98468056E+01   3.40309067E+01   3.40309067E+01  -2.02939320E+00  -8.74816132E+00   3.40309067E+01   3.40309067E+01  -2.02939320E+00  -8.74816132E+00   4.27790680E+01  -7.75111771E+00   3.85413933E+01   6.23566449E-01   3.13779488E+01  -8.74816132E+00   9.41426086E+00
             3242                1   9.94111099E+01   1.08078232E+02   1.08078232E+02   4.40562630E+00   1.35621586E+01   1.08078232E+02   1.08078232E+02   1.35621586E+01   4.40562630E+00   1.03672607E+02  -4.20153389E+01   9.84556732E+01   4.10702705E+01   7.14135895E+01   1.35621586E+01   4.95663490E+01
             3242                2   9.75021286E+01   1.06855179E+02   1.06855179E+02   5.62868071E+00   1.35621586E+01   1.06855179E+02   1.06855179E+02   1.35621586E+01   5.62868071E+00   1.01226494E+02  -4.20153389E+01   9.67719727E+01   4.06097145E+01   7.18741455E+01   1.35621586E+01   4.81387024E+01
             3242                3   1.00744957E+02   1.08929634E+02   1.08929634E+02   3.55422115E+00   1.35621586E+01   1.08929634E+02   1.08929634E+02   1.35621586E+01   3.55422115E+00   1.05375412E+02  -4.20153389E+01   9.96173935E+01   3.95641899E+01   7.29196701E+01   1.35621586E+01   4.99784698E+01
             3242                4   9.88693390E+01   1.07731682E+02   1.07731682E+02   4.75218010E+00   1.35621586E+01   1.07731682E+02   1.07731682E+02   1.35621586E+01   4.75218010E+00   1.02979500E+02  -4.20153389E+01   9.79804077E+01   3.91183701E+01   7.33654938E+01   1.35621586E+01   4.85590172E+01
             3243                1   3.87617340E+01   4.07850571E+01   4.07850571E+01   1.89927101E+00   2.14858246E+00   4.07850571E+01   4.07850571E+01   2.14858246E+00   1.89927101E+00   3.88857880E+01  -1.49443045E+01   3.87599297E+01   3.78312945E+00   3.89011993E+01   2.14858246E+00   8.34903812E+00
             3243                2   3.89807472E+01   4.09304695E+01   4.09304695E+01   1.75385845E+00   2.14858246E+00   4.09304695E+01   4.09304695E+01   2.14858246E+00   1.75385845E+00   3.91766090E+01  -1.49443026E+01   3.89762497E+01   3.67725897E+00   3.90070686E+01   2.14858246E+00   8.46479702E+00
             3243                3   3.86838417E+01   4.07332802E+01   4.07332802E+01   1.95105135E+00   2.14858246E+00   4.07332802E+01   4.07332802E+01   2.14858246E+00   1.95105135E+00   3.87822266E+01  -1.49443045E+01   3.86827049E+01   3.88875484E+00   3.87955742E+01   2.14858246E+00   8.44948483E+00
             3243                4   3.89011497E+01   4.08776512E+01   4.08776512E+01   1.80667436E+00   2.14858246E+00   4.08776512E+01   4.08776512E+01   2.14858246E+00   1.80667436E+00   3.90709763E+01  -1.49443026E+01   3.88977699E+01   3.78404641E+00   3.89002800E+01   2.14858246E+00   8.56433582E+00
             3244                1   4.11127396E+01   4.37537956E+01   4.37537956E+01   2.52939892E+00   2.75363421E+00   4.37537956E+01   4.37537956E+01   2.75363421E+00   2.52939892E+00   4.12243958E+01  -1.63456097E+01   4.11113625E+01   4.31299734E+00   4.19701996E+01   2.75363421E+00   8.38728142E+00
             3244                2   4.08035927E+01   4.35480042E+01   4.35480042E+01   2.73519206E+00   2.75363421E+00   4.35480042E+01   4.35480042E+01   2.75363421E+00   2.73519206E+00   4.08128128E+01  -1.63456097E+01   4.08035851E+01   4.47494555E+00   4.18082504E+01   2.75363421E+00   8.24484539E+00
             3244                3   4.12093163E+01   4.38179855E+01   4.38179855E+01   2.46521473E+00   2.75363421E+00   4.38179855E+01   4.38179855E+01   2.75363421E+00   2.46521473E+00   4.13527718E+01  -1.63456116E+01   4.12070427E+01   4.17204523E+00   4.21111526E+01   2.75363421E+00   8.22611427E+00
             3244                4   4.09011269E+01   4.36129875E+01   4.36129875E+01   2.67020965E+00   2.75363421E+00   4.36129875E+01   4.36129875E+01   2.75363421E+00   2.67020965E+00   4.09427757E+01  -1.63456097E+01   4.09009361E+01   4.33374071E+00   4.19494553E+01   2.75363421E+00   8.08345413E+00
             3245                1   4.02557755E+01   4.44586143E+01   4.44586143E+01   7.35622466E-01   8.93137646E+00   4.44586143E+01   4.44586143E+01   8.93137646E+00   7.35622466E-01   4.37229919E+01  -1.80418720E+01   3.83106308E+01   1.48271883E+00   4.37115173E+01   8.93137646E+00   5.66631794E+00
             3245                2   4.04697685E+01   4.45899162E+01   4.45899162E+01   6.04317069E-01   8.93137646E+00   4.45899162E+01   4.45899162E+01   8.93137646E+00   6.04317069E-01   4.39855995E+01  -1.80418701E+01   3.84708023E+01   1.38699353E+00   4.38072395E+01   8.93137646E+00   5.81497240E+00
             3245                3   4.00675659E+01   4.43430557E+01   4.43430557E+01   8.51178050E-01   8.93137646E+00   4.43430557E+01   4.43430557E+01   8.93137646E+00   8.51178050E-01   4.34918785E+01  -1.80418701E+01   3.81693497E+01   1.62768197E+00   4.35665512E+01   8.93137646E+00   5.75922251E+00
             3245                4   4.02807312E+01   4.44739304E+01   4.44739304E+01   7.20305026E-01   8.93137646E+00   4.44739304E+01   4.44739304E+01   8.93137646E+00   7.20305026E-01   4.37536278E+01  -1.80418720E+01   3.83293343E+01   1.53279400E+00   4.36614418E+01   8.93137646E+00   5.90671158E+00
             3246                1   4.17720833E+01   3.66212730E+01   3.66212730E+01  -2.08424330E+00  -7.65776396E+00   3.66212730E+01   3.66212730E+01  -2.08424330E+00  -7.65776396E+00   4.42790375E+01  -8.95975494E+00   4.09229965E+01   2.72694409E-01   3.42643356E+01  -7.65776396E+00   9.25587940E+00
             3246                2   4.23513565E+01   3.70364876E+01   3.70364876E+01  -2.49945331E+00  -7.65776396E+00   3.70364876E+01   3.70364876E+01  -2.49945331E+00  -7.65776396E+00   4.46942520E+01  -8.95975590E+00   4.16358147E+01  -1.70788914E-01   3.47078209E+01  -7.65776396E+00   9.30823803E+00
             3246                3   4.19995346E+01   3.67846756E+01   3.67846756E+01  -2.24764347E+00  -7.65776396E+00   3.67846756E+01   3.67846756E+01  -2.24764347E+00  -7.65776396E+00   4.44424400E+01  -8.95975590E+00   4.12046547E+01   3.32899570E-01   3.42041321E+01  -7.65776396E+00   9.69873333E+00
             3246                4   4.25754623E+01   3.71963081E+01   3.71963081E+01  -2.65927792E+00  -7.65776396E+00   3.71963081E+01   3.71963081E+01  -2.65927792E+00  -7.65776396E+00   4.48540726E+01  -8.95975494E+00   4.19077034E+01  -1.10026099E-01   3.46470566E+01  -7.65776396E+00   9.75208664E+00
             3247                1   6.69499893E+01   6.06498184E+01   6.06498184E+01  -5.30070686E+00  -7.25677395E+00   6.06498184E+01   6.06498184E+01  -5.30070686E+00  -7.25677395E+00   6.79065933E+01  -1.60307789E+01   6.68856583E+01  -2.48236704E+00   5.78314781E+01  -7.25677395E+00   1.33389606E+01
             3247                2   6.76206055E+01   6.11028290E+01   6.11028290E+01  -5.75372076E+00  -7.25677395E+00   6.11028290E+01   6.11028290E+01  -5.75372076E+00  -7.25677395E+00   6.83596039E+01  -1.60307789E+01   6.75830078E+01  -3.03368258E+00   5.83827934E+01  -7.25677395E+00   1.32080917E+01
             3247                3   6.73683090E+01   6.09325905E+01   6.09325905E+01  -5.58348131E+00  -7.25677395E+00   6.09325905E+01   6.09325905E+01  -5.58348131E+00  -7.25677395E+00   6.81893616E+01  -1.60307789E+01   6.73215256E+01  -2.55607295E+00   5.79051819E+01  -7.25677395E+00   1.38638439E+01
             3247                4   6.80301666E+01   6.13786888E+01   6.13786888E+01  -6.02957869E+00  -7.25677395E+00   6.13786888E+01   6.13786888E+01  -6.02957869E+00  -7.25677395E+00   6.86354599E+01  -1.60307789E+01   6.80052567E+01  -3.10455728E+00   5.84536667E+01  -7.25677395E+00   1.37337141E+01
             3248                1   8.67255249E+01   9.24374084E+01   9.24374084E+01   4.72906685E+00   6.72930622E+00   9.24374084E+01   9.24374084E+01   6.72930622E+00   4.72906685E+00   8.77083359E+01  -3.46319275E+01   8.66735992E+01   2.56452446E+01   7.15212326E+01   6.72930622E+00   3.73769531E+01
             3248                2   8.74329529E+01   9.29031754E+01   9.29031754E+01   4.26330614E+00   6.72930622E+00   9.29031754E+01   9.29031754E+01   6.72930622E+00   4.26330614E+00   8.86398697E+01  -3.46319313E+01   8.73546524E+01   2.45951309E+01   7.25713501E+01   6.72930622E+00   3.72669716E+01
             3248                3   8.81339569E+01   9.33636017E+01   9.33636017E+01   3.80287957E+00   6.72930622E+00   9.33636017E+01   9.33636017E+01   6.72930622E+00   3.80287957E+00   8.95607224E+01  -3.46319313E+01   8.80245361E+01   2.56316757E+01   7.15348053E+01   6.72930622E+00   3.84513512E+01
             3248                4   8.88023758E+01   9.38016357E+01   9.38016357E+01   3.36484456E+00   6.72930622E+00   9.38016357E+01   9.38016357E+01   6.72930622E+00   3.36484456E+00   9.04367905E+01  -3.46319313E+01   8.86587982E+01   2.46080914E+01   7.25583878E+01   6.72930622E+00   3.83392181E+01
             3249                1   3.72626343E+01   4.13178177E+01   4.13178177E+01   3.60604477E+00   4.52117968E+00   4.13178177E+01   4.13178177E+01   4.52117968E+00   3.60604477E+00   3.77117729E+01  -1.64816799E+01   3.72373390E+01   5.78553772E+00   3.91383247E+01   4.52117968E+00   8.80013371E+00
             3249                2   3.69766312E+01   4.11292000E+01   4.11292000E+01   3.79466319E+00   4.52117968E+00   4.11292000E+01   4.11292000E+01   4.52117968E+00   3.79466319E+00   3.73345375E+01  -1.64816799E+01   3.69605675E+01   5.95080233E+00   3.89730606E+01   4.52117968E+00   8.70916176E+00
             3249                3   3.72672234E+01   4.13208427E+01   4.13208427E+01   3.60302138E+00   4.52117968E+00   4.13208427E+01   4.13208427E+01   4.52117968E+00   3.60302138E+00   3.77178192E+01  -1.64816799E+01   3.72417641E+01   5.69717741E+00   3.92266846E+01   4.52117968E+00   8.63721752E+00
             3249                4   3.69813004E+01   4.11322784E+01   4.11322784E+01   3.79157853E+00   4.52117968E+00   4.11322784E+01   4.11322784E+01   4.52117968E+00   3.79157853E+00   3.73407021E+01  -1.64816799E+01   3.69651031E+01   5.86236286E+00   3.90614967E+01   4.52117968E+00   8.54613113E+00
             3250                1   3.74068146E+01   4.01093597E+01   4.01093597E+01   2.36177158E+00   3.05289578E+00   4.01093597E+01   4.01093597E+01   3.05289578E+00   2.36177158E+00   3.77475891E+01  -1.51746750E+01   3.73924446E+01   4.33969212E+00   3.81314392E+01   3.05289578E+00   8.41127396E+00
             3250                2   3.76177139E+01   4.02485695E+01   4.02485695E+01   2.22256088E+00   3.05289578E+00   4.02485695E+01   4.02485695E+01   3.05289578E+00   2.22256088E+00   3.80260086E+01  -1.51746750E+01   3.75970879E+01   4.22237921E+00   3.82487526E+01   3.05289578E+00   8.48797894E+00
             3250                3   3.73868828E+01   4.00961914E+01   4.00961914E+01   2.37493992E+00   3.05289578E+00   4.00961914E+01   4.00961914E+01   3.05289578E+00   2.37493992E+00   3.77212524E+01  -1.51746750E+01   3.73730507E+01   4.41001940E+00   3.80611115E+01   3.05289578E+00   8.52198219E+00
             3250                4   3.75950623E+01   4.02336273E+01   4.02336273E+01   2.23750281E+00   3.05289578E+00   4.02336273E+01   4.02336273E+01   3.05289578E+00   2.23750281E+00   3.79961243E+01  -1.51746750E+01   3.75751572E+01   4.29465866E+00   3.81764717E+01   3.05289578E+00   8.59837532E+00
             3251                1   5.85027657E+01   5.19749184E+01   5.19749184E+01  -4.99619675E+00  -7.94775629E+00   5.19749184E+01   5.19749184E+01  -4.99619675E+00  -7.94775629E+00   5.99226761E+01  -1.30103216E+01   5.83348923E+01  -1.50140142E+00   4.84801216E+01  -7.94775629E+00   1.36707306E+01
             3251                2   5.89366302E+01   5.22714958E+01   5.22714958E+01  -5.29277420E+00  -7.94775629E+00   5.22714958E+01   5.22714958E+01  -5.29277420E+00  -7.94775629E+00   6.02192535E+01  -1.30103216E+01   5.88018532E+01  -1.51941001E+00   4.84981308E+01  -7.94775629E+00   1.42468491E+01
             3251                3   5.78139458E+01   5.15022163E+01   5.15022163E+01  -4.52349377E+00  -7.94775629E+00   5.15022163E+01   5.15022163E+01  -4.52349377E+00  -7.94775629E+00   5.94499702E+01  -1.30103216E+01   5.75851250E+01  -9.36703324E-01   4.79154243E+01  -7.94775629E+00   1.37144976E+01
             3251                4   5.82419472E+01   5.17962036E+01   5.17962036E+01  -4.81748104E+00  -7.94775629E+00   5.17962036E+01   5.17962036E+01  -4.81748104E+00  -7.94775629E+00   5.97439575E+01  -1.30103216E+01   5.80522308E+01  -9.54328120E-01   4.79330482E+01  -7.94775629E+00   1.42752733E+01
             3252                1   3.82397842E+01   4.12238617E+01   4.12238617E+01   2.63620424E+00   3.34171009E+00   4.12238617E+01   4.12238617E+01   3.34171009E+00   2.63620424E+00   3.85876579E+01  -1.57339249E+01   3.82251396E+01   4.66391230E+00   3.91961517E+01   3.34171009E+00   8.61004925E+00
             3252                2   3.82103271E+01   4.12043953E+01   4.12043953E+01   2.65566611E+00   3.34171009E+00   4.12043953E+01   4.12043953E+01   3.34171009E+00   2.65566611E+00   3.85487289E+01  -1.57339239E+01   3.81964684E+01   4.75772619E+00   3.91023369E+01   3.34171009E+00   8.75288773E+00
             3252                3   3.79818077E+01   4.10532455E+01   4.10532455E+01   2.80681801E+00   3.34171009E+00   4.10532455E+01   4.10532455E+01   3.34171009E+00   2.80681801E+00   3.82464294E+01  -1.57339249E+01   3.79733353E+01   4.80706835E+00   3.90529976E+01   3.34171009E+00   8.51477623E+00
             3252                4   3.79522820E+01   4.10336952E+01   4.10336952E+01   2.82636929E+00   3.34171009E+00   4.10336952E+01   4.10336952E+01   3.34171009E+00   2.82636929E+00   3.82073250E+01  -1.57339249E+01   3.79444084E+01   4.90070772E+00   3.89593582E+01   3.34171009E+00   8.65748405E+00
             3253                1   3.82429962E+01   3.18969231E+01   3.18969231E+01  -2.40644145E+00  -9.33766079E+00   3.18969231E+01   3.18969231E+01  -2.40644145E+00  -9.33766079E+00   4.12345848E+01  -6.71760702E+00   3.67898178E+01   5.10237813E-01   2.89802437E+01  -9.33766079E+00   9.56791115E+00
             3253                2   3.76259117E+01   3.14357872E+01   3.14357872E+01  -1.94530511E+00  -9.33766079E+00   3.14357872E+01   3.14357872E+01  -1.94530511E+00  -9.33766079E+00   4.07734489E+01  -6.71760702E+00   3.59371758E+01   1.00250053E+00   2.84879818E+01  -9.33766079E+00   9.47161102E+00
             3253                3   3.79924316E+01   3.17102909E+01   3.17102909E+01  -2.21980810E+00  -9.33766079E+00   3.17102909E+01   3.17102909E+01  -2.21980810E+00  -9.33766079E+00   4.10479507E+01  -6.71760702E+00   3.64467430E+01   4.08399373E-01   2.90820827E+01  -9.33766079E+00   9.07016373E+00
             3253                4   3.73737946E+01   3.12458916E+01   3.12458916E+01  -1.75541008E+00  -9.33766079E+00   3.12458916E+01   3.12458916E+01  -1.75541008E+00  -9.33766079E+00   4.05835533E+01  -6.71760702E+00   3.55810585E+01   8.99150670E-01   2.85913315E+01  -9.33766079E+00   8.97537041E+00
             3254                1   3.76744156E+01   4.05745316E+01   4.05745316E+01   2.59728742E+00   3.21042943E+00   4.05745316E+01   4.05745316E+01   3.21042943E+00   2.59728742E+00   3.79772415E+01  -1.54607496E+01   3.76631851E+01   4.60569239E+00   3.85661240E+01   3.21042943E+00   8.49941444E+00
             3254                2   3.79103470E+01   4.07304115E+01   4.07304115E+01   2.44140291E+00   3.21042943E+00   4.07304115E+01   4.07304115E+01   3.21042943E+00   2.44140291E+00   3.82890091E+01  -1.54607477E+01   3.78927879E+01   4.47367907E+00   3.86981354E+01   3.21042943E+00   8.58391953E+00
             3254                3   3.76524467E+01   4.05599976E+01   4.05599976E+01   2.61181498E+00   3.21042943E+00   4.05599976E+01   4.05599976E+01   3.21042943E+00   2.61181498E+00   3.79481850E+01  -1.54607477E+01   3.76417351E+01   4.68615627E+00   3.84856567E+01   3.21042943E+00   8.62639141E+00
             3254                4   3.78853111E+01   4.07138863E+01   4.07138863E+01   2.45792818E+00   3.21042943E+00   4.07138863E+01   4.07138863E+01   3.21042943E+00   2.45792818E+00   3.82559586E+01  -1.54607477E+01   3.78684921E+01   4.55683231E+00   3.86149826E+01   3.21042943E+00   8.71149540E+00
             3255                1   4.84284172E+01   4.32950439E+01   4.32950439E+01  -3.37624407E+00  -6.71745682E+00   4.32950439E+01   4.32950439E+01  -3.37624407E+00  -6.71745682E+00   5.00125008E+01  -1.10671148E+01   4.81680717E+01  -7.05263495E-01   4.06240654E+01  -6.71745682E+00   1.08408442E+01
             3255                2   4.78777580E+01   4.29131584E+01   4.29131584E+01  -2.99435568E+00  -6.71745682E+00   4.29131584E+01   4.29131584E+01  -2.99435568E+00  -6.71745682E+00   4.96306152E+01  -1.10671158E+01   4.75504341E+01  -2.75869131E-01   4.01946716E+01  -6.71745682E+00   1.08355370E+01
             3255                3   4.81671295E+01   4.31140823E+01   4.31140823E+01  -3.19527674E+00  -6.71745682E+00   4.31140823E+01   4.31140823E+01  -3.19527674E+00  -6.71745682E+00   4.98315392E+01  -1.10671158E+01   4.78761063E+01  -7.19666302E-01   4.06384697E+01  -6.71745682E+00   1.04170685E+01
             3255                4   4.76128273E+01   4.27287292E+01   4.27287292E+01  -2.80992413E+00  -6.71745682E+00   4.27287292E+01   4.27287292E+01  -2.80992413E+00  -6.71745682E+00   4.94461861E+01  -1.10671158E+01   4.72500572E+01  -2.90006310E-01   4.02088089E+01  -6.71745682E+00   1.04117117E+01
             3256                1   1.20977966E+02   1.35569214E+02   1.35569214E+02   9.96255016E+00   1.98235283E+01   1.35569214E+02   1.35569214E+02   1.98235283E+01   9.96255016E+00   1.25606667E+02  -5.51184349E+01   1.20068779E+02   3.57984314E+01   1.09733330E+02   1.98235283E+01   5.07707253E+01
             3256                2   1.22152168E+02   1.36322311E+02   1.36322311E+02   9.20945263E+00   1.98235283E+01   1.36322311E+02   1.36322311E+02   1.98235283E+01   9.20945263E+00   1.27112862E+02  -5.51184349E+01   1.21108154E+02   3.36466904E+01   1.11885078E+02   1.98235283E+01   5.00910034E+01
             3256                3   1.23648529E+02   1.37279617E+02   1.37279617E+02   8.25215149E+00   1.98235283E+01   1.37279617E+02   1.37279617E+02   1.98235283E+01   8.25215149E+00   1.29027466E+02  -5.51184349E+01   1.22421478E+02   3.57331963E+01   1.09798569E+02   1.98235283E+01   5.28261490E+01
             3256                4   1.24824059E+02   1.38029846E+02   1.38029846E+02   7.50192738E+00   1.98235283E+01   1.38029846E+02   1.38029846E+02   1.98235283E+01   7.50192738E+00   1.30527908E+02  -5.51184349E+01   1.23444717E+02   3.35559044E+01   1.11975861E+02   1.98235283E+01   5.21724243E+01
             3257                1   3.02508602E+01   2.34791412E+01   2.34791412E+01  -1.20173740E+00  -1.02681952E+01   2.34791412E+01   2.34791412E+01  -1.20173740E+00  -1.02681952E+01   3.37473373E+01  -4.00306940E+00   2.69298573E+01   7.04163373E-01   2.15732403E+01  -1.02681952E+01   6.58838606E+00
             3257                2   2.97173595E+01   2.30392094E+01   2.30392094E+01  -7.61805177E-01  -1.02681952E+01   2.30392094E+01   2.30392094E+01  -7.61805177E-01  -1.02681952E+01   3.33074036E+01  -4.00306988E+00   2.59502907E+01   1.15563905E+00   2.11217651E+01  -1.02681952E+01   6.47769547E+00
             3257                3   3.00925236E+01   2.33494167E+01   2.33494167E+01  -1.07201409E+00  -1.02681952E+01   2.33494167E+01   2.33494167E+01  -1.07201409E+00  -1.02681952E+01   3.36176109E+01  -4.00306940E+00   2.66448212E+01   5.82928300E-01   2.16944752E+01  -1.02681952E+01   6.13817692E+00
             3257                4   2.95563202E+01   2.29047661E+01   2.29047661E+01  -6.27361536E-01  -1.02681952E+01   2.29047661E+01   2.29047661E+01  -6.27361536E-01  -1.02681952E+01   3.31729622E+01  -4.00306988E+00   2.56432362E+01   1.03479207E+00   2.12426128E+01  -1.02681952E+01   6.02920008E+00
             3258                1   4.63861656E+01   4.76121025E+01   4.76121025E+01   1.27782798E+00   1.17422056E+00   4.76121025E+01   4.76121025E+01   1.27782798E+00   1.17422056E+00   4.64378815E+01  -1.66880512E+01   4.63859024E+01   2.57583570E+00   4.63140945E+01   1.17422056E+00   7.64574671E+00
             3258                2   4.60376282E+01   4.73791885E+01   4.73791885E+01   1.51074266E+00   1.17422056E+00   4.73791885E+01   4.73791885E+01   1.51074266E+00   1.17422056E+00   4.62049675E+01  -1.66880512E+01   4.60348625E+01   2.76510668E+00   4.61248245E+01   1.17422056E+00   7.48079395E+00
             3258                3   4.65482445E+01   4.77202148E+01   4.77202148E+01   1.16971922E+00   1.17422056E+00   4.77202148E+01   4.77202148E+01   1.17422056E+00   1.16971922E+00   4.65504951E+01  -1.66880512E+01   4.65482445E+01   2.40247226E+00   4.64874611E+01   1.17422056E+00   7.47433186E+00
             3258                4   4.62022896E+01   4.74892998E+01   4.74892998E+01   1.40063000E+00   1.17422056E+00   4.74892998E+01   4.74892998E+01   1.40063000E+00   1.17422056E+00   4.63150787E+01  -1.66880512E+01   4.62010422E+01   2.59184408E+00   4.62980881E+01   1.17422056E+00   7.31316757E+00
             3259                1   1.99449707E+02   2.29439972E+02   2.29439972E+02   1.47681513E+01   4.98739586E+01   2.29439972E+02   2.29439972E+02   4.98739586E+01   1.47681513E+01   2.14671829E+02  -9.80273666E+01   1.92313614E+02   1.65824051E+01   2.27625717E+02   4.98739586E+01   1.96514454E+01
             3259                2   2.00789993E+02   2.29860367E+02   2.29860367E+02   1.20131912E+01   5.22085152E+01   2.29860367E+02   2.29860367E+02   5.22085152E+01   1.20131912E+01   2.17847183E+02  -9.80273666E+01   1.91421478E+02   1.43447905E+01   2.27528778E+02   5.22085152E+01   2.24164066E+01
             3259                3   1.98707718E+02   2.29137482E+02   2.29137482E+02   1.60653801E+01   4.88792267E+01   2.29137482E+02   2.29137482E+02   4.88792267E+01   1.60653801E+01   2.13072113E+02  -9.80273666E+01   1.92470047E+02   1.94046135E+01   2.25798248E+02   4.88792267E+01   2.64640884E+01
             3259                4   2.00099518E+02   2.29589157E+02   2.29589157E+02   1.31355591E+01   5.13573723E+01   2.29589157E+02   2.29589157E+02   5.13573723E+01   1.31355591E+01   2.16453598E+02  -9.80273666E+01   1.91626541E+02   1.70925083E+01   2.25632202E+02   5.13573723E+01   2.89972343E+01
             3260                1   3.63950462E+01   3.99940872E+01   3.99940872E+01   3.06443071E+00   4.15831184E+00   3.99940872E+01   3.99940872E+01   4.15831184E+00   3.06443071E+00   3.69296570E+01  -1.57389421E+01   3.63580322E+01   5.21996117E+00   3.78385544E+01   4.15831184E+00   8.65775681E+00
             3260                2   3.66205750E+01   4.01421280E+01   4.01421280E+01   2.91638660E+00   4.15831184E+00   4.01421280E+01   4.01421280E+01   4.15831184E+00   2.91638660E+00   3.72257423E+01  -1.57389421E+01   3.65731468E+01   5.07667637E+00   3.79818382E+01   4.15831184E+00   8.70353413E+00
             3260                3   3.64360657E+01   4.00210304E+01   4.00210304E+01   3.03748512E+00   4.15831184E+00   4.00210304E+01   4.00210304E+01   4.15831184E+00   3.03748512E+00   3.69835472E+01  -1.57389421E+01   3.63972511E+01   5.26443100E+00   3.77940865E+01   4.15831184E+00   8.79778767E+00
             3260                4   3.66601105E+01   4.01680527E+01   4.01680527E+01   2.89046168E+00   4.15831184E+00   4.01680527E+01   4.01680527E+01   4.15831184E+00   2.89046168E+00   3.72775917E+01  -1.57389421E+01   3.66107330E+01   5.12209749E+00   3.79364166E+01   4.15831184E+00   8.84362984E+00
             3261                1   3.97686272E+01   4.20479355E+01   4.20479355E+01   2.12753153E+00   2.43284559E+00   4.20479355E+01   4.20479355E+01   2.43284559E+00   2.12753153E+00   3.99204063E+01  -1.55361052E+01   3.97659874E+01   4.11149073E+00   4.00639763E+01   2.43284559E+00   8.67550659E+00
             3261                2   3.95047569E+01   4.18725014E+01   4.18725014E+01   2.30296230E+00   2.43284559E+00   4.18725014E+01   4.18725014E+01   2.43284559E+00   2.30296230E+00   3.95695381E+01  -1.55361032E+01   3.95042801E+01   4.24456167E+00   3.99309044E+01   2.43284559E+00   8.54741669E+00
             3261                3   3.98499641E+01   4.21019363E+01   4.21019363E+01   2.07353163E+00   2.43284559E+00   4.21019363E+01   4.21019363E+01   2.43284559E+00   2.07353163E+00   4.00284042E+01  -1.55361052E+01   3.98463173E+01   3.98870897E+00   4.01867599E+01   2.43284559E+00   8.54362774E+00
             3261                4   3.95834198E+01   4.19248428E+01   4.19248428E+01   2.25062680E+00   2.43284559E+00   4.19248428E+01   4.19248428E+01   2.43284559E+00   2.25062680E+00   3.96742134E+01  -1.55361052E+01   3.95824776E+01   4.12500048E+00   4.00504684E+01   2.43284559E+00   8.41730404E+00
             3262                1   2.97910099E+01   2.26824570E+01   2.26824570E+01  -1.30209255E+00  -1.06653852E+01   2.26824570E+01   2.26824570E+01  -1.30209255E+00  -1.06653852E+01   3.33478432E+01  -3.57166004E+00   2.61596527E+01   8.56818259E-01   2.05235462E+01  -1.06653852E+01   6.86437368E+00
             3262                2   2.92530632E+01   2.22325878E+01   2.22325878E+01  -8.52222919E-01  -1.06653852E+01   2.22325878E+01   2.22325878E+01  -8.52222919E-01  -1.06653852E+01   3.28979721E+01  -3.57166004E+00   2.51283226E+01   1.32802927E+00   2.00523357E+01  -1.06653852E+01   6.75109005E+00
             3262                3   2.96021423E+01   2.25255318E+01   2.25255318E+01  -1.14516687E+00  -1.06653852E+01   2.25255318E+01   2.25255318E+01  -1.14516687E+00  -1.06653852E+01   3.31909180E+01  -3.57166004E+00   2.58048000E+01   7.30019927E-01   2.06503448E+01  -1.06653852E+01   6.39301729E+00
             3262                4   2.90594902E+01   2.20684319E+01   2.20684319E+01  -6.88066423E-01  -1.06653852E+01   2.20684319E+01   2.20684319E+01  -6.88066423E-01  -1.06653852E+01   3.27338181E+01  -3.57166004E+00   2.47406120E+01   1.20022905E+00   2.01801357E+01  -1.06653852E+01   6.27736759E+00
             3263                1   4.34629097E+01   4.54788361E+01   4.54788361E+01   2.07162571E+00   1.96043634E+00   4.54788361E+01   4.54788361E+01   2.07162571E+00   1.96043634E+00   4.35183983E+01  -1.65036335E+01   4.34625893E+01   3.49473476E+00   4.40557251E+01   1.96043634E+00   7.72968245E+00
             3263                2   4.37793846E+01   4.56898308E+01   4.56898308E+01   1.86062860E+00   1.96043634E+00   4.56898308E+01   4.56898308E+01   1.96043634E+00   1.86062860E+00   4.38292046E+01  -1.65036335E+01   4.37791290E+01   3.32941914E+00   4.42210426E+01   1.96043634E+00   7.88787270E+00
             3263                3   4.33320503E+01   4.53914375E+01   4.53914375E+01   2.15902352E+00   1.96043634E+00   4.53914375E+01   4.53914375E+01   2.15902352E+00   1.96043634E+00   4.34309998E+01  -1.65036335E+01   4.33310242E+01   3.65289950E+00   4.38975601E+01   1.96043634E+00   7.89634418E+00
             3263                4   4.36500244E+01   4.56036453E+01   4.56036453E+01   1.94681406E+00   1.96043634E+00   4.56036453E+01   4.56036453E+01   1.96043634E+00   1.94681406E+00   4.36568336E+01  -1.65036335E+01   4.36500168E+01   3.48671246E+00   4.40637474E+01   1.96043634E+00   8.05331230E+00
             3264                1   3.36673279E+01   4.19710579E+01   4.19710579E+01   8.07250881E+00   8.53982162E+00   4.19710579E+01   4.19710579E+01   8.53982162E+00   8.07250881E+00   3.38985519E+01  -1.95277958E+01   3.36600266E+01   9.35393906E+00   4.06896286E+01   8.53982162E+00   6.46502638E+00
             3264                2   3.36821747E+01   4.19808922E+01   4.19808922E+01   8.06267738E+00   8.53982162E+00   4.19808922E+01   4.19808922E+01   8.53982162E+00   8.06267738E+00   3.39182129E+01  -1.95277958E+01   3.36745720E+01   9.25484085E+00   4.07887268E+01   8.53982162E+00   6.24618387E+00
             3264                3   3.40322762E+01   4.22122917E+01   4.22122917E+01   7.83127356E+00   8.53982162E+00   4.22122917E+01   4.22122917E+01   8.53982162E+00   7.83127356E+00   3.43810158E+01  -1.95277958E+01   3.40156746E+01   9.13524818E+00   4.09083176E+01   8.53982162E+00   6.56746435E+00
             3264                4   3.40468063E+01   4.22218819E+01   4.22218819E+01   7.82168961E+00   8.53982162E+00   4.22218819E+01   4.22218819E+01   8.53982162E+00   7.82168961E+00   3.44001923E+01  -1.95277977E+01   3.40297585E+01   9.03621101E+00   4.10073586E+01   8.53982162E+00   6.34860134E+00
             3265                1   3.53188667E+01   3.96190224E+01   3.96190224E+01   3.50078678E+00   5.15785313E+00   3.96190224E+01   3.96190224E+01   5.15785313E+00   3.50078678E+00   3.61182327E+01  -1.60925541E+01   3.52312469E+01   5.84786129E+00   3.72719460E+01   5.15785313E+00   8.90300274E+00
             3265                2   3.55364189E+01   3.97607231E+01   3.97607231E+01   3.35908055E+00   5.15785313E+00   3.97607231E+01   3.97607231E+01   5.15785313E+00   3.35908055E+00   3.64016418E+01  -1.60925522E+01   3.54337769E+01   5.68770790E+00   3.74320984E+01   5.15785313E+00   8.90748692E+00
             3265                3   3.54327354E+01   3.96932182E+01   3.96932182E+01   3.42658639E+00   5.15785313E+00   3.96932182E+01   3.96932182E+01   5.15785313E+00   3.42658639E+00   3.62666321E+01  -1.60925522E+01   3.53373833E+01   5.85233688E+00   3.72674675E+01   5.15785313E+00   9.06032753E+00
             3265                4   3.56489487E+01   3.98339310E+01   3.98339310E+01   3.28587389E+00   5.15785313E+00   3.98339310E+01   3.98339310E+01   5.15785313E+00   3.28587389E+00   3.65480576E+01  -1.60925522E+01   3.55381126E+01   5.69254684E+00   3.74272575E+01   5.15785313E+00   9.06460953E+00
             3266                1   2.99692078E+01   3.92753906E+01   3.92753906E+01   8.35786343E+00   1.03543377E+01   3.92753906E+01   3.92753906E+01   1.03543377E+01   8.35786343E+00   3.09175282E+01  -1.93291988E+01   2.98190346E+01   1.09946079E+01   3.66386452E+01   1.03543377E+01   8.63534737E+00
             3266                2   2.96490135E+01   3.90681915E+01   3.90681915E+01   8.56506252E+00   1.03543377E+01   3.90681915E+01   3.90681915E+01   1.03543377E+01   8.56506252E+00   3.05031300E+01  -1.93291988E+01   2.95271702E+01   1.11958990E+01   3.64373550E+01   1.03543377E+01   8.56314659E+00
             3266                3   2.98896275E+01   3.92239456E+01   3.92239456E+01   8.40930748E+00   1.03543377E+01   3.92239456E+01   3.92239456E+01   1.03543377E+01   8.40930748E+00   3.08146400E+01  -1.93291988E+01   2.97467384E+01   1.09235449E+01   3.67097092E+01   1.03543377E+01   8.43527985E+00
             3266                4   2.95686569E+01   3.90161057E+01   3.90161057E+01   8.61715126E+00   1.03543377E+01   3.90161057E+01   3.90161057E+01   1.03543377E+01   8.61715126E+00   3.03989525E+01  -1.93291988E+01   2.94535141E+01   1.11249361E+01   3.65083199E+01   1.03543377E+01   8.36331463E+00
             3267                1   3.04044781E+01   4.18351250E+01   4.18351250E+01   1.13838615E+01   1.14776487E+01   4.18351250E+01   4.18351250E+01   1.14776487E+01   1.13838615E+01   3.04512634E+01  -2.15655441E+01   3.04041557E+01   1.17625885E+01   4.14563980E+01   1.14776487E+01   3.37479973E+00
             3267                2   3.04015179E+01   4.18331528E+01   4.18331528E+01   1.13858328E+01   1.14776487E+01   4.18331528E+01   4.18331528E+01   1.14776487E+01   1.13858328E+01   3.04473209E+01  -2.15655441E+01   3.04012089E+01   1.17091217E+01   4.15098648E+01   1.14776487E+01   3.12070012E+00
             3267                3   3.08067093E+01   4.21022949E+01   4.21022949E+01   1.11166925E+01   1.14776487E+01   4.21022949E+01   4.21022949E+01   1.14776487E+01   1.11166925E+01   3.09856014E+01  -2.15655441E+01   3.08019562E+01   1.15008907E+01   4.17180977E+01   1.14776487E+01   3.42884326E+00
             3267                4   3.08028927E+01   4.20997658E+01   4.20997658E+01   1.11192217E+01   1.14776487E+01   4.20997658E+01   4.20997658E+01   1.14776487E+01   1.11192217E+01   3.09805431E+01  -2.15655441E+01   3.07982044E+01   1.14474907E+01   4.17714958E+01   1.14776487E+01   3.17209435E+00
             3268                1   7.93146515E+01   7.31993332E+01   7.31993332E+01  -5.71441031E+00  -6.51024246E+00   7.31993332E+01   7.31993332E+01  -5.71441031E+00  -6.51024246E+00   7.97095795E+01  -2.03248940E+01   7.93056717E+01  -4.04612494E+00   7.15310516E+01  -6.51024246E+00   1.13519726E+01
             3268                2   7.98291245E+01   7.35436707E+01   7.35436707E+01  -6.05874252E+00  -6.51024246E+00   7.35436707E+01   7.35436707E+01  -6.05874252E+00  -6.51024246E+00   8.00539169E+01  -2.03248959E+01   7.98262482E+01  -4.43808174E+00   7.19230118E+01  -6.51024246E+00   1.12419796E+01
             3268                3   7.96347733E+01   7.34136887E+01   7.34136887E+01  -5.92875481E+00  -6.51024246E+00   7.34136887E+01   7.34136887E+01  -5.92875481E+00  -6.51024246E+00   7.99239273E+01  -2.03248959E+01   7.96299973E+01  -4.14970303E+00   7.16346359E+01  -6.51024246E+00   1.17468805E+01
             3268                4   8.01465988E+01   7.37557831E+01   7.37557831E+01  -6.27085304E+00  -6.51024246E+00   7.37557831E+01   7.37557831E+01  -6.27085304E+00  -6.51024246E+00   8.02660294E+01  -2.03248959E+01   8.01457977E+01  -4.54159021E+00   7.20265198E+01  -6.51024246E+00   1.16360178E+01
             3269                1   2.10891861E+02   2.23721222E+02   2.23721222E+02  -1.83118689E+00   3.14468250E+01   2.23721222E+02   2.23721222E+02   3.14468250E+01  -1.83118689E+00   2.25552399E+02  -8.44456177E+01   2.04859589E+02  -1.82603478E+00   2.23716064E+02   3.14468250E+01   1.07800710E+00
             3269                2   2.11327194E+02   2.23913040E+02   2.23913040E+02  -2.55146241E+00   3.19752789E+01   2.23913040E+02   2.23913040E+02   3.19752789E+01  -2.55146241E+00   2.26464493E+02  -8.44456177E+01   2.04836975E+02  -2.52191257E+00   2.23883484E+02   3.19752789E+01  -2.58676100E+00
             3269                3   2.11775314E+02   2.24082489E+02   2.24082489E+02  -3.42145729E+00   3.26758270E+01   2.24082489E+02   2.24082489E+02   3.26758270E+01  -3.42145729E+00   2.27503937E+02  -8.44456177E+01   2.04681610E+02  -3.38945031E+00   2.24050476E+02   3.26758270E+01   2.69828272E+00
             3269                4   2.12193085E+02   2.24261154E+02   2.24261154E+02  -4.09943867E+00   3.31751442E+01   2.24261154E+02   2.24261154E+02   3.31751442E+01  -4.09943867E+00   2.28360596E+02  -8.44456177E+01   2.04632034E+02  -4.09506226E+00   2.24256775E+02   3.31751442E+01  -9.99703407E-01
             3270                1   4.33947678E+01   3.68310089E+01   3.68310089E+01  -3.16388822E+00  -9.30858707E+00   3.68310089E+01   3.68310089E+01  -3.16388822E+00  -9.30858707E+00   4.61395988E+01  -8.11951160E+00   4.23994141E+01   3.52558076E-01   3.33145638E+01  -9.30858707E+00   1.13258343E+01
             3270                2   4.37170067E+01   3.70636139E+01   3.70636139E+01  -3.39649010E+00  -9.30858707E+00   3.70636139E+01   3.70636139E+01  -3.39649010E+00  -9.30858707E+00   4.63722000E+01  -8.11951160E+00   4.28037529E+01   4.51566368E-01   3.32155571E+01  -9.30858707E+00   1.18695059E+01
             3270                3   4.26682739E+01   3.63029366E+01   3.63029366E+01  -2.63581347E+00  -9.30858707E+00   3.63029366E+01   3.63029366E+01  -2.63581347E+00  -9.30858707E+00   4.56115227E+01  -8.11951160E+00   4.14699669E+01   9.09538209E-01   3.27575836E+01  -9.30858707E+00   1.12018766E+01
             3270                4   4.29949570E+01   3.65410385E+01   3.65410385E+01  -2.87391853E+00  -9.30858707E+00   3.65410385E+01   3.65410385E+01  -2.87391853E+00  -9.30858707E+00   4.58496284E+01  -8.11951160E+00   4.18910751E+01   1.00364089E+00   3.26634827E+01  -9.30858707E+00   1.17387543E+01
             3271                1   2.80269833E+01   4.01944695E+01   4.01944695E+01   1.18800545E+01   1.24640446E+01   4.01944695E+01   4.01944695E+01   1.24640446E+01   1.18800545E+01   2.83144150E+01  -2.15128555E+01   2.80132904E+01   1.27878532E+01   3.92866707E+01   1.24640446E+01   4.98795414E+00
             3271                2   2.84146957E+01   4.04497871E+01   4.04497871E+01   1.16247368E+01   1.24640446E+01   4.04497871E+01   4.04497871E+01   1.24640446E+01   1.16247368E+01   2.88250504E+01  -2.15128555E+01   2.83867874E+01   1.25414658E+01   3.95330582E+01   1.24640446E+01   5.05809975E+00
             3271                3   2.80616989E+01   4.02173729E+01   4.02173729E+01   1.18571501E+01   1.24640446E+01   4.02173729E+01   4.02173729E+01   1.24640446E+01   1.18571501E+01   2.83602238E+01  -2.15128555E+01   2.80469284E+01   1.28579178E+01   3.92166061E+01   1.24640446E+01   5.23263311E+00
             3271                4   2.84489994E+01   4.04723282E+01   4.04723282E+01   1.16021967E+01   1.24640446E+01   4.04723282E+01   4.04723282E+01   1.24640446E+01   1.16021967E+01   2.88701305E+01  -2.15128555E+01   2.84196091E+01   1.26115742E+01   3.94629517E+01   1.24640446E+01   5.30301762E+00
             3272                1   4.48089294E+01   3.93756790E+01   3.93756790E+01  -3.01803255E+00  -7.51008368E+00   3.93756790E+01   3.93756790E+01  -3.01803255E+00  -7.51008368E+00   4.68857651E+01  -9.61585426E+00   4.42981071E+01  -2.98539311E-01   3.66561852E+01  -7.51008368E+00   1.03871946E+01
             3272                2   4.42229462E+01   3.89614220E+01   3.89614220E+01  -2.60377455E+00  -7.51008368E+00   3.89614220E+01   3.89614220E+01  -2.60377455E+00  -7.51008368E+00   4.64715042E+01  -9.61585426E+00   4.36043243E+01   1.53254226E-01   3.62043915E+01  -7.51008368E+00   1.03438520E+01
             3272                3   4.45626678E+01   3.92019157E+01   3.92019157E+01  -2.84427166E+00  -7.51008368E+00   3.92019157E+01   3.92019157E+01  -2.84427166E+00  -7.51008368E+00   4.67119980E+01  -9.61585331E+00   4.40080948E+01  -3.47656488E-01   3.67052994E+01  -7.51008368E+00   9.93680382E+00
             3272                4   4.39743080E+01   3.87848053E+01   3.87848053E+01  -2.42716360E+00  -7.51008368E+00   3.87848053E+01   3.87848053E+01  -2.42716360E+00  -7.51008368E+00   4.62948914E+01  -9.61585331E+00   4.33060036E+01   1.04520611E-01   3.62531242E+01  -7.51008368E+00   9.89576721E+00
             3273                1   3.45149231E+01   4.04722443E+01   4.04722443E+01   5.23229313E+00   6.73118305E+00   4.04722443E+01   4.04722443E+01   6.73118305E+00   5.23229313E+00   3.52399483E+01  -1.74785728E+01   3.44415817E+01   7.69705105E+00   3.80074844E+01   6.73118305E+00   8.98793316E+00
             3273                2   3.42099686E+01   4.02728729E+01   4.02728729E+01   5.43166304E+00   6.73118305E+00   4.02728729E+01   4.02728729E+01   6.73118305E+00   5.43166304E+00   3.48412094E+01  -1.74785728E+01   3.41543655E+01   7.88743877E+00   3.78170967E+01   6.73118305E+00   8.91803741E+00
             3273                3   3.44568443E+01   4.04343109E+01   4.04343109E+01   5.27022219E+00   6.73118305E+00   4.04343109E+01   4.04343109E+01   6.73118305E+00   5.27022219E+00   3.51640892E+01  -1.74785709E+01   3.43870583E+01   7.63044405E+00   3.80740891E+01   6.73118305E+00   8.79911327E+00
             3273                4   3.41514664E+01   4.02345695E+01   4.02345695E+01   5.46996498E+00   6.73118305E+00   4.02345695E+01   4.02345695E+01   6.73118305E+00   5.46996498E+00   3.47646065E+01  -1.74785728E+01   3.40990105E+01   7.82099724E+00   3.78835373E+01   6.73118305E+00   8.72956944E+00
             3274                1   2.07569458E+02   2.19968430E+02   2.19968430E+02  -9.62952375E-01   2.90224895E+01   2.19968430E+02   2.19968430E+02   2.90224895E+01  -9.62952375E-01   2.20931381E+02  -8.26759872E+01   2.02610672E+02  -9.33475971E-01   2.19938950E+02   2.90224895E+01   2.55193019E+00
             3274                2   2.08272491E+02   2.20283325E+02   2.20283325E+02  -2.16853237E+00   2.99131660E+01   2.20283325E+02   2.20283325E+02   2.99131660E+01  -2.16853237E+00   2.22451859E+02  -8.26759872E+01   2.02601379E+02  -2.15135241E+00   2.20266144E+02   2.99131660E+01  -1.95486867E+00
             3274                3   2.08611572E+02   2.20405228E+02   2.20405228E+02  -2.89949656E+00   3.05222340E+01   2.20405228E+02   2.20405228E+02   3.05222340E+01  -2.89949656E+00   2.23304733E+02  -8.26759872E+01   2.02456451E+02  -2.78868771E+00   2.20294418E+02   3.05222340E+01   4.97326183E+00
             3274                4   2.09264404E+02   2.20683014E+02   2.20683014E+02  -4.01203012E+00   3.13569679E+01   2.20683014E+02   2.20683014E+02   3.13569679E+01  -4.01203012E+00   2.24695053E+02  -8.26759872E+01   2.02375290E+02  -4.01128864E+00   2.20682281E+02   3.13569679E+01   4.07341689E-01
             3275                1   2.72016335E+01   2.03779125E+01   2.03779125E+01  -2.61936098E-01  -1.04463129E+01   2.03779125E+01   2.03779125E+01  -2.61936098E-01  -1.04463129E+01   3.08242245E+01  -3.22322106E+00   2.22620029E+01   9.06253576E-01   1.92097225E+01  -1.04463129E+01   4.76933908E+00
             3275                2   2.76940327E+01   2.08055935E+01   2.08055935E+01  -6.89617813E-01  -1.04463129E+01   2.08055935E+01   2.08055935E+01  -6.89617813E-01  -1.04463129E+01   3.12519073E+01  -3.22322106E+00   2.33284378E+01   4.81932908E-01   1.96340427E+01  -1.04463129E+01   4.87957096E+00
             3275                3   2.73123665E+01   2.04749470E+01   2.04749470E+01  -3.58969748E-01  -1.04463129E+01   2.04749470E+01   2.04749470E+01  -3.58969748E-01  -1.04463129E+01   3.09212589E+01  -3.22322106E+00   2.25090027E+01   1.02748418E+00   1.90884914E+01  -1.04463129E+01   5.19259310E+00
             3275                4   2.78024540E+01   2.08985004E+01   2.08985004E+01  -7.82523632E-01  -1.04463129E+01   2.08985004E+01   2.08985004E+01  -7.82523632E-01  -1.04463129E+01   3.13448124E+01  -3.22322106E+00   2.35529690E+01   6.03305221E-01   1.95126705E+01  -1.04463129E+01   5.30336475E+00
             3276                1   4.87121582E+01   4.21361771E+01   4.21361771E+01  -3.50495100E+00  -9.15437317E+00   4.21361771E+01   4.21361771E+01  -3.50495100E+00  -9.15437317E+00   5.12905502E+01  -9.82561779E+00   4.79668236E+01   8.21393549E-01   3.78098335E+01  -9.15437317E+00   1.33694401E+01
             3276                2   4.94411011E+01   4.26528664E+01   4.26528664E+01  -4.02164173E+00  -9.15437317E+00   4.26528664E+01   4.26528664E+01  -4.02164173E+00  -9.15437317E+00   5.18072395E+01  -9.82561779E+00   4.88362923E+01   1.88221425E-01   3.84430046E+01  -9.15437317E+00   1.33705025E+01
             3276                3   4.91431923E+01   4.24421730E+01   4.24421730E+01  -3.81094766E+00  -9.15437317E+00   4.24421730E+01   4.24421730E+01  -3.81094766E+00  -9.15437317E+00   5.15965462E+01  -9.82561779E+00   4.84831657E+01   8.98862660E-01   3.77323647E+01  -9.15437317E+00   1.39878893E+01
             3276                4   4.98510666E+01   4.29417915E+01   4.29417915E+01  -4.31056213E+00  -9.15437317E+00   4.29417915E+01   4.29417915E+01  -4.31056213E+00  -9.15437317E+00   5.20961647E+01  -9.82561874E+00   4.93174553E+01   2.62954056E-01   3.83682747E+01  -9.15437317E+00   1.39711266E+01
             3277                1   3.00874748E+01   3.90139122E+01   3.90139122E+01   7.80048370E+00   1.01955566E+01   3.90139122E+01   3.90139122E+01   1.01955566E+01   7.80048370E+00   3.12134285E+01  -1.90033169E+01   2.98718681E+01   1.08182898E+01   3.59961052E+01   1.01955566E+01   9.22436714E+00
             3277                2   2.97856102E+01   3.88196945E+01   3.88196945E+01   7.99470234E+00   1.01955566E+01   3.88196945E+01   3.88196945E+01   1.01955566E+01   7.99470234E+00   3.08249912E+01  -1.90033169E+01   2.96018410E+01   1.10206060E+01   3.57937889E+01   1.01955566E+01   9.17155266E+00
             3277                3   2.99693737E+01   3.89379845E+01   3.89379845E+01   7.87641239E+00   1.01955566E+01   3.89379845E+01   3.89379845E+01   1.01955566E+01   7.87641239E+00   3.10615711E+01  -1.90033169E+01   2.97664833E+01   1.07665167E+01   3.60478783E+01   1.01955566E+01   9.02322006E+00
             3277                4   2.96662903E+01   3.87427902E+01   3.87427902E+01   8.07160187E+00   1.01955566E+01   3.87427902E+01   3.87427902E+01   1.01955566E+01   8.07160187E+00   3.06711884E+01  -1.90033169E+01   2.94945011E+01   1.09688320E+01   3.58455620E+01   1.01955566E+01   8.97036934E+00
             3278                1   7.59102325E+01   6.96922913E+01   6.96922913E+01  -5.72118092E+00  -6.70514584E+00   6.96922913E+01   6.96922913E+01  -5.72118092E+00  -6.70514584E+00   7.63974380E+01  -1.90886555E+01   7.58958893E+01  -3.86974740E+00   6.78408585E+01  -6.70514584E+00   1.16702662E+01
             3278                2   7.64409790E+01   7.00480194E+01   7.00480194E+01  -6.07690430E+00  -6.70514584E+00   7.00480194E+01   7.00480194E+01  -6.07690430E+00  -6.70514584E+00   7.67531662E+01  -1.90886555E+01   7.64351730E+01  -4.27812815E+00   6.82492447E+01  -6.70514584E+00   1.15626993E+01
             3278                3   7.62457886E+01   6.99172974E+01   6.99172974E+01  -5.94617939E+00  -6.70514584E+00   6.99172974E+01   6.99172974E+01  -5.94617939E+00  -6.70514584E+00   7.66224442E+01  -1.90886555E+01   7.62372894E+01  -3.97131324E+00   6.79424286E+01  -6.70514584E+00   1.20797396E+01
             3278                4   7.67741852E+01   7.02709122E+01   7.02709122E+01  -6.29979849E+00  -6.70514584E+00   7.02709122E+01   7.02709122E+01  -6.29979849E+00  -6.70514584E+00   7.69760590E+01  -1.90886555E+01   7.67717819E+01  -4.37979031E+00   6.83509064E+01  -6.70514584E+00   1.19720459E+01
             3279                1   2.64935112E+01   3.80845604E+01   3.80845604E+01   1.05024586E+01   1.28337116E+01   3.80845604E+01   3.80845604E+01   1.28337116E+01   1.05024586E+01   2.75820999E+01  -2.04735775E+01   2.62612629E+01   1.33136034E+01   3.52734146E+01   1.28337116E+01   8.34474277E+00
             3279                2   2.63934135E+01   3.80204353E+01   3.80204353E+01   1.05665836E+01   1.28337116E+01   3.80204353E+01   3.80204353E+01   1.28337116E+01   1.05665836E+01   2.74538498E+01  -2.04735775E+01   2.61730003E+01   1.32476015E+01   3.53394165E+01   1.28337116E+01   8.14962482E+00
             3279                3   2.67997036E+01   3.82803726E+01   3.82803726E+01   1.03066435E+01   1.28337116E+01   3.82803726E+01   3.82803726E+01   1.28337116E+01   1.03066435E+01   2.79737301E+01  -2.04735775E+01   2.65296631E+01   1.31182947E+01   3.54687233E+01   1.28337116E+01   8.41112232E+00
             3279                4   2.67007599E+01   3.82171555E+01   3.82171555E+01   1.03698654E+01   1.28337116E+01   3.82171555E+01   3.82171555E+01   1.28337116E+01   1.03698654E+01   2.78472900E+01  -2.04735775E+01   2.64431915E+01   1.30523014E+01   3.55347176E+01   1.28337116E+01   8.21602821E+00
             3280                1   4.52332611E+01   4.63274307E+01   4.63274307E+01   1.16604602E+00   1.02263701E+00   4.63274307E+01   4.63274307E+01   1.16604602E+00   1.02263701E+00   4.53047943E+01  -1.61720371E+01   4.52327461E+01   2.70426750E+00   4.47892075E+01   1.02263701E+00   8.19159126E+00
             3280                2   4.49155388E+01   4.61150246E+01   4.61150246E+01   1.37844813E+00   1.02263701E+00   4.61150246E+01   4.61150246E+01   1.37844813E+00   1.02263701E+00   4.50923882E+01  -1.61720371E+01   4.49123688E+01   2.86620402E+00   4.46272697E+01   1.02263701E+00   8.02145004E+00
             3280                3   4.53911476E+01   4.64327927E+01   4.64327927E+01   1.06068254E+00   1.02263701E+00   4.64327927E+01   4.64327927E+01   1.06068254E+00   1.02263701E+00   4.54101562E+01  -1.61720371E+01   4.53911095E+01   2.53024650E+00   4.49632301E+01   1.02263701E+00   8.03228569E+00
             3280                4   4.50748444E+01   4.62215881E+01   4.62215881E+01   1.27188468E+00   1.02263701E+00   4.62215881E+01   4.62215881E+01   1.27188468E+00   1.02263701E+00   4.51989517E+01  -1.61720371E+01   4.50732956E+01   2.69168115E+00   4.48017921E+01   1.02263701E+00   7.86152649E+00
             3281                1   3.31077538E+01   2.67496548E+01   2.67496548E+01  -1.52119410E+00  -9.67237282E+00   2.67496548E+01   2.67496548E+01  -1.52119410E+00  -9.67237282E+00   3.64220276E+01  -5.18536234E+00   3.07260723E+01   6.03977263E-01   2.46244831E+01  -9.67237282E+00   7.45412922E+00
             3281                2   3.25539284E+01   2.63141747E+01   2.63141747E+01  -1.08571696E+00  -9.67237282E+00   2.63141747E+01   2.63141747E+01  -1.08571696E+00  -9.67237282E+00   3.59865494E+01  -5.18536186E+00   2.98424568E+01   1.05823970E+00   2.41702194E+01  -9.67237282E+00   7.35850620E+00
             3281                3   3.29317741E+01   2.66119576E+01   2.66119576E+01  -1.38349938E+00  -9.67237282E+00   2.66119576E+01   2.66119576E+01  -1.38349938E+00  -9.67237282E+00   3.62843323E+01  -5.18536186E+00   3.04492474E+01   4.93456602E-01   2.47350025E+01  -9.67237282E+00   7.00166130E+00
             3281                4   3.23740997E+01   2.61713886E+01   2.61713886E+01  -9.42928255E-01  -9.67237282E+00   2.61713886E+01   2.61713886E+01  -9.42928255E-01  -9.67237282E+00   3.58437614E+01  -5.18536234E+00   2.95473576E+01   9.47282314E-01   2.42811775E+01  -9.67237282E+00   6.90498972E+00
             3282                1   4.08855705E+01   4.49468842E+01   4.49468842E+01   4.01954794E+00   4.10320616E+00   4.49468842E+01   4.49468842E+01   4.10320616E+00   4.01954794E+00   4.09273338E+01  -1.76898785E+01   4.08853798E+01   5.21721458E+00   4.37492180E+01   4.10320616E+00   6.89803076E+00
             3282                2   4.12291985E+01   4.51754189E+01   4.51754189E+01   3.79101372E+00   4.10320616E+00   4.51754189E+01   4.51754189E+01   4.10320616E+00   3.79101372E+00   4.13844070E+01  -1.76898804E+01   4.12265358E+01   5.02223873E+00   4.39441948E+01   4.10320616E+00   7.03119040E+00
             3282                3   4.08016586E+01   4.48909798E+01   4.48909798E+01   4.07544994E+00   4.10320616E+00   4.48909798E+01   4.48909798E+01   4.10320616E+00   4.07544994E+00   4.08155289E+01  -1.76898785E+01   4.08016396E+01   5.34716797E+00   4.36192627E+01   4.10320616E+00   7.09144354E+00
             3282                4   4.11456261E+01   4.51198959E+01   4.51198959E+01   3.84653449E+00   4.10320616E+00   4.51198959E+01   4.51198959E+01   4.10320616E+00   3.84653449E+00   4.12733612E+01  -1.76898785E+01   4.11438255E+01   5.15261221E+00   4.38138199E+01   4.10320616E+00   7.22497892E+00
             3283                1   3.35142517E+01   4.12826195E+01   4.12826195E+01   7.26676130E+00   8.29357147E+00   4.12826195E+01   4.12826195E+01   8.29357147E+00   7.26676130E+00   3.40158577E+01  -1.89476509E+01   3.34788322E+01   9.08933926E+00   3.94600410E+01   8.29357147E+00   7.65994692E+00
             3283                2   3.31645889E+01   4.10525894E+01   4.10525894E+01   7.49678993E+00   8.29357147E+00   4.10525894E+01   4.10525894E+01   8.29357147E+00   7.49678993E+00   3.35558014E+01  -1.89476509E+01   3.31430435E+01   9.29638672E+00   3.92529945E+01   8.29357147E+00   7.55965328E+00
             3283                3   3.35087814E+01   4.12790260E+01   4.12790260E+01   7.27035618E+00   8.29357147E+00   4.12790260E+01   4.12790260E+01   8.29357147E+00   7.27035618E+00   3.40086708E+01  -1.89476509E+01   3.34736023E+01   8.99086285E+00   3.95585175E+01   8.29357147E+00   7.45332336E+00
             3283                4   3.31589813E+01   4.10488968E+01   4.10488968E+01   7.50048542E+00   8.29357147E+00   4.10488968E+01   4.10488968E+01   8.29357147E+00   7.50048542E+00   3.35484123E+01  -1.89476509E+01   3.31376305E+01   9.19804764E+00   3.93513336E+01   8.29357147E+00   7.35314894E+00
             3284                1   3.47228813E+01   4.10176506E+01   4.10176506E+01   5.71149969E+00   6.90901661E+00   4.10176506E+01   4.10176506E+01   6.90901661E+00   5.71149969E+00   3.53061485E+01  -1.78793888E+01   3.46763763E+01   7.92022610E+00   3.88089218E+01   6.90901661E+00   8.55004025E+00
             3284                2   3.43971443E+01   4.08037834E+01   4.08037834E+01   5.92536211E+00   6.90901661E+00   4.08037834E+01   4.08037834E+01   6.90901661E+00   5.92536211E+00   3.48784218E+01  -1.78793869E+01   3.43654785E+01   8.11539078E+00   3.86137543E+01   6.90901661E+00   8.46099949E+00
             3284                3   3.47009201E+01   4.10032463E+01   4.10032463E+01   5.72589779E+00   6.90901661E+00   4.10032463E+01   4.10032463E+01   6.90901661E+00   5.72589779E+00   3.52773514E+01  -1.78793869E+01   3.46554985E+01   7.83110332E+00   3.88980408E+01   6.90901661E+00   8.35668659E+00
             3284                4   3.43745613E+01   4.07889328E+01   4.07889328E+01   5.94021082E+00   6.90901661E+00   4.07889328E+01   4.07889328E+01   6.90901661E+00   5.94021082E+00   3.48487244E+01  -1.78793869E+01   3.43438225E+01   8.02591705E+00   3.87032280E+01   6.90901661E+00   8.26643944E+00
             3285                1   2.86146393E+01   3.83740959E+01   3.83740959E+01   8.43026257E+00   1.13057890E+01   3.83740959E+01   3.83740959E+01   1.13057890E+01   8.43026257E+00   2.99438343E+01  -1.93700504E+01   2.82868404E+01   1.17267008E+01   3.50776596E+01   1.13057890E+01   9.37237835E+00
             3285                2   2.87663326E+01   3.84706802E+01   3.84706802E+01   8.33367825E+00   1.13057890E+01   3.84706802E+01   3.84706802E+01   1.13057890E+01   8.33367825E+00   3.01370029E+01  -1.93700504E+01   2.84178219E+01   1.17637272E+01   3.50406342E+01   1.13057890E+01   9.57110882E+00
             3285                3   2.83343067E+01   3.81953125E+01   3.81953125E+01   8.60904694E+00   1.13057890E+01   3.81953125E+01   3.81953125E+01   1.13057890E+01   8.60904694E+00   2.95862656E+01  -1.93700504E+01   2.80434036E+01   1.19258213E+01   3.48785400E+01   1.13057890E+01   9.33434200E+00
             3285                4   2.84875145E+01   3.82930717E+01   3.82930717E+01   8.51128960E+00   1.13057890E+01   3.82930717E+01   3.82930717E+01   1.13057890E+01   8.51128960E+00   2.97817802E+01  -1.93700504E+01   2.81766720E+01   1.19628239E+01   3.48415375E+01   1.13057890E+01   9.53308582E+00
             3286                1   9.47207870E+01   1.00180519E+02   1.00180519E+02   4.38135815E+00   6.57624817E+00   1.00180519E+02   1.00180519E+02   6.57624817E+00   4.38135815E+00   9.57991562E+01  -3.70460396E+01   9.46635437E+01   1.93692837E+01   8.51925888E+01   6.57624817E+00   3.48021965E+01
             3286                2   9.35044174E+01   9.93771439E+01   9.93771439E+01   5.18472958E+00   6.57624817E+00   9.93771439E+01   9.93771439E+01   6.57624817E+00   5.18472958E+00   9.41924133E+01  -3.70460396E+01   9.34811249E+01   1.90586510E+01   8.55032272E+01   6.57624817E+00   3.33816147E+01
             3286                3   9.64076080E+01   1.01289467E+02   1.01289467E+02   3.27240539E+00   6.57624817E+00   1.01289467E+02   1.01289467E+02   6.57624817E+00   3.27240539E+00   9.80170670E+01  -3.70460396E+01   9.62801132E+01   1.84919624E+01   8.60699158E+01   6.57624817E+00   3.54984665E+01
             3286                4   9.51551514E+01   1.00466637E+02   1.00466637E+02   4.09523916E+00   6.57624817E+00   1.00466637E+02   1.00466637E+02   6.57624817E+00   4.09523916E+00   9.63713989E+01  -3.70460396E+01   9.50823364E+01   1.80424805E+01   8.65193939E+01   6.57624817E+00   3.39055977E+01
             3287                1   3.44177742E+01   4.28276749E+01   4.28276749E+01   8.13538456E+00   8.69114304E+00   4.28276749E+01   4.28276749E+01   8.69114304E+00   8.13538456E+00   3.46922913E+01  -1.98847332E+01   3.44076767E+01   9.03895950E+00   4.19240990E+01   8.69114304E+00   5.52545404E+00
             3287                2   3.43967133E+01   4.28137398E+01   4.28137398E+01   8.14931774E+00   8.69114304E+00   4.28137398E+01   4.28137398E+01   8.69114304E+00   8.14931774E+00   3.46644249E+01  -1.98847332E+01   3.43871078E+01   9.13164902E+00   4.18314095E+01   8.69114304E+00   5.75212812E+00
             3287                3   3.40456161E+01   4.25811119E+01   4.25811119E+01   8.38194847E+00   8.69114304E+00   4.25811119E+01   4.25811119E+01   8.69114304E+00   8.38194847E+00   3.41991615E+01  -1.98847332E+01   3.40424576E+01   9.26673126E+00   4.16963272E+01   8.69114304E+00   5.42918062E+00
             3287                4   3.40241241E+01   4.25668449E+01   4.25668449E+01   8.39621353E+00   8.69114304E+00   4.25668449E+01   4.25668449E+01   8.69114304E+00   8.39621353E+00   3.41706314E+01  -1.98847332E+01   3.40212479E+01   9.35945129E+00   4.16036072E+01   8.69114304E+00   5.65567112E+00
             3288                1   1.19366516E+02   1.31859634E+02   1.31859634E+02   6.54312325E+00   1.95003166E+01   1.31859634E+02   1.31859634E+02   1.95003166E+01   6.54312325E+00   1.25316513E+02  -5.26343575E+01   1.17768745E+02   4.00894508E+01   9.83133011E+01   1.95003166E+01   5.54847069E+01
             3288                2   1.22339561E+02   1.33742767E+02   1.33742767E+02   4.65998888E+00   1.95003166E+01   1.33742767E+02   1.33742767E+02   1.95003166E+01   4.65998888E+00   1.29082779E+02  -5.26343575E+01   1.20289505E+02   4.01356239E+01   9.82671280E+01   1.95003166E+01   5.76261482E+01
             3288                3   1.17875183E+02   1.30911346E+02   1.30911346E+02   7.49139452E+00   1.95003166E+01   1.30911346E+02   1.30911346E+02   1.95003166E+01   7.49139452E+00   1.23419952E+02  -5.26343536E+01   1.16486992E+02   4.23198662E+01   9.60828781E+01   1.95003166E+01   5.55473289E+01
             3288                4   1.20910187E+02   1.32838562E+02   1.32838562E+02   5.56417370E+00   1.95003166E+01   1.32838562E+02   1.32838562E+02   1.95003166E+01   5.56417370E+00   1.27274391E+02  -5.26343536E+01   1.19083176E+02   4.24323273E+01   9.59704208E+01   1.95003166E+01   5.77331009E+01
             3289                1   3.15655518E+01   3.90745850E+01   3.90745850E+01   6.33605385E+00   8.82996655E+00   3.90745850E+01   3.90745850E+01   8.82996655E+00   6.33605385E+00   3.27385330E+01  -1.80802021E+01   3.13427486E+01   9.48262024E+00   3.59280205E+01   8.82996655E+00   9.64951229E+00
             3289                2   3.18417206E+01   3.92519188E+01   3.92519188E+01   6.15872240E+00   8.82996655E+00   3.92519188E+01   3.92519188E+01   8.82996655E+00   6.15872240E+00   3.30931969E+01  -1.80802021E+01   3.15881538E+01   9.26436520E+00   3.61462746E+01   8.82996655E+00   9.65042210E+00
             3289                3   3.17650318E+01   3.92027130E+01   3.92027130E+01   6.20792818E+00   8.82996655E+00   3.92027130E+01   3.92027130E+01   8.82996655E+00   6.20792818E+00   3.29947853E+01  -1.80802021E+01   3.15201778E+01   9.48150253E+00   3.59291382E+01   8.82996655E+00   9.86380196E+00
             3289                4   3.20400810E+01   3.93790665E+01   3.93790665E+01   6.03157616E+00   8.82996655E+00   3.93790665E+01   3.93790665E+01   8.82996655E+00   6.03157616E+00   3.33474884E+01  -1.80802021E+01   3.17633877E+01   9.26332474E+00   3.61473160E+01   8.82996655E+00   9.86541939E+00
             3290                1   2.59463558E+01   3.93453407E+01   3.93453407E+01   1.30279427E+01   1.37866678E+01   3.93453407E+01   3.93453407E+01   1.37866678E+01   1.30279427E+01   2.63173981E+01  -2.20533161E+01   2.59213772E+01   1.40311642E+01   3.83421173E+01   1.37866678E+01   5.03941965E+00
             3290                2   2.63384762E+01   3.96025009E+01   3.96025009E+01   1.27707787E+01   1.37866678E+01   3.96025009E+01   3.96025009E+01   1.37866678E+01   1.27707787E+01   2.68317223E+01  -2.20533161E+01   2.62943382E+01   1.37791824E+01   3.85940971E+01   1.37866678E+01   5.10297251E+00
             3290                3   2.60072556E+01   3.93853531E+01   3.93853531E+01   1.29879265E+01   1.37866678E+01   3.93853531E+01   3.93853531E+01   1.37866678E+01   1.29879265E+01   2.63974266E+01  -2.20533161E+01   2.59796352E+01   1.40946198E+01   3.82786598E+01   1.37866678E+01   5.29047012E+00
             3290                4   2.63983555E+01   3.96416740E+01   3.96416740E+01   1.27316074E+01   1.37866678E+01   3.96416740E+01   3.96416740E+01   1.37866678E+01   1.27316074E+01   2.69100685E+01  -2.20533161E+01   2.63508530E+01   1.38427563E+01   3.85305252E+01   1.37866678E+01   5.35410643E+00
             3291                1   3.42633667E+01   3.95315247E+01   3.95315247E+01   4.28772163E+00   6.34094191E+00   3.95315247E+01   3.95315247E+01   6.34094191E+00   4.28772163E+00   3.52438049E+01  -1.67200642E+01   3.41245384E+01   6.90997267E+00   3.69092751E+01   6.34094191E+00   9.24888706E+00
             3291                2   3.45001297E+01   3.96848412E+01   3.96848412E+01   4.13440561E+00   6.34094191E+00   3.96848412E+01   3.96848412E+01   6.34094191E+00   4.13440561E+00   3.55504379E+01  -1.67200642E+01   3.43408356E+01   6.72234106E+00   3.70969086E+01   6.34094191E+00   9.23606014E+00
             3291                3   3.44314270E+01   3.96403809E+01   3.96403809E+01   4.17886639E+00   6.34094191E+00   3.96403809E+01   3.96403809E+01   6.34094191E+00   4.17886639E+00   3.54615173E+01  -1.67200642E+01   3.42781982E+01   6.89658356E+00   3.69226646E+01   6.34094191E+00   9.43336582E+00
             3291                4   3.46666374E+01   3.97925034E+01   3.97925034E+01   4.02674580E+00   6.34094191E+00   3.97925034E+01   3.97925034E+01   6.34094191E+00   4.02674580E+00   3.57657585E+01  -1.67200642E+01   3.44922104E+01   6.70934725E+00   3.71099014E+01   6.34094191E+00   9.42066383E+00
             3292                1   1.13710632E+02   1.27405396E+02   1.27405396E+02   1.32156639E+01   1.41800098E+01   1.27405396E+02   1.27405396E+02   1.41800098E+01   1.32156639E+01   1.14189735E+02  -5.16003571E+01   1.13701439E+02   1.42909088E+01   1.26330162E+02   1.41800098E+01   1.10283880E+01
             3292                2   1.13798805E+02   1.27463928E+02   1.27463928E+02   1.31571388E+01   1.41800098E+01   1.27463928E+02   1.27463928E+02   1.41800098E+01   1.31571388E+01   1.14306786E+02  -5.16003571E+01   1.13788467E+02   1.42245913E+01   1.26396477E+02   1.41800098E+01   1.09944315E+01
             3292                3   1.13774872E+02   1.27448044E+02   1.27448044E+02   1.31730213E+01   1.41800098E+01   1.27448044E+02   1.27448044E+02   1.41800098E+01   1.31730213E+01   1.14275017E+02  -5.16003571E+01   1.13764854E+02   1.42606955E+01   1.26360374E+02   1.41800098E+01   1.10955210E+01
             3292                4   1.13863434E+02   1.27506828E+02   1.27506828E+02   1.31142511E+01   1.41800098E+01   1.27506828E+02   1.27506828E+02   1.41800098E+01   1.31142511E+01   1.14392578E+02  -5.16003609E+01   1.13852211E+02   1.41940641E+01   1.26427010E+02   1.41800098E+01   1.10614986E+01
             3293                1   1.10379829E+02   1.19674957E+02   1.19674957E+02   8.88596916E+00   9.70889759E+00   1.19674957E+02   1.19674957E+02   9.70889759E+00   8.88596916E+00   1.10788986E+02  -4.60899391E+01   1.10372940E+02   1.04037533E+01   1.18157181E+02   9.70889759E+00   1.28782711E+01
             3293                2   1.10402992E+02   1.19690338E+02   1.19690338E+02   8.87058735E+00   9.70889759E+00   1.19690338E+02   1.19690338E+02   9.70889759E+00   8.87058735E+00   1.10819756E+02  -4.60899391E+01   1.10395836E+02   1.03472500E+01   1.18213684E+02   9.70889759E+00   1.27067966E+01
             3293                3   1.10646881E+02   1.19852272E+02   1.19852272E+02   8.70865917E+00   9.70889759E+00   1.19852272E+02   1.19852272E+02   9.70889759E+00   8.70865917E+00   1.11143608E+02  -4.60899391E+01   1.10636711E+02   1.02365532E+01   1.18324379E+02   9.70889759E+00   1.29414349E+01
             3293                4   1.10669334E+02   1.19867165E+02   1.19867165E+02   8.69376087E+00   9.70889759E+00   1.19867165E+02   1.19867165E+02   9.70889759E+00   8.69376087E+00   1.11173409E+02  -4.60899391E+01   1.10658867E+02   1.01803799E+01   1.18380554E+02   9.70889759E+00   1.27695837E+01
             3294                1   4.03881073E+01   4.55634766E+01   4.55634766E+01   5.02333355E+00   5.32914209E+00   4.55634766E+01   4.55634766E+01   5.32914209E+00   5.02333355E+00   4.05401459E+01  -1.86386509E+01   4.03855019E+01   5.86175919E+00   4.47250519E+01   5.32914209E+00   5.76948404E+00
             3294                2   4.03160172E+01   4.55155830E+01   4.55155830E+01   5.07122850E+00   5.32914209E+00   4.55155830E+01   4.55155830E+01   5.32914209E+00   5.07122850E+00   4.04443550E+01  -1.86386509E+01   4.03141594E+01   5.97467566E+00   4.46121368E+01   5.32914209E+00   5.97687817E+00
             3294                3   4.00201759E+01   4.53187447E+01   4.53187447E+01   5.26806688E+00   5.32914209E+00   4.53187447E+01   4.53187447E+01   5.32914209E+00   5.26806688E+00   4.00506783E+01  -1.86386509E+01   4.00200691E+01   6.08298779E+00   4.45038223E+01   5.32914209E+00   5.65456295E+00
             3294                4   3.99448318E+01   4.52685394E+01   4.52685394E+01   5.31827164E+00   5.32914209E+00   4.52685394E+01   4.52685394E+01   5.32914209E+00   5.31827164E+00   3.99502678E+01  -1.86386509E+01   3.99448280E+01   6.19715166E+00   4.43896599E+01   5.32914209E+00   5.85995245E+00
             3295                1   3.48432770E+01   2.86924362E+01   2.86924362E+01  -1.34647655E+00  -9.50679302E+00   2.86924362E+01   2.86924362E+01  -1.34647655E+00  -9.50679302E+00   3.81992302E+01  -5.94638824E+00   3.25875664E+01   9.48685348E-01   2.63972740E+01  -9.50679302E+00   7.97974825E+00
             3295                2   3.54327011E+01   2.91452618E+01   2.91452618E+01  -1.79930294E+00  -9.50679302E+00   2.91452618E+01   2.91452618E+01  -1.79930294E+00  -9.50679302E+00   3.86520538E+01  -5.94638824E+00   3.34677315E+01   4.73084390E-01   2.68728752E+01  -9.50679302E+00   8.07181931E+00
             3295                3   3.50638199E+01   2.88625546E+01   2.88625546E+01  -1.51659560E+00  -9.50679302E+00   2.88625546E+01   2.88625546E+01  -1.51659560E+00  -9.50679302E+00   3.83693466E+01  -5.94638824E+00   3.29206734E+01   1.05614328E+00   2.62898159E+01  -9.50679302E+00   8.45805073E+00
             3295                4   3.56491623E+01   2.93101234E+01   2.93101234E+01  -1.96416318E+00  -9.50679302E+00   2.93101234E+01   2.93101234E+01  -1.96416318E+00  -9.50679302E+00   3.88169174E+01  -5.94638968E+00   3.37831573E+01   5.79816639E-01   2.67661438E+01  -9.50679302E+00   8.54922962E+00
             3296                1   2.50711040E+01   3.77977676E+01   3.77977676E+01   1.14830265E+01   1.41899920E+01   3.77977676E+01   3.77977676E+01   1.41899920E+01   1.14830265E+01   2.63147430E+01  -2.11569290E+01   2.47391186E+01   1.41777906E+01   3.51030045E+01   1.41899920E+01   7.97811270E+00
             3296                2   2.51840076E+01   3.78694458E+01   3.78694458E+01   1.14113483E+01   1.41899920E+01   3.78694458E+01   3.78694458E+01   1.41899920E+01   1.14113483E+01   2.64580994E+01  -2.11569290E+01   2.48356266E+01   1.42390900E+01   3.50417061E+01   1.41899920E+01   8.17438316E+00
             3296                3   2.47672501E+01   3.76045227E+01   3.76045227E+01   1.16762695E+01   1.41899920E+01   3.76045227E+01   3.76045227E+01   1.41899920E+01   1.16762695E+01   2.59282532E+01  -2.11569271E+01   2.44777908E+01   1.43740826E+01   3.49067116E+01   1.41899920E+01   7.91652489E+00
             3296                4   2.48814774E+01   3.76772308E+01   3.76772308E+01   1.16035671E+01   1.41899920E+01   3.76772308E+01   3.76772308E+01   1.41899920E+01   1.16035671E+01   2.60736618E+01  -2.11569290E+01   2.45763073E+01   1.44354620E+01   3.48453331E+01   1.41899920E+01   8.11284542E+00
             3297                1   3.54876556E+01   2.88349514E+01   2.88349514E+01  -2.09430051E+00  -9.90863037E+00   2.88349514E+01   2.88349514E+01  -2.09430051E+00  -9.90863037E+00   3.87435799E+01  -5.61067343E+00   3.34687729E+01   7.68068254E-01   2.59725819E+01  -9.90863037E+00   8.96313381E+00
             3297                2   3.48948135E+01   2.83785248E+01   2.83785248E+01  -1.63787413E+00  -9.90863037E+00   2.83785248E+01   2.83785248E+01  -1.63787413E+00  -9.90863037E+00   3.82871552E+01  -5.61067343E+00   3.25781441E+01   1.26509023E+00   2.54755592E+01  -9.90863037E+00   8.87182903E+00
             3297                3   3.52344017E+01   2.86407013E+01   2.86407013E+01  -1.90005386E+00  -9.90863037E+00   2.86407013E+01   2.86407013E+01  -1.90005386E+00  -9.90863037E+00   3.85493317E+01  -5.61067247E+00   3.30923386E+01   6.54953778E-01   2.60856953E+01  -9.90863037E+00   8.45599079E+00
             3297                4   3.46362076E+01   2.81774979E+01   2.81774979E+01  -1.43684697E+00  -9.90863037E+00   2.81774979E+01   2.81774979E+01  -1.43684697E+00  -9.90863037E+00   3.80861282E+01  -5.61067343E+00   3.21788788E+01   1.14913523E+00   2.55915146E+01  -9.90863037E+00   8.36031532E+00
             3298                1   1.14552711E+02   1.27656593E+02   1.27656593E+02   1.21405735E+01   1.40921202E+01   1.27656593E+02   1.27656593E+02   1.40921202E+01   1.21405735E+01   1.15516022E+02  -5.12964287E+01   1.14515305E+02   1.48401833E+01   1.24956978E+02   1.40921202E+01   1.74516678E+01
             3298                2   1.14750954E+02   1.27787613E+02   1.27787613E+02   1.20095396E+01   1.40921202E+01   1.27787613E+02   1.27787613E+02   1.40921202E+01   1.20095396E+01   1.15778069E+02  -5.12964211E+01   1.14708435E+02   1.47052460E+01   1.25091911E+02   1.40921202E+01   1.74595661E+01
             3298                3   1.14589981E+02   1.27681229E+02   1.27681229E+02   1.21159382E+01   1.40921202E+01   1.27681229E+02   1.27681229E+02   1.40921202E+01   1.21159382E+01   1.15565292E+02  -5.12964287E+01   1.14551628E+02   1.48703737E+01   1.24926788E+02   1.40921202E+01   1.76275520E+01
             3298                4   1.14800720E+02   1.27820496E+02   1.27820496E+02   1.19766665E+01   1.40921202E+01   1.27820496E+02   1.27820496E+02   1.40921202E+01   1.19766665E+01   1.15843834E+02  -5.12964287E+01   1.14756851E+02   1.47246714E+01   1.25072487E+02   1.40921202E+01   1.76291847E+01
             3299                1   3.21325302E+01   4.14023399E+01   4.14023399E+01   8.84558964E+00   9.71153450E+00   4.14023399E+01   4.14023399E+01   9.71153450E+00   8.84558964E+00   3.25567474E+01  -1.99864883E+01   3.21062584E+01   1.01213913E+01   4.01265373E+01   9.71153450E+00   6.31729984E+00
             3299                2   3.21360474E+01   4.14046516E+01   4.14046516E+01   8.84327507E+00   9.71153450E+00   4.14046516E+01   4.14046516E+01   9.71153450E+00   8.84327507E+00   3.25613785E+01  -1.99864883E+01   3.21096382E+01   1.02144241E+01   4.00335045E+01   9.71153450E+00   6.53960609E+00
             3299                3   3.17653656E+01   4.11603317E+01   4.11603317E+01   9.08759212E+00   9.71153450E+00   4.11603317E+01   4.11603317E+01   9.71153450E+00   9.08759212E+00   3.20727425E+01  -1.99864864E+01   3.17515774E+01   1.03437252E+01   3.99042015E+01   9.71153450E+00   6.22171497E+00
             3299                4   3.17687778E+01   4.11625862E+01   4.11625862E+01   9.08534145E+00   9.71153450E+00   4.11625862E+01   4.11625862E+01   9.71153450E+00   9.08534145E+00   3.20772438E+01  -1.99864883E+01   3.17548847E+01   1.04368896E+01   3.98110390E+01   9.71153450E+00   6.44416380E+00
             3300                1   4.34531822E+01   4.65215569E+01   4.65215569E+01   2.97284484E+00   3.16453552E+00   4.65215569E+01   4.65215569E+01   3.16453552E+00   2.97284484E+00   4.35487099E+01  -1.75529785E+01   4.34522324E+01   4.06106329E+00   4.54333382E+01   3.16453552E+00   6.79751682E+00
             3300                2   4.33558273E+01   4.64567719E+01   4.64567719E+01   3.03762913E+00   3.16453552E+00   4.64567719E+01   4.64567719E+01   3.16453552E+00   3.03762913E+00   4.34191437E+01  -1.75529785E+01   4.33554115E+01   4.19247913E+00   4.53019218E+01   3.16453552E+00   6.98633528E+00
             3300                3   4.31099854E+01   4.62929611E+01   4.62929611E+01   3.20143986E+00   3.16453552E+00   4.62929611E+01   4.62929611E+01   3.20143986E+00   3.16453552E+00   4.31284256E+01  -1.75529785E+01   4.31099510E+01   4.25480747E+00   4.52395935E+01   3.16453552E+00   6.65444136E+00
             3300                4   4.30098572E+01   4.62261543E+01   4.62261543E+01   3.26824808E+00   3.16453552E+00   4.62261543E+01   4.62261543E+01   3.26824808E+00   3.16453552E+00   4.30616188E+01  -1.75529804E+01   4.30095749E+01   4.38739395E+00   4.51070099E+01   3.16453552E+00   6.84278297E+00
             3301                1   3.82232819E+01   3.22043457E+01   3.22043457E+01  -2.24739575E+00  -8.91351986E+00   3.22043457E+01   3.22043457E+01  -2.24739575E+00  -8.91351986E+00   4.11178665E+01  -7.01447678E+00   3.68813286E+01   3.56440276E-01   2.96005116E+01  -8.91351986E+00   9.10641003E+00
             3301                2   3.76269455E+01   3.17610035E+01   3.17610035E+01  -1.80405211E+00  -8.91351986E+00   3.17610035E+01   3.17610035E+01  -1.80405211E+00  -8.91351986E+00   4.06745224E+01  -7.01447678E+00   3.60690842E+01   8.26366603E-01   2.91305847E+01  -8.91351986E+00   9.02058983E+00
             3301                3   3.80030670E+01   3.20411606E+01   3.20411606E+01  -2.08420753E+00  -8.91351986E+00   3.20411606E+01   3.20411606E+01  -2.08420753E+00  -8.91351986E+00   4.09546814E+01  -7.01447821E+00   3.65840912E+01   2.61409491E-01   2.96955433E+01  -8.91351986E+00   8.63383675E+00
             3301                4   3.74035225E+01   3.15936909E+01   3.15936909E+01  -1.63673913E+00  -8.91351986E+00   3.15936909E+01   3.15936909E+01  -1.63673913E+00  -8.91351986E+00   4.05072098E+01  -7.01447678E+00   3.57585602E+01   7.31151462E-01   2.92257996E+01  -8.91351986E+00   8.54863262E+00
             3302                1   3.53164940E+01   3.98455811E+01   3.98455811E+01   3.81659365E+00   5.28754425E+00   3.98455811E+01   3.98455811E+01   5.28754425E+00   3.81659365E+00   3.60289879E+01  -1.63165722E+01   3.52474747E+01   6.18054676E+00   3.74816284E+01   5.28754425E+00   8.92090416E+00
             3302                2   3.55599861E+01   4.00045471E+01   4.00045471E+01   3.65762758E+00   5.28754425E+00   4.00045471E+01   4.00045471E+01   5.28754425E+00   3.65762758E+00   3.63469200E+01  -1.63165722E+01   3.54757957E+01   6.01334810E+00   3.76488266E+01   5.28754425E+00   8.94839382E+00
             3302                3   3.54079933E+01   3.99053535E+01   3.99053535E+01   3.75682259E+00   5.28754425E+00   3.99053535E+01   3.99053535E+01   5.28754425E+00   3.75682259E+00   3.61485291E+01  -1.63165722E+01   3.53334351E+01   6.20674658E+00   3.74554291E+01   5.28754425E+00   9.08619881E+00
             3302                4   3.56505928E+01   4.00636215E+01   4.00636215E+01   3.59855223E+00   5.28754425E+00   4.00636215E+01   4.00636215E+01   5.28754425E+00   3.59855223E+00   3.64650688E+01  -1.63165722E+01   3.55604095E+01   6.03948307E+00   3.76226921E+01   5.28754425E+00   9.11320686E+00
             3303                1   4.05573235E+01   4.18203468E+01   4.18203468E+01   1.24089301E+00   1.28519499E+00   4.18203468E+01   4.18203468E+01   1.28519499E+00   1.24089301E+00   4.05794563E+01  -1.47821455E+01   4.05572701E+01   3.10758996E+00   3.99536514E+01   1.28519499E+00   8.50088120E+00
             3303                2   4.04276886E+01   4.17339287E+01   4.17339287E+01   1.32731605E+00   1.28519499E+00   4.17339287E+01   4.17339287E+01   1.32731605E+00   1.28519499E+00   4.04487343E+01  -1.47821465E+01   4.04276390E+01   3.24856782E+00   3.98126755E+01   1.28519499E+00   8.59884453E+00
             3303                3   4.03222847E+01   4.16635895E+01   4.16635895E+01   1.39765000E+00   1.28519499E+00   4.16635895E+01   4.16635895E+01   1.39765000E+00   1.28519499E+00   4.03783951E+01  -1.47821455E+01   4.03219337E+01   3.20964622E+00   3.98515968E+01   1.28519499E+00   8.34735489E+00
             3303                4   4.01959572E+01   4.15792084E+01   4.15792084E+01   1.48203266E+00   1.28519499E+00   4.15792084E+01   4.15792084E+01   1.48203266E+00   1.28519499E+00   4.02940140E+01  -1.47821455E+01   4.01948700E+01   3.34850574E+00   3.97127342E+01   1.28519499E+00   8.44728470E+00
             3304                1   5.41592827E+01   5.07743492E+01   5.07743492E+01  -2.91754675E+00  -3.84051847E+00   5.07743492E+01   5.07743492E+01  -2.91754675E+00  -3.84051847E+00   5.46148682E+01  -1.46720953E+01   5.41415825E+01  -1.10357964E+00   4.89603844E+01  -3.84051847E+00   9.70076370E+00
             3304                2   5.38140335E+01   5.05419159E+01   5.05419159E+01  -2.68510866E+00  -3.84051847E+00   5.05419159E+01   5.05419159E+01  -2.68510866E+00  -3.84051847E+00   5.43824348E+01  -1.46720963E+01   5.37861137E+01  -7.93855488E-01   4.86506615E+01  -3.84051847E+00   9.85337639E+00
             3304                3   5.38387451E+01   5.05585709E+01   5.05585709E+01  -2.70176387E+00  -3.84051847E+00   5.05585709E+01   5.05585709E+01  -2.70176387E+00  -3.84051847E+00   5.43990898E+01  -1.46720963E+01   5.38116379E+01  -9.91426170E-01   4.88482323E+01  -3.84051847E+00   9.38978100E+00
             3304                4   5.34751511E+01   5.03132362E+01   5.03132362E+01  -2.45643377E+00  -3.84051847E+00   5.03132362E+01   5.03132362E+01  -2.45643377E+00  -3.84051847E+00   5.41537552E+01  -1.46720953E+01   5.34348259E+01  -6.74758673E-01   4.85315628E+01  -3.84051847E+00   9.53121376E+00
             3305                1   4.08488083E+01   4.47008438E+01   4.47008438E+01   3.67880249E+00   4.02750158E+00   4.47008438E+01   4.47008438E+01   4.02750158E+00   3.67880249E+00   4.10220413E+01  -1.74690495E+01   4.08454628E+01   5.04802465E+00   4.33316231E+01   4.02750158E+00   7.36841011E+00
             3305                2   4.07648392E+01   4.46450806E+01   4.46450806E+01   3.73456454E+00   4.02750158E+00   4.46450806E+01   4.46450806E+01   4.02750158E+00   3.73456454E+00   4.09105186E+01  -1.74690495E+01   4.07624702E+01   5.18182421E+00   4.31978226E+01   4.02750158E+00   7.55735159E+00
             3305                3   4.05098763E+01   4.44755402E+01   4.44755402E+01   3.90410757E+00   4.02750158E+00   4.44755402E+01   4.44755402E+01   4.02750158E+00   3.90410757E+00   4.05714302E+01  -1.74690495E+01   4.05094528E+01   5.23677492E+00   4.31428719E+01   4.02750158E+00   7.23133469E+00
             3305                4   4.04251709E+01   4.44191360E+01   4.44191360E+01   3.96051073E+00   4.02750158E+00   4.44191360E+01   4.44191360E+01   4.02750158E+00   3.96051073E+00   4.04586258E+01  -1.74690495E+01   4.04250488E+01   5.37057161E+00   4.30090752E+01   4.02750158E+00   7.42029905E+00
             3306                1   1.29439163E+02   1.49326660E+02   1.49326660E+02   1.69322758E+01   2.30604000E+01   1.49326660E+02   1.49326660E+02   2.30604000E+01   1.69322758E+01   1.32394394E+02  -6.31064453E+01   1.29112183E+02   2.18097401E+01   1.44449203E+02   2.30604000E+01   2.49391041E+01
             3306                2   1.28575378E+02   1.48763138E+02   1.48763138E+02   1.74958096E+01   2.30604000E+01   1.48763138E+02   1.48763138E+02   2.30604000E+01   1.74958096E+01   1.31267319E+02  -6.31064453E+01   1.28304031E+02   2.30393486E+01   1.43219589E+02   2.30604000E+01   2.63999100E+01
             3306                3   1.27732933E+02   1.48212509E+02   1.48212509E+02   1.80464249E+01   2.30604000E+01   1.48212509E+02   1.48212509E+02   2.30604000E+01   1.80464249E+01   1.30166092E+02  -6.31064453E+01   1.27511238E+02   2.23174095E+01   1.43941528E+02   2.30604000E+01   2.31882839E+01
             3306                4   1.26765320E+02   1.47578812E+02   1.47578812E+02   1.86801243E+01   2.30604000E+01   1.47578812E+02   1.47578812E+02   2.30604000E+01   1.86801243E+01   1.28898697E+02  -6.31064453E+01   1.26594879E+02   2.35008335E+01   1.42758102E+02   2.30604000E+01   2.44569836E+01
             3307                1   3.49976540E+01   2.91800480E+01   2.91800480E+01  -1.24139321E+00  -9.06842041E+00   2.91800480E+01   2.91800480E+01  -1.24139321E+00  -9.06842041E+00   3.82484665E+01  -6.29007769E+00   3.29409294E+01   7.92293727E-01   2.71463604E+01  -9.06842041E+00   7.59814453E+00
             3307                2   3.55633430E+01   2.96112976E+01   2.96112976E+01  -1.67264152E+00  -9.06842041E+00   2.96112976E+01   2.96112976E+01  -1.67264152E+00  -9.06842041E+00   3.86797180E+01  -6.29007864E+00   3.37674599E+01   3.42065722E-01   2.75965900E+01  -9.06842041E+00   7.67912340E+00
             3307                3   3.51901588E+01   2.93273811E+01   2.93273811E+01  -1.38872659E+00  -9.06842041E+00   2.93273811E+01   2.93273811E+01  -1.38872659E+00  -9.06842041E+00   3.83958015E+01  -6.29007769E+00   3.32253265E+01   8.90053630E-01   2.70486012E+01  -9.06842041E+00   8.04999352E+00
             3307                4   3.57530327E+01   2.97547817E+01   2.97547817E+01  -1.81612492E+00  -9.06842041E+00   2.97547817E+01   2.97547817E+01  -1.81612492E+00  -9.06842041E+00   3.88232002E+01  -6.29007864E+00   3.40386009E+01   4.40248072E-01   2.74984074E+01  -9.06842041E+00   8.13292885E+00
             3308                1   1.89918091E+02   1.80293869E+02   1.80293869E+02  -1.35027313E+01  -5.49220800E+00   1.80293869E+02   1.80293869E+02  -5.49220800E+00  -1.35027313E+01   1.93796600E+02  -5.37663116E+01   1.89537415E+02  -1.34942837E+01   1.80285416E+02  -5.49220800E+00  -1.27989352E+00
             3308                2   1.88105377E+02   1.79129791E+02   1.79129791E+02  -1.16616716E+01  -6.16919088E+00   1.79129791E+02   1.79129791E+02  -6.16919088E+00  -1.16616716E+01   1.90791473E+02  -5.37663116E+01   1.87924835E+02  -1.16594248E+01   1.79127548E+02  -6.16919088E+00   6.54925227E-01
             3308                3   1.88597519E+02   1.79446060E+02   1.79446060E+02  -1.22026405E+01  -5.94448519E+00   1.79446060E+02   1.79446060E+02  -5.94448519E+00  -1.22026405E+01   1.91648712E+02  -5.37663116E+01   1.88363693E+02  -1.21270666E+01   1.79370483E+02  -5.94448519E+00  -3.80515862E+00
             3308                4   1.86736557E+02   1.78239380E+02   1.78239380E+02  -1.03021250E+01  -6.63832235E+00   1.78239380E+02   1.78239380E+02  -6.63832235E+00  -1.03021250E+01   1.88541504E+02  -5.37663116E+01   1.86655670E+02  -1.02835388E+01   1.78220795E+02  -6.63832235E+00  -1.87185323E+00
             3309                1   2.66040211E+01   3.79670258E+01   3.79670258E+01   1.01819534E+01   1.27269669E+01   3.79670258E+01   3.79670258E+01   1.27269669E+01   1.01819534E+01   2.77850723E+01  -2.02919827E+01   2.63280582E+01   1.32170153E+01   3.49319649E+01   1.27269669E+01   8.66705132E+00
             3309                2   2.64949570E+01   3.78973732E+01   3.78973732E+01   1.02516050E+01   1.27269669E+01   3.78973732E+01   3.78973732E+01   1.27269669E+01   1.02516050E+01   2.76457691E+01  -2.02919827E+01   2.62329063E+01   1.31557531E+01   3.49932251E+01   1.27269669E+01   8.47663593E+00
             3309                3   2.68983383E+01   3.81546707E+01   3.81546707E+01   9.99431038E+00   1.27269669E+01   3.81546707E+01   3.81546707E+01   1.27269669E+01   9.99431038E+00   2.81603584E+01  -2.02919827E+01   2.65833588E+01   1.30263882E+01   3.51225929E+01   1.27269669E+01   8.72873878E+00
             3309                4   2.67904701E+01   3.80859489E+01   3.80859489E+01   1.00630302E+01   1.27269669E+01   3.80859489E+01   3.80859489E+01   1.27269669E+01   1.00630302E+01   2.80229187E+01  -2.02919827E+01   2.64900341E+01   1.29651108E+01   3.51838684E+01   1.27269669E+01   8.53830814E+00
             3310                1   3.78565216E+01   4.39065514E+01   4.39065514E+01   5.81176233E+00   6.29288769E+00   4.39065514E+01   4.39065514E+01   6.29288769E+00   5.81176233E+00   3.80947914E+01  -1.86704006E+01   3.78496399E+01   6.94600248E+00   4.27723122E+01   6.29288769E+00   6.47473288E+00
             3310                2   3.78040962E+01   4.38718147E+01   4.38718147E+01   5.84650087E+00   6.29288769E+00   4.38718147E+01   4.38718147E+01   6.29288769E+00   5.84650087E+00   3.80253143E+01  -1.86704006E+01   3.77981644E+01   7.06045628E+00   4.26578598E+01   6.29288769E+00   6.68485737E+00
             3310                3   3.74979134E+01   4.36686172E+01   4.36686172E+01   6.04969788E+00   6.29288769E+00   4.36686172E+01   4.36686172E+01   6.29288769E+00   6.04969788E+00   3.76189194E+01  -1.86704006E+01   3.74961395E+01   7.15657139E+00   4.25617447E+01   6.29288769E+00   6.35721445E+00
             3310                4   3.74454269E+01   4.36337318E+01   4.36337318E+01   6.08458519E+00   6.29288769E+00   4.36337318E+01   4.36337318E+01   6.29288769E+00   6.08458519E+00   3.75491447E+01  -1.86704006E+01   3.74441261E+01   7.27049732E+00   4.24478188E+01   6.29288769E+00   6.56685400E+00
             3311                1   2.99344997E+01   3.96306229E+01   3.96306229E+01   8.92345333E+00   1.05338049E+01   3.96306229E+01   3.96306229E+01   1.05338049E+01   8.92345333E+00   3.07071705E+01  -1.96959610E+01   2.98368073E+01   1.10452223E+01   3.75088539E+01   1.05338049E+01   7.78791618E+00
             3311                2   2.99882660E+01   3.96655579E+01   3.96655579E+01   8.88851929E+00   1.05338049E+01   3.96655579E+01   3.96655579E+01   1.05338049E+01   8.88851929E+00   3.07770386E+01  -1.96959610E+01   2.98864651E+01   1.11280212E+01   3.74260559E+01   1.05338049E+01   7.99436569E+00
             3311                3   2.95958614E+01   3.94102097E+01   3.94102097E+01   9.14386749E+00   1.05338049E+01   3.94102097E+01   3.94102097E+01   1.05338049E+01   9.14386749E+00   3.02663422E+01  -1.96959610E+01   2.95222931E+01   1.12516861E+01   3.73023911E+01   1.05338049E+01   7.70409346E+00
             3311                4   2.96501713E+01   3.94456024E+01   3.94456024E+01   9.10846901E+00   1.05338049E+01   3.94456024E+01   3.94456024E+01   1.05338049E+01   9.10846901E+00   3.03371353E+01  -1.96959591E+01   2.95729446E+01   1.13345690E+01   3.72195053E+01   1.05338049E+01   7.91062212E+00
             3312                1   3.16388626E+01   4.02969017E+01   4.02969017E+01   7.99985886E+00   9.36009598E+00   4.02969017E+01   4.02969017E+01   9.36009598E+00   7.99985886E+00   3.22970428E+01  -1.92189522E+01   3.15729713E+01   9.99619102E+00   3.83005676E+01   9.36009598E+00   7.77755213E+00
             3312                2   3.16738644E+01   4.03197556E+01   4.03197556E+01   7.97699976E+00   9.36009598E+00   4.03197556E+01   4.03197556E+01   9.36009598E+00   7.97699976E+00   3.23427582E+01  -1.92189503E+01   3.16058159E+01   1.00852823E+01   3.82114754E+01   9.36009598E+00   7.98390818E+00
             3312                3   3.12957478E+01   4.00724754E+01   4.00724754E+01   8.22428226E+00   9.36009598E+00   4.00724754E+01   4.00724754E+01   9.36009598E+00   8.22428226E+00   3.18481922E+01  -1.92189503E+01   3.12493229E+01   1.02025452E+01   3.80942116E+01   9.36009598E+00   7.68703985E+00
             3312                4   3.13310814E+01   4.00956192E+01   4.00956192E+01   8.20113850E+00   9.36009598E+00   4.00956192E+01   4.00956192E+01   9.36009598E+00   8.20113850E+00   3.18944798E+01  -1.92189503E+01   3.12827969E+01   1.02916861E+01   3.80050697E+01   9.36009598E+00   7.89344978E+00
             3313                1   3.20569305E+01   2.55221004E+01   2.55221004E+01  -1.03155267E+00  -1.00891027E+01   2.55221004E+01   2.55221004E+01  -1.03155267E+00  -1.00891027E+01   3.56112022E+01  -4.80048132E+00   2.89614315E+01   1.11320210E+00   2.33773460E+01  -1.00891027E+01   7.23540449E+00
             3313                2   3.26156883E+01   2.59682312E+01   2.59682312E+01  -1.47768366E+00  -1.00891027E+01   2.59682312E+01   2.59682312E+01  -1.47768366E+00  -1.00891027E+01   3.60573349E+01  -4.80048132E+00   2.98933506E+01   6.43807352E-01   2.38467407E+01  -1.00891027E+01   7.32976913E+00
             3313                3   3.22698822E+01   2.56929607E+01   2.56929607E+01  -1.20241189E+00  -1.00891027E+01   2.56929607E+01   2.56929607E+01  -1.20241189E+00  -1.00891027E+01   3.57820625E+01  -4.80048227E+00   2.93216896E+01   1.22751534E+00   2.32630329E+01  -1.00891027E+01   7.71033525E+00
             3313                4   3.28227158E+01   2.61317959E+01   2.61317959E+01  -1.64124608E+00  -1.00891027E+01   2.61317959E+01   2.61317959E+01  -1.64124608E+00  -1.00891027E+01   3.62208977E+01  -4.80048227E+00   3.02281876E+01   7.55364060E-01   2.37351856E+01  -1.00891027E+01   7.79855108E+00
             3314                1   8.14549561E+01   8.52215652E+01   8.52215652E+01   3.02570844E+00   4.52830935E+00   8.52215652E+01   8.52215652E+01   4.52830935E+00   3.02570844E+00   8.21958618E+01  -3.09251957E+01   8.14237595E+01   2.34039288E+01   6.48433456E+01   4.52830935E+00   3.54927254E+01
             3314                2   8.25015717E+01   8.59116669E+01   8.59116669E+01   2.33559847E+00   4.52830935E+00   8.59116669E+01   8.59116669E+01   4.52830935E+00   2.33559847E+00   8.35760727E+01  -3.09251938E+01   8.24359741E+01   2.34344730E+01   6.48127975E+01   4.52830935E+00   3.63070030E+01
             3314                3   8.09049225E+01   8.48578033E+01   8.48578033E+01   3.38947368E+00   4.52830935E+00   8.48578033E+01   8.48578033E+01   4.52830935E+00   3.38947368E+00   8.14683304E+01  -3.09251957E+01   8.08868790E+01   2.41632996E+01   6.40839767E+01   4.52830935E+00   3.55085487E+01
             3314                4   8.19498291E+01   8.55482025E+01   8.55482025E+01   2.69906521E+00   4.52830935E+00   8.55482025E+01   8.55482025E+01   4.52830935E+00   2.69906521E+00   8.28491364E+01  -3.09251938E+01   8.19038773E+01   2.42078342E+01   6.40394363E+01   4.52830935E+00   3.63229370E+01
             3315                1   3.71413002E+01   3.04861488E+01   3.04861488E+01  -1.90269852E+00  -1.00536652E+01   3.04861488E+01   3.04861488E+01  -1.90269852E+00  -1.00536652E+01   4.05398140E+01  -6.17659521E+00   3.50431557E+01   1.41170132E+00   2.71717491E+01  -1.00536652E+01   9.81653404E+00
             3315                2   3.78208847E+01   3.10022125E+01   3.10022125E+01  -2.41876245E+00  -1.00536652E+01   3.10022125E+01   3.10022125E+01  -2.41876245E+00  -1.00536652E+01   4.10558777E+01  -6.17659521E+00   3.60253143E+01   8.71119320E-01   2.77123318E+01  -1.00536652E+01   9.95629025E+00
             3315                3   3.74536972E+01   3.07242260E+01   3.07242260E+01  -2.14077616E+00  -1.00536652E+01   3.07242260E+01   3.07242260E+01  -2.14077616E+00  -1.00536652E+01   4.07778931E+01  -6.17659521E+00   3.54991798E+01   1.55323482E+00   2.70302162E+01  -1.00536652E+01   1.03806524E+01
             3315                4   3.81213875E+01   3.12282963E+01   3.12282963E+01  -2.64484549E+00  -1.00536652E+01   3.12282963E+01   3.12282963E+01  -2.64484549E+00  -1.00536652E+01   4.12819595E+01  -6.17659521E+00   3.64484177E+01   1.01325798E+00   2.75701923E+01  -1.00536652E+01   1.05133123E+01
             3316                1   4.16193085E+01   4.58384438E+01   4.58384438E+01   4.20518875E+00   4.23309422E+00   4.58384438E+01   4.58384438E+01   4.23309422E+00   4.20518875E+00   4.16332550E+01  -1.80922413E+01   4.16192894E+01   5.14368343E+00   4.48999481E+01   4.23309422E+00   6.17995644E+00
             3316                2   4.19777260E+01   4.60769691E+01   4.60769691E+01   3.96666288E+00   4.23309422E+00   4.60769691E+01   4.60769691E+01   4.23309422E+00   3.96666288E+00   4.21103058E+01  -1.80922413E+01   4.19758224E+01   4.93297243E+00   4.51106606E+01   4.23309422E+00   6.30538034E+00
             3316                3   4.15321045E+01   4.57803078E+01   4.57803078E+01   4.26332664E+00   4.23309422E+00   4.57803078E+01   4.57803078E+01   4.26332664E+00   4.23309422E+00   4.15472107E+01  -1.80922413E+01   4.15320778E+01   5.26379585E+00   4.47798347E+01   4.23309422E+00   6.36675739E+00
             3316                4   4.18929214E+01   4.60205917E+01   4.60205917E+01   4.02304029E+00   4.23309422E+00   4.60205917E+01   4.60205917E+01   4.23309422E+00   4.02304029E+00   4.19975510E+01  -1.80922413E+01   4.18917351E+01   5.05353451E+00   4.49900970E+01   4.23309422E+00   6.49741077E+00
             3317                1   3.43255768E+01   3.97474518E+01   3.97474518E+01   3.84754395E+00   7.24956322E+00   3.97474518E+01   3.97474518E+01   7.24956322E+00   3.84754395E+00   3.58999100E+01  -1.69481869E+01   3.39431801E+01   6.66162252E+00   3.69333763E+01   7.24956322E+00   9.64915085E+00
             3317                2   3.44938812E+01   3.98546791E+01   3.98546791E+01   3.74031806E+00   7.24956322E+00   3.98546791E+01   3.98546791E+01   7.24956322E+00   3.74031806E+00   3.61143608E+01  -1.69481869E+01   3.40888062E+01   6.44902182E+00   3.71459770E+01   7.24956322E+00   9.51241398E+00
             3317                3   3.46821404E+01   3.99744873E+01   3.99744873E+01   3.62051439E+00   7.24956322E+00   3.99744873E+01   3.99744873E+01   7.24956322E+00   3.62051439E+00   3.63539734E+01  -1.69481888E+01   3.42510643E+01   6.52622843E+00   3.70687714E+01   7.24956322E+00   9.85855389E+00
             3317                4   3.48463287E+01   4.00788574E+01   4.00788574E+01   3.51614261E+00   7.24956322E+00   4.00788574E+01   4.00788574E+01   7.24956322E+00   3.51614261E+00   3.65627174E+01  -1.69481888E+01   3.43920479E+01   6.31652308E+00   3.72784767E+01   7.24956322E+00   9.72354889E+00
             3318                1   3.00031548E+01   2.37125835E+01   2.37125835E+01  -5.57295978E-01  -9.83307838E+00   2.37125835E+01   2.37125835E+01  -5.57295978E-01  -9.83307838E+00   3.35456619E+01  -4.44073629E+00   2.64767933E+01   8.97568405E-01   2.22577190E+01  -9.83307838E+00   5.76131392E+00
             3318                2   3.05200768E+01   2.41349258E+01   2.41349258E+01  -9.79639292E-01  -9.83307838E+00   2.41349258E+01   2.41349258E+01  -9.79639292E-01  -9.83307838E+00   3.39680061E+01  -4.44073629E+00   2.73997822E+01   4.69735444E-01   2.26855507E+01  -9.83307838E+00   5.85659838E+00
             3318                3   3.01391907E+01   2.38244362E+01   2.38244362E+01  -6.69149637E-01  -9.83307838E+00   2.38244362E+01   2.38244362E+01  -6.69149637E-01  -9.83307838E+00   3.36575165E+01  -4.44073629E+00   2.67243557E+01   1.00877941E+00   2.21465073E+01  -9.83307838E+00   6.18733025E+00
             3318                4   3.06540470E+01   2.42432346E+01   2.42432346E+01  -1.08794773E+00  -9.83307838E+00   2.42432346E+01   2.42432346E+01  -1.08794773E+00  -9.83307838E+00   3.40763130E+01  -4.44073629E+00   2.76315460E+01   5.81660092E-01   2.25736275E+01  -9.83307838E+00   6.28534269E+00
             3319                1   3.05166321E+01   3.88492508E+01   3.88492508E+01   6.90021610E+00   1.00019207E+01   3.88492508E+01   3.88492508E+01   1.00019207E+01   6.90021610E+00   3.19490337E+01  -1.85837955E+01   3.01589375E+01   1.04844513E+01   3.52650146E+01   1.00019207E+01   1.00829611E+01
             3319                2   3.07778912E+01   3.90154610E+01   3.90154610E+01   6.73400545E+00   1.00019207E+01   3.90154610E+01   3.90154610E+01   1.00019207E+01   6.73400545E+00   3.22814560E+01  -1.85837955E+01   3.03838959E+01   1.02492733E+01   3.55001945E+01   1.00019207E+01   1.00558853E+01
             3319                3   3.07821770E+01   3.90181847E+01   3.90181847E+01   6.73128080E+00   1.00019207E+01   3.90181847E+01   3.90181847E+01   1.00019207E+01   6.73128080E+00   3.22869034E+01  -1.85837955E+01   3.03875732E+01   1.04566622E+01   3.52928047E+01   1.00019207E+01   1.03151608E+01
             3319                4   3.10417652E+01   3.91830330E+01   3.91830330E+01   6.56643343E+00   1.00019207E+01   3.91830330E+01   3.91830330E+01   1.00019207E+01   6.56643343E+00   3.26166000E+01  -1.85837955E+01   3.06096764E+01   1.02214479E+01   3.55280190E+01   1.00019207E+01   1.02885857E+01
             3320                1   3.88950539E+01   4.52792664E+01   4.52792664E+01   6.25204563E+00   6.51773882E+00   4.52792664E+01   4.52792664E+01   6.51773882E+00   6.25204563E+00   3.90272179E+01  -1.93496838E+01   3.88930130E+01   6.90485144E+00   4.46264610E+01   6.51773882E+00   5.00509596E+00
             3320                2   3.85043411E+01   4.50192451E+01   4.50192451E+01   6.51206684E+00   6.51773882E+00   4.50192451E+01   4.50192451E+01   6.51773882E+00   6.51206684E+00   3.85071793E+01  -1.93496838E+01   3.85043411E+01   7.14691877E+00   4.43843918E+01   6.51773882E+00   4.90340090E+00
             3320                3   3.89496918E+01   4.53155594E+01   4.53155594E+01   6.21575260E+00   6.51773882E+00   4.53155594E+01   4.53155594E+01   6.51773882E+00   6.21575260E+00   3.90998039E+01  -1.93496838E+01   3.89470558E+01   6.81017351E+00   4.47211380E+01   6.51773882E+00   4.78418064E+00
             3320                4   3.85636215E+01   4.50587502E+01   4.50587502E+01   6.47256088E+00   6.51773882E+00   4.50587502E+01   4.50587502E+01   6.51773882E+00   6.47256088E+00   3.85861893E+01  -1.93496838E+01   3.85635605E+01   7.05003309E+00   4.44812775E+01   6.51773882E+00   4.68497610E+00
             3321                1   4.59584465E+01   4.70829277E+01   4.70829277E+01   1.13465416E+00   1.11431730E+00   4.70829277E+01   4.70829277E+01   1.13465416E+00   1.11431730E+00   4.59686127E+01  -1.64439678E+01   4.59584351E+01   2.49143934E+00   4.57261429E+01   1.11431730E+00   7.77824497E+00
             3321                2   4.58134308E+01   4.69861794E+01   4.69861794E+01   1.23140419E+00   1.11431730E+00   4.69861794E+01   4.69861794E+01   1.23140419E+00   1.11431730E+00   4.58718605E+01  -1.64439678E+01   4.58130913E+01   2.65084481E+00   4.55667381E+01   1.11431730E+00   7.93292904E+00
             3321                3   4.56338463E+01   4.68662224E+01   4.68662224E+01   1.35135961E+00   1.11431730E+00   4.68662224E+01   4.68662224E+01   1.35135961E+00   1.11431730E+00   4.57519073E+01  -1.64439678E+01   4.56324577E+01   2.66503406E+00   4.55525475E+01   1.11431730E+00   7.62010670E+00
             3321                4   4.54933281E+01   4.67722473E+01   4.67722473E+01   1.44533420E+00   1.11431730E+00   4.67722473E+01   4.67722473E+01   1.44533420E+00   1.11431730E+00   4.56579323E+01  -1.64439678E+01   4.54906120E+01   2.81759477E+00   4.53999863E+01   1.11431730E+00   7.76642179E+00
             3322                1   2.70188904E+01   3.80578728E+01   3.80578728E+01   9.68871212E+00   1.26299152E+01   3.80578728E+01   3.80578728E+01   1.26299152E+01   9.68871212E+00   2.83691616E+01  -2.01255016E+01   2.66551590E+01   1.29373140E+01   3.48092728E+01   1.26299152E+01   9.03364086E+00
             3322                2   2.67378578E+01   3.78792381E+01   3.78792381E+01   9.86734772E+00   1.26299152E+01   3.78792381E+01   3.78792381E+01   1.26299152E+01   9.86734772E+00   2.80118904E+01  -2.01255016E+01   2.64139118E+01   1.31240168E+01   3.46225700E+01   1.26299152E+01   8.97883797E+00
             3322                3   2.68999424E+01   3.79823151E+01   3.79823151E+01   9.76427174E+00   1.26299152E+01   3.79823151E+01   3.79823151E+01   1.26299152E+01   9.76427174E+00   2.82180424E+01  -2.01255016E+01   2.65532780E+01   1.28830500E+01   3.48635368E+01   1.26299152E+01   8.84754276E+00
             3322                4   2.66177692E+01   3.78027840E+01   3.78027840E+01   9.94380283E+00   1.26299152E+01   3.78027840E+01   3.78027840E+01   1.26299152E+01   9.94380283E+00   2.78589802E+01  -2.01255016E+01   2.63102512E+01   1.30698175E+01   3.46767693E+01   1.26299152E+01   8.79292870E+00
             3323                1   3.69547958E+01   3.00925083E+01   3.00925083E+01  -1.93890142E+00  -1.03393507E+01   3.00925083E+01   3.00925083E+01  -1.93890142E+00  -1.03393507E+01   4.04318581E+01  -5.93808508E+00   3.47076759E+01   1.77126241E+00   2.63823433E+01  -1.03393507E+01   1.02506819E+01
             3323                2   3.76420822E+01   3.06174355E+01   3.06174355E+01  -2.46383142E+00  -1.03393507E+01   3.06174355E+01   3.06174355E+01  -2.46383142E+00  -1.03393507E+01   4.09567871E+01  -5.93808508E+00   3.57171898E+01   1.19964576E+00   2.69539585E+01  -1.03393507E+01   1.03813009E+01
             3323                3   3.73304329E+01   3.03803062E+01   3.03803062E+01  -2.22670197E+00  -1.03393507E+01   3.03803062E+01   3.03803062E+01  -2.22670197E+00  -1.03393507E+01   4.07196579E+01  -5.93808508E+00   3.52642860E+01   1.92223907E+00   2.62313652E+01  -1.03393507E+01   1.08660412E+01
             3323                4   3.80051804E+01   3.08919258E+01   3.08919258E+01  -2.73832083E+00  -1.03393507E+01   3.08919258E+01   3.08919258E+01  -2.73832083E+00  -1.03393507E+01   4.12312775E+01  -5.93808508E+00   3.62353363E+01   1.35026884E+00   2.68033352E+01  -1.03393507E+01   1.09901648E+01
             3324                1   1.10676361E+02   1.20226036E+02   1.20226036E+02   9.33414841E+00   9.76646614E+00   1.20226036E+02   1.20226036E+02   9.76646614E+00   9.33414841E+00   1.10891884E+02  -4.64422150E+01   1.10674469E+02   9.80290127E+00   1.19757286E+02   9.76646614E+00   7.19450283E+00
             3324                2   1.10554451E+02   1.20144905E+02   1.20144905E+02   9.41527748E+00   9.76646614E+00   1.20144905E+02   1.20144905E+02   9.76646614E+00   9.41527748E+00   1.10729630E+02  -4.64422150E+01   1.10553207E+02   9.89266682E+00   1.19667519E+02   9.76646614E+00   7.25487280E+00
             3324                3   1.10573692E+02   1.20157715E+02   1.20157715E+02   9.40246964E+00   9.76646614E+00   1.20157715E+02   1.20157715E+02   9.76646614E+00   9.40246964E+00   1.10755241E+02  -4.64422150E+01   1.10572357E+02   9.85998344E+00   1.19700203E+02   9.76646614E+00   7.10369825E+00
             3324                4   1.10451485E+02   1.20076363E+02   1.20076363E+02   9.48381996E+00   9.76646614E+00   1.20076363E+02   1.20076363E+02   9.76646614E+00   9.48381996E+00   1.10592545E+02  -4.64422150E+01   1.10450676E+02   9.94987679E+00   1.19610306E+02   9.76646614E+00   7.16414833E+00
             3325                1   3.34000664E+01   3.99237709E+01   3.99237709E+01   4.76821518E+00   8.61174583E+00   3.99237709E+01   3.99237709E+01   8.61174583E+00   4.76821518E+00   3.51555557E+01  -1.77679119E+01   3.28970070E+01   8.09928703E+00   3.65927010E+01   8.61174583E+00   1.02960968E+01
             3325                2   3.36046562E+01   4.00532722E+01   4.00532722E+01   4.63871336E+00   8.61174583E+00   4.00532722E+01   4.00532722E+01   8.61174583E+00   4.63871336E+00   3.54145584E+01  -1.77679119E+01   3.30700645E+01   7.82978916E+00   3.68621979E+01   8.61174583E+00   1.01403923E+01
             3325                3   3.38481216E+01   4.02071762E+01   4.02071762E+01   4.48480892E+00   8.61174583E+00   4.02071762E+01   4.02071762E+01   8.61174583E+00   4.48480892E+00   3.57223701E+01  -1.77679119E+01   3.32750320E+01   7.94322634E+00   3.67487602E+01   8.61174583E+00   1.05632477E+01
             3325                4   3.40481300E+01   4.03334465E+01   4.03334465E+01   4.35853910E+00   8.61174583E+00   4.03334465E+01   4.03334465E+01   8.61174583E+00   4.35853910E+00   3.59749069E+01  -1.77679119E+01   3.34426346E+01   7.67487383E+00   3.70171127E+01   8.61174583E+00   1.04070530E+01
             3326                1   5.85772362E+01   5.30585823E+01   5.30585823E+01  -4.31788206E+00  -6.64978504E+00   5.30585823E+01   5.30585823E+01  -4.31788206E+00  -6.64978504E+00   5.97083664E+01  -1.40303049E+01   5.84726677E+01  -1.72360897E+00   5.04643097E+01  -6.64978504E+00   1.19214058E+01
             3326                2   5.91068039E+01   5.34183884E+01   5.34183884E+01  -4.67768526E+00  -6.64978504E+00   5.34183884E+01   5.34183884E+01  -4.67768526E+00  -6.64978504E+00   6.00681725E+01  -1.40303068E+01   5.90327110E+01  -2.18760729E+00   5.09283104E+01  -6.64978504E+00   1.17670431E+01
             3326                3   5.89290199E+01   5.32977371E+01   5.32977371E+01  -4.55703211E+00  -6.64978504E+00   5.32977371E+01   5.32977371E+01  -4.55703211E+00  -6.64978504E+00   5.99475212E+01  -1.40303068E+01   5.88453255E+01  -1.78693485E+00   5.05276375E+01  -6.64978504E+00   1.23527308E+01
             3326                4   5.94822845E+01   5.36727600E+01   5.36727600E+01  -4.93205500E+00  -6.64978504E+00   5.36727600E+01   5.36727600E+01  -4.93205500E+00  -6.64978504E+00   6.03225441E+01  -1.40303068E+01   5.94264374E+01  -2.25882101E+00   5.09995232E+01  -6.64978504E+00   1.22277660E+01
             3327                1   2.58205757E+01   3.75239677E+01   3.75239677E+01   1.00746193E+01   1.37195110E+01   3.75239677E+01   3.75239677E+01   1.37195110E+01   1.00746193E+01   2.74493484E+01  -2.04393673E+01   2.52320404E+01   1.37917814E+01   3.38068047E+01   1.37195110E+01   9.39235878E+00
             3327                2   2.55784168E+01   3.73719788E+01   3.73719788E+01   1.02266073E+01   1.37195110E+01   3.73719788E+01   3.73719788E+01   1.37195110E+01   1.02266073E+01   2.71453724E+01  -2.04393673E+01   2.50334187E+01   1.39616032E+01   3.36369820E+01   1.37195110E+01   9.35081100E+00
             3327                3   2.56847820E+01   3.74387703E+01   3.74387703E+01   1.01598167E+01   1.37195110E+01   3.74387703E+01   3.74387703E+01   1.37195110E+01   1.01598167E+01   2.72789536E+01  -2.04393673E+01   2.51208172E+01   1.37505341E+01   3.38480530E+01   1.37195110E+01   9.22267628E+00
             3327                4   2.54413013E+01   3.72858009E+01   3.72858009E+01   1.03127813E+01   1.37195110E+01   3.72858009E+01   3.72858009E+01   1.37195110E+01   1.03127813E+01   2.69730206E+01  -2.04393635E+01   2.49203949E+01   1.39203806E+01   3.36782036E+01   1.37195110E+01   9.18112469E+00
             3328                1   2.50513725E+01   3.80027733E+01   3.80027733E+01   1.17701435E+01   1.43290882E+01   3.80027733E+01   3.80027733E+01   1.43290882E+01   1.17701435E+01   2.62326317E+01  -2.13673344E+01   2.47547760E+01   1.43665409E+01   3.54063797E+01   1.43290882E+01   7.83383846E+00
             3328                2   2.47344532E+01   3.78007278E+01   3.78007278E+01   1.19721899E+01   1.43290882E+01   3.78007278E+01   3.78007278E+01   1.43290882E+01   1.19721899E+01   2.58285389E+01  -2.13673344E+01   2.44799042E+01   1.45714798E+01   3.52014389E+01   1.43290882E+01   7.77042770E+00
             3328                3   2.49414215E+01   3.79327393E+01   3.79327393E+01   1.18401775E+01   1.43290882E+01   3.79327393E+01   3.79327393E+01   1.43290882E+01   1.18401775E+01   2.60925636E+01  -2.13673344E+01   2.46597080E+01   1.43033018E+01   3.54696159E+01   1.43290882E+01   7.62904072E+00
             3328                4   2.46230564E+01   3.77295723E+01   3.77295723E+01   1.20433445E+01   1.43290882E+01   3.77295723E+01   3.77295723E+01   1.43290882E+01   1.20433445E+01   2.56862297E+01  -2.13673344E+01   2.43826542E+01   1.45083122E+01   3.52646065E+01   1.43290882E+01   7.56568956E+00
             3329                1   3.00562153E+01   4.01043625E+01   4.01043625E+01   9.41458035E+00   1.07245512E+01   4.01043625E+01   4.01043625E+01   1.07245512E+01   9.41458035E+00   3.06897831E+01  -2.00811653E+01   2.99918823E+01   1.11456051E+01   3.83733368E+01   1.07245512E+01   7.08013725E+00
             3329                2   3.00919819E+01   4.01277122E+01   4.01277122E+01   9.39123154E+00   1.07245512E+01   4.01277122E+01   4.01277122E+01   1.07245512E+01   9.39123154E+00   3.07364807E+01  -2.00811653E+01   3.00254135E+01   1.12329321E+01   3.82860107E+01   1.07245512E+01   7.29489851E+00
             3329                3   2.97021637E+01   3.98728142E+01   3.98728142E+01   9.64612770E+00   1.07245512E+01   3.98728142E+01   3.98728142E+01   1.07245512E+01   9.64612770E+00   3.02266884E+01  -2.00811653E+01   2.96580639E+01   1.13604307E+01   3.81585121E+01   1.07245512E+01   6.99134398E+00
             3329                4   2.97381382E+01   3.98963776E+01   3.98963776E+01   9.62256241E+00   1.07245512E+01   3.98963776E+01   3.98963776E+01   1.07245512E+01   9.62256241E+00   3.02738152E+01  -2.00811634E+01   2.96921463E+01   1.14479914E+01   3.80709496E+01   1.07245512E+01   7.20628166E+00
             3330                1   2.48171558E+01   3.80747910E+01   3.80747910E+01   1.22002563E+01   1.44710999E+01   3.80747910E+01   3.80747910E+01   1.44710999E+01   1.22002563E+01   2.58745346E+01  -2.15820484E+01   2.45817833E+01   1.44316235E+01   3.58434258E+01   1.44710999E+01   7.26337099E+00
             3330                2   2.49247284E+01   3.81435394E+01   3.81435394E+01   1.21315060E+01   1.44710999E+01   3.81435394E+01   3.81435394E+01   1.44710999E+01   1.21315060E+01   2.60120354E+01  -2.15820484E+01   2.46758747E+01   1.44956341E+01   3.57794151E+01   1.44710999E+01   7.47707510E+00
             3330                3   2.44848289E+01   3.78619652E+01   3.78619652E+01   1.24130821E+01   1.44710999E+01   3.78619652E+01   3.78619652E+01   1.44710999E+01   1.24130821E+01   2.54488831E+01  -2.15820484E+01   2.42890949E+01   1.46453638E+01   3.56296844E+01   1.44710999E+01   7.19902658E+00
             3330                4   2.45938034E+01   3.79318275E+01   3.79318275E+01   1.23432207E+01   1.44710999E+01   3.79318275E+01   3.79318275E+01   1.44710999E+01   1.23432207E+01   2.55886059E+01  -2.15820484E+01   2.43854084E+01   1.47094622E+01   3.55655861E+01   1.44710999E+01   7.41280651E+00
             3331                1   3.15381050E+01   3.93300476E+01   3.93300476E+01   6.74400711E+00   8.95638371E+00   3.93300476E+01   3.93300476E+01   8.95638371E+00   6.74400711E+00   3.25860405E+01  -1.83434792E+01   3.13628063E+01   9.59472656E+00   3.64793282E+01   8.95638371E+00   9.20690250E+00
             3331                2   3.16684647E+01   3.94141159E+01   3.94141159E+01   6.65993834E+00   8.95638371E+00   3.94141159E+01   3.94141159E+01   8.95638371E+00   6.65993834E+00   3.27541771E+01  -1.83434792E+01   3.14803143E+01   9.63480759E+00   3.64392471E+01   8.95638371E+00   9.41220188E+00
             3331                3   3.12388210E+01   3.91367073E+01   3.91367073E+01   6.93734169E+00   8.95638371E+00   3.91367073E+01   3.91367073E+01   8.95638371E+00   6.93734169E+00   3.21993675E+01  -1.83434772E+01   3.10915127E+01   9.80072117E+00   3.62733307E+01   8.95638371E+00   9.16515350E+00
             3331                4   3.13703022E+01   3.92217064E+01   3.92217064E+01   6.85235023E+00   8.95638371E+00   3.92217064E+01   3.92217064E+01   8.95638371E+00   6.85235023E+00   3.23693542E+01  -1.83434792E+01   3.12109585E+01   9.84087753E+00   3.62331772E+01   8.95638371E+00   9.37045383E+00
             3332                1   1.94931259E+02   2.23846786E+02   2.23846786E+02   1.83001575E+01   4.16308250E+01   2.23846786E+02   2.23846786E+02   4.16308250E+01   1.83001575E+01   2.05546631E+02  -9.45925903E+01   1.91752380E+02   2.01061077E+01   2.22040833E+02   4.16308250E+01   1.91819134E+01
             3332                2   1.96284409E+02   2.24363297E+02   2.24363297E+02   1.51403599E+01   4.42741051E+01   2.24363297E+02   2.24363297E+02   4.42741051E+01   1.51403599E+01   2.09222946E+02  -9.45925903E+01   1.91329239E+02   1.75904770E+01   2.21913177E+02   4.42741051E+01   2.25082016E+01
             3332                3   1.94103821E+02   2.23466278E+02   2.23466278E+02   2.00343590E+01   4.02771149E+01   2.23466278E+02   2.23466278E+02   4.02771149E+01   2.00343590E+01   2.03431915E+02  -9.45925903E+01   1.91707458E+02   2.34397087E+01   2.20060928E+02   4.02771149E+01   2.60990620E+01
             3332                4   1.95500153E+02   2.24026794E+02   2.24026794E+02   1.66394501E+01   4.31115189E+01   2.24026794E+02   2.24026794E+02   4.31115189E+01   1.66394501E+01   2.07387344E+02  -9.45925903E+01   1.91405609E+02   2.08242779E+01   2.19841965E+02   4.31115189E+01   2.91610699E+01
             3333                1   3.86980591E+01   4.34363098E+01   4.34363098E+01   4.49290848E+00   4.98835230E+00   4.34363098E+01   4.34363098E+01   4.98835230E+00   4.49290848E+00   3.89434013E+01  -1.76391907E+01   3.86909180E+01   6.11540556E+00   4.18138123E+01   4.98835230E+00   7.78158522E+00
             3333                2   3.83585701E+01   4.32110939E+01   4.32110939E+01   4.71812201E+00   4.98835230E+00   4.32110939E+01   4.32110939E+01   4.98835230E+00   4.71812201E+00   3.84929695E+01  -1.76391888E+01   3.83564262E+01   6.30677986E+00   4.16224365E+01   4.98835230E+00   7.65690899E+00
             3333                3   3.87542076E+01   4.34734993E+01   4.34734993E+01   4.45572042E+00   4.98835230E+00   4.34734993E+01   4.34734993E+01   4.98835230E+00   4.45572042E+00   3.90177765E+01  -1.76391907E+01   3.87459679E+01   5.99339008E+00   4.19358292E+01   4.98835230E+00   7.59157419E+00
             3333                4   3.84157219E+01   4.32490540E+01   4.32490540E+01   4.68016529E+00   4.98835230E+00   4.32490540E+01   4.32490540E+01   4.98835230E+00   4.68016529E+00   3.85688858E+01  -1.76391907E+01   3.84129372E+01   6.18432903E+00   4.17448883E+01   4.98835230E+00   7.46668911E+00
             3334                1   3.24723206E+01   2.54811420E+01   2.54811420E+01  -1.73744726E+00  -1.04622707E+01   2.54811420E+01   2.54811420E+01  -1.73744726E+00  -1.04622707E+01   3.59434128E+01  -4.42714119E+00   2.96585560E+01   9.62262928E-01   2.27814312E+01  -1.04622707E+01   8.13596153E+00
             3334                2   3.19118176E+01   2.50317764E+01   2.50317764E+01  -1.28808224E+00  -1.04622707E+01   2.50317764E+01   2.50317764E+01  -1.28808224E+00  -1.04622707E+01   3.54940491E+01  -4.42714119E+00   2.87124214E+01   1.45454121E+00   2.22891521E+01  -1.04622707E+01   8.04136181E+00
             3334                3   3.22337570E+01   2.52907677E+01   2.52907677E+01  -1.54707491E+00  -1.04622707E+01   2.52907677E+01   2.52907677E+01  -1.54707491E+00  -1.04622707E+01   3.57530365E+01  -4.42714071E+00   2.92613258E+01   8.40898752E-01   2.29027939E+01  -1.04622707E+01   7.64104939E+00
             3334                4   3.16685352E+01   2.48344002E+01   2.48344002E+01  -1.09070516E+00  -1.04622707E+01   2.48344002E+01   2.48344002E+01  -1.09070516E+00  -1.04622707E+01   3.52966690E+01  -4.42714119E+00   2.82871056E+01   1.33387101E+00   2.24098225E+01  -1.04622707E+01   7.54843283E+00
             3335                1   4.32464752E+01   4.50668297E+01   4.50668297E+01   1.76943910E+00   1.87144876E+00   4.50668297E+01   4.50668297E+01   1.87144876E+00   1.76943910E+00   4.32973900E+01  -1.62359066E+01   4.32462082E+01   3.35155559E+00   4.34847145E+01   1.87144876E+00   8.12393951E+00
             3335                2   4.31166420E+01   4.49803314E+01   4.49803314E+01   1.85593700E+00   1.87144876E+00   4.49803314E+01   4.49803314E+01   1.87144876E+00   1.85593700E+00   4.31243973E+01  -1.62359066E+01   4.31166382E+01   3.51084280E+00   4.33254280E+01   1.87144876E+00   8.28420448E+00
             3335                3   4.29345932E+01   4.48589058E+01   4.48589058E+01   1.97736847E+00   1.87144876E+00   4.48589058E+01   4.48589058E+01   1.97736847E+00   1.87144876E+00   4.29874573E+01  -1.62359066E+01   4.29342995E+01   3.51163316E+00   4.33246384E+01   1.87144876E+00   7.96478033E+00
             3335                4   4.28039246E+01   4.47716370E+01   4.47716370E+01   2.06463075E+00   1.87144876E+00   4.47716370E+01   4.47716370E+01   2.06463075E+00   1.87144876E+00   4.29001884E+01  -1.62359066E+01   4.28029442E+01   3.67068076E+00   4.31655884E+01   1.87144876E+00   8.12466621E+00
             3336                1   3.70237694E+01   4.09154282E+01   4.09154282E+01   3.39258647E+00   4.41177225E+00   4.09154282E+01   4.09154282E+01   4.41177225E+00   3.39258647E+00   3.75228424E+01  -1.62399292E+01   3.69921875E+01   5.54042292E+00   3.87675896E+01   4.41177225E+00   8.71663761E+00
             3336                2   3.70337982E+01   4.09220238E+01   4.09220238E+01   3.38599133E+00   4.41177225E+00   4.09220238E+01   4.09220238E+01   4.41177225E+00   3.38599133E+00   3.75360298E+01  -1.62399292E+01   3.70018120E+01   5.61791182E+00   3.86901016E+01   4.41177225E+00   8.87670994E+00
             3336                3   3.67535896E+01   4.07375069E+01   4.07375069E+01   3.57050586E+00   4.41177225E+00   4.07375069E+01   4.07375069E+01   4.41177225E+00   3.57050586E+00   3.71670036E+01  -1.62399292E+01   3.67319145E+01   5.69989252E+00   3.86081200E+01   4.41177225E+00   8.63763142E+00
             3336                4   3.67636833E+01   4.07441635E+01   4.07441635E+01   3.56385183E+00   4.41177225E+00   4.07441635E+01   4.07441635E+01   4.41177225E+00   3.56385183E+00   3.71803093E+01  -1.62399292E+01   3.67416725E+01   5.77725935E+00   3.85307541E+01   4.41177225E+00   8.79750061E+00
             3337                1   5.29235268E+01   4.61881638E+01   4.61881638E+01  -3.89908934E+00  -9.17624950E+00   4.61881638E+01   4.61881638E+01  -3.89908934E+00  -9.17624950E+00   5.53644142E+01  -1.10376081E+01   5.23266869E+01   1.46037161E+00   4.08287010E+01  -9.17624950E+00   1.54827938E+01
             3337                2   5.38013687E+01   4.68040848E+01   4.68040848E+01  -4.51501083E+00  -9.17624950E+00   4.68040848E+01   4.68040848E+01  -4.51501083E+00  -9.17624950E+00   5.59803352E+01  -1.10376081E+01   5.33442421E+01   7.39502013E-01   4.15495720E+01  -9.17624950E+00   1.55578575E+01
             3337                3   5.34582176E+01   4.65638924E+01   4.65638924E+01  -4.27482033E+00  -9.17624950E+00   4.65638924E+01   4.65638924E+01  -4.27482033E+00  -9.17624950E+00   5.57401390E+01  -1.10376062E+01   5.29491425E+01   1.55835426E+00   4.07307167E+01  -9.17624950E+00   1.62026272E+01
             3337                4   5.43308907E+01   4.71733398E+01   4.71733398E+01  -4.88426542E+00  -9.17624950E+00   4.71733398E+01   4.71733398E+01  -4.88426542E+00  -9.17624950E+00   5.63495903E+01  -1.10376081E+01   5.39475021E+01   8.34704876E-01   4.14543686E+01  -9.17624950E+00   1.62791061E+01
             3338                1   3.64180717E+01   4.37255898E+01   4.37255898E+01   7.07834291E+00   7.54110241E+00   4.37255898E+01   4.37255898E+01   7.54110241E+00   7.07834291E+00   3.66472473E+01  -1.94483452E+01   3.64114571E+01   7.94897604E+00   4.28549576E+01   7.54110241E+00   5.58106279E+00
             3338                2   3.63803940E+01   4.37006226E+01   4.37006226E+01   7.10330820E+00   7.54110241E+00   4.37006226E+01   4.37006226E+01   7.54110241E+00   7.10330820E+00   3.65973167E+01  -1.94483452E+01   3.63744659E+01   8.04818630E+00   4.27557449E+01   7.54110241E+00   5.80407047E+00
             3338                3   3.60484276E+01   4.34803009E+01   4.34803009E+01   7.32363081E+00   7.54110241E+00   4.34803009E+01   4.34803009E+01   7.54110241E+00   7.32363081E+00   3.61566696E+01  -1.94483452E+01   3.60469513E+01   8.17360783E+00   4.26303253E+01   7.54110241E+00   5.47812462E+00
             3338                4   3.60104370E+01   4.34550476E+01   4.34550476E+01   7.34888411E+00   7.54110241E+00   4.34550476E+01   4.34550476E+01   7.54110241E+00   7.34888411E+00   3.61061630E+01  -1.94483452E+01   3.60092850E+01   8.27268791E+00   4.25312462E+01   7.54110241E+00   5.70101166E+00
             3339                1   2.96418037E+01   3.96360779E+01   3.96360779E+01   9.39837742E+00   1.06284695E+01   3.96360779E+01   3.96360779E+01   1.06284695E+01   9.39837742E+00   3.02376995E+01  -1.98876419E+01   2.95842934E+01   1.13083305E+01   3.77261238E+01   1.06284695E+01   7.35558844E+00
             3339                2   2.99878922E+01   3.98618927E+01   3.98618927E+01   9.17256355E+00   1.06284695E+01   3.98618927E+01   3.98618927E+01   1.06284695E+01   9.17256355E+00   3.06893272E+01  -1.98876419E+01   2.99082203E+01   1.10980616E+01   3.79363937E+01   1.06284695E+01   7.44208860E+00
             3339                3   2.96860542E+01   3.96649895E+01   3.96649895E+01   9.36946392E+00   1.06284695E+01   3.96649895E+01   3.96649895E+01   1.06284695E+01   9.36946392E+00   3.02955265E+01  -1.98876419E+01   2.96258945E+01   1.13936892E+01   3.76407661E+01   1.06284695E+01   7.56488371E+00
             3339                4   3.00316067E+01   3.98903618E+01   3.98903618E+01   9.14409256E+00   1.06284695E+01   3.98903618E+01   3.98903618E+01   1.06284695E+01   9.14409256E+00   3.07462692E+01  -1.98876419E+01   2.99489002E+01   1.11834593E+01   3.78509941E+01   1.06284695E+01   7.65139961E+00
             3340                1   4.16778526E+01   4.43917236E+01   4.43917236E+01   2.58152342E+00   2.84749222E+00   4.43917236E+01   4.43917236E+01   2.84749222E+00   2.58152342E+00   4.18101997E+01  -1.66069126E+01   4.16759453E+01   4.18049240E+00   4.27927551E+01   2.84749222E+00   8.01851082E+00
             3340                2   4.15765343E+01   4.43243637E+01   4.43243637E+01   2.64888263E+00   2.84749222E+00   4.43243637E+01   4.43243637E+01   2.84749222E+00   2.64888263E+00   4.16754837E+01  -1.66069126E+01   4.15754662E+01   4.32513094E+00   4.26481171E+01   2.84749222E+00   8.18832302E+00
             3340                3   4.13590469E+01   4.41795921E+01   4.41795921E+01   2.79365754E+00   2.84749222E+00   4.41795921E+01   4.41795921E+01   2.84749222E+00   2.79365754E+00   4.13859367E+01  -1.66069145E+01   4.13589668E+01   4.34948587E+00   4.26237640E+01   2.84749222E+00   7.87203026E+00
             3340                4   4.12565460E+01   4.41112747E+01   4.41112747E+01   2.86197162E+00   2.84749222E+00   4.41112747E+01   4.41112747E+01   2.86197162E+00   2.84749222E+00   4.12637825E+01  -1.66069126E+01   4.12565384E+01   4.49443722E+00   4.24788094E+01   2.84749222E+00   8.04196262E+00
             3341                1   3.65912094E+01   4.40082474E+01   4.40082474E+01   7.22974348E+00   7.60725546E+00   4.40082474E+01   4.40082474E+01   7.60725546E+00   7.22974348E+00   3.67785034E+01  -1.96150818E+01   3.65868301E+01   8.03025246E+00   4.32077408E+01   7.60725546E+00   5.36662340E+00
             3341                2   3.62232170E+01   4.37637749E+01   4.37637749E+01   7.47421837E+00   7.60725546E+00   4.37637749E+01   4.37637749E+01   7.60725546E+00   7.47421837E+00   3.62895546E+01  -1.96150818E+01   3.62226715E+01   8.25692940E+00   4.29810638E+01   7.60725546E+00   5.27176762E+00
             3341                3   3.66270981E+01   4.40320511E+01   4.40320511E+01   7.20594549E+00   7.60725546E+00   4.40320511E+01   4.40320511E+01   7.60725546E+00   7.20594549E+00   3.68261032E+01  -1.96150837E+01   3.66221504E+01   7.93852139E+00   4.32994728E+01   7.60725546E+00   5.14210796E+00
             3341                4   3.62594528E+01   4.37878799E+01   4.37878799E+01   7.45011473E+00   7.60725546E+00   4.37878799E+01   4.37878799E+01   7.60725546E+00   7.45011473E+00   3.63377647E+01  -1.96150837E+01   3.62586861E+01   8.16505718E+00   4.30729370E+01   7.60725546E+00   5.04661322E+00
             3342                1   4.83222847E+01   4.30946999E+01   4.30946999E+01  -2.67785168E+00  -7.42666721E+00   4.30946999E+01   4.30946999E+01  -2.67785168E+00  -7.42666721E+00   5.05213661E+01  -1.09967270E+01   4.77930756E+01   1.06752834E+01   2.97415657E+01  -7.42666721E+00   2.08062687E+01
             3342                2   4.75200729E+01   4.25277672E+01   4.25277672E+01  -2.11091495E+00  -7.42666721E+00   4.25277672E+01   4.25277672E+01  -2.11091495E+00  -7.42666721E+00   4.99544334E+01  -1.09967279E+01   4.68441544E+01   1.16226721E+01   2.87941780E+01  -7.42666721E+00   2.06018887E+01
             3342                3   4.72474327E+01   4.23339882E+01   4.23339882E+01  -1.91713583E+00  -7.42666721E+00   4.23339882E+01   4.23339882E+01  -1.91713583E+00  -7.42666721E+00   4.97606544E+01  -1.09967279E+01   4.65164833E+01   1.04937649E+01   2.99230862E+01  -7.42666721E+00   1.98787785E+01
             3342                4   4.64028854E+01   4.17299614E+01   4.17299614E+01  -1.31310916E+00  -7.42666721E+00   4.17299614E+01   4.17299614E+01  -1.31310916E+00  -7.42666721E+00   4.91566277E+01  -1.09967279E+01   4.54835815E+01   1.14812174E+01   2.89356327E+01  -7.42666721E+00   1.96726284E+01
             3343                1   4.62604866E+01   4.64018059E+01   4.64018059E+01   2.55494565E-01   2.79794466E-02   4.64018059E+01   4.64018059E+01   2.55494565E-01   2.79794466E-02   4.63738251E+01  -1.55617599E+01   4.62592278E+01   1.84920800E+00   4.48080902E+01   2.79794466E-02   8.42639351E+00
             3343                2   4.60772438E+01   4.62792549E+01   4.62792549E+01   3.78043354E-01   2.79794466E-02   4.62792549E+01   4.62792549E+01   3.78043354E-01   2.79794466E-02   4.62512779E+01  -1.55617599E+01   4.60742493E+01   2.03508306E+00   4.46222153E+01   2.79794466E-02   8.56238174E+00
             3343                3   4.59505424E+01   4.61944237E+01   4.61944237E+01   4.62873727E-01   2.79794466E-02   4.61944237E+01   4.61944237E+01   4.62873727E-01   2.79794466E-02   4.61664467E+01  -1.55617599E+01   4.59459114E+01   1.99914539E+00   4.46581535E+01   2.79794466E-02   8.23990059E+00
             3343                4   4.57727203E+01   4.60752296E+01   4.60752296E+01   5.82068264E-01   2.79794466E-02   4.60752296E+01   4.60752296E+01   5.82068264E-01   2.79794466E-02   4.60472527E+01  -1.55617599E+01   4.57651749E+01   2.17835617E+00   4.44789429E+01   2.79794466E-02   8.37090492E+00
             3344                1   3.26640663E+01   4.24429779E+01   4.24429779E+01   9.53331566E+00   1.00301733E+01   4.24429779E+01   4.24429779E+01   1.00301733E+01   9.53331566E+00   3.29096603E+01  -2.06688213E+01   3.26555634E+01   1.02634935E+01   4.17127991E+01   1.00301733E+01   4.84734154E+00
             3344                2   3.22813530E+01   4.21892662E+01   4.21892662E+01   9.78702927E+00   1.00301733E+01   4.21892662E+01   4.21892662E+01   1.00301733E+01   9.78702927E+00   3.24022369E+01  -2.06688232E+01   3.22792892E+01   1.05044041E+01   4.14718895E+01   1.00301733E+01   4.76759529E+00
             3344                3   3.26712456E+01   4.24477272E+01   4.24477272E+01   9.52856827E+00   1.00301733E+01   4.24477272E+01   4.24477272E+01   1.00301733E+01   9.52856827E+00   3.29191589E+01  -2.06688232E+01   3.26625786E+01   1.01865301E+01   4.17897644E+01   1.00301733E+01   4.60723972E+00
             3344                4   3.22885857E+01   4.21940689E+01   4.21940689E+01   9.78222466E+00   1.00301733E+01   4.21940689E+01   4.21940689E+01   1.00301733E+01   9.78222466E+00   3.24118462E+01  -2.06688232E+01   3.22864418E+01   1.04277220E+01   4.15485725E+01   1.00301733E+01   4.52825785E+00
             3345                1   2.82573376E+01   3.89847755E+01   3.89847755E+01   9.82201672E+00   1.17295208E+01   3.89847755E+01   3.89847755E+01   1.17295208E+01   9.82201672E+00   2.91627598E+01  -2.01787720E+01   2.81119328E+01   1.20962515E+01   3.67105408E+01   1.17295208E+01   7.81990051E+00
             3345                2   2.83296280E+01   3.90314598E+01   3.90314598E+01   9.77533340E+00   1.17295208E+01   3.90314598E+01   3.90314598E+01   1.17295208E+01   9.77533340E+00   2.92561264E+01  -2.01787720E+01   2.81773815E+01   1.21728573E+01   3.66339340E+01   1.17295208E+01   8.02459717E+00
             3345                3   2.79259510E+01   3.87703934E+01   3.87703934E+01   1.00364017E+01   1.17295208E+01   3.87703934E+01   3.87703934E+01   1.17295208E+01   1.00364017E+01   2.87339897E+01  -2.01787720E+01   2.78101158E+01   1.23009777E+01   3.65058136E+01   1.17295208E+01   7.74222374E+00
             3345                4   2.79990788E+01   3.88177567E+01   3.88177567E+01   9.98903751E+00   1.17295208E+01   3.88177567E+01   3.88177567E+01   1.17295208E+01   9.98903751E+00   2.88287182E+01  -2.01787720E+01   2.78769760E+01   1.23776674E+01   3.64291267E+01   1.17295208E+01   7.94704771E+00
             3346                1   5.24363556E+01   4.92149658E+01   4.92149658E+01  -2.54900670E+00  -3.86885810E+00   4.92149658E+01   4.92149658E+01  -2.54900670E+00  -3.86885810E+00   5.30838242E+01  -1.42657003E+01   5.23989639E+01  -5.69222867E-01   4.72351799E+01  -3.86885810E+00   9.92783928E+00
             3346                2   5.21187477E+01   4.90002327E+01   4.90002327E+01  -2.33427787E+00  -3.86885810E+00   4.90002327E+01   4.90002327E+01  -2.33427787E+00  -3.86885810E+00   5.28690910E+01  -1.42656984E+01   5.20678787E+01  -4.53642011E-01   4.71195984E+01  -3.86885810E+00   9.64389133E+00
             3346                3   5.27697105E+01   4.94398270E+01   4.94398270E+01  -2.77386832E+00  -3.86885810E+00   4.94398270E+01   4.94398270E+01  -2.77386832E+00  -3.86885810E+00   5.33086853E+01  -1.42657003E+01   5.27441406E+01  -8.68381679E-01   4.75343399E+01  -3.86885810E+00   9.79089546E+00
             3346                4   5.24748116E+01   4.92409286E+01   4.92409286E+01  -2.57497168E+00  -3.86885810E+00   4.92409286E+01   4.92409286E+01  -2.57497168E+00  -3.86885810E+00   5.31097870E+01  -1.42657003E+01   5.24389000E+01  -7.67314732E-01   4.74332733E+01  -3.86885810E+00   9.50777245E+00
             3347                1   2.66273270E+01   3.83692780E+01   3.83692780E+01   1.06811237E+01   1.29476719E+01   3.83692780E+01   3.83692780E+01   1.29476719E+01   1.06811237E+01   2.76881523E+01  -2.06660233E+01   2.64089909E+01   1.31425343E+01   3.59078674E+01   1.29476719E+01   7.87993383E+00
             3347                2   2.67190323E+01   3.84280472E+01   3.84280472E+01   1.06223526E+01   1.29476719E+01   3.84280472E+01   3.84280472E+01   1.29476719E+01   1.06223526E+01   2.78056946E+01  -2.06660233E+01   2.64899521E+01   1.32121716E+01   3.58382301E+01   1.29476719E+01   8.08112240E+00
             3347                3   2.63075523E+01   3.81639709E+01   3.81639709E+01   1.08864298E+01   1.29476719E+01   3.81639709E+01   3.81639709E+01   1.29476719E+01   1.08864298E+01   2.72775402E+01  -2.06660233E+01   2.61249523E+01   1.33437290E+01   3.57066727E+01   1.29476719E+01   7.80965710E+00
             3347                4   2.64003487E+01   3.82236099E+01   3.82236099E+01   1.08267908E+01   1.29476719E+01   3.82236099E+01   3.82236099E+01   1.29476719E+01   1.08267908E+01   2.73968182E+01  -2.06660233E+01   2.62076569E+01   1.34134274E+01   3.56369743E+01   1.29476719E+01   8.01092339E+00
             3348                1   3.29845619E+01   3.97757607E+01   3.97757607E+01   5.87528896E+00   7.79056883E+00   3.97757607E+01   3.97757607E+01   7.79056883E+00   5.87528896E+00   3.39004745E+01  -1.78138733E+01   3.28591042E+01   8.52294254E+00   3.71281090E+01   7.79056883E+00   9.09651661E+00
             3348                2   3.30939407E+01   3.98466759E+01   3.98466759E+01   5.80437040E+00   7.79056883E+00   3.98466759E+01   3.98466759E+01   7.79056883E+00   5.80437040E+00   3.40423050E+01  -1.78138714E+01   3.29594383E+01   8.56727791E+00   3.70837708E+01   7.79056883E+00   9.29634666E+00
             3348                3   3.26856155E+01   3.95816154E+01   3.95816154E+01   6.06943655E+00   7.79056883E+00   3.95816154E+01   3.95816154E+01   7.79056883E+00   6.06943655E+00   3.35121765E+01  -1.78138733E+01   3.25834236E+01   8.72371674E+00   3.69273338E+01   7.79056883E+00   9.05016613E+00
             3348                4   3.27962112E+01   3.96534920E+01   3.96534920E+01   5.99755716E+00   7.79056883E+00   3.96534920E+01   3.96534920E+01   7.79056883E+00   5.99755716E+00   3.36559372E+01  -1.78138733E+01   3.26856613E+01   8.76806736E+00   3.68829842E+01   7.79056883E+00   9.25031662E+00
             3349                1   3.63471718E+01   3.94155159E+01   3.94155159E+01   2.35413909E+00   3.82734656E+00   3.94155159E+01   3.94155159E+01   3.82734656E+00   2.35413909E+00   3.70613747E+01  -1.51990004E+01   3.62799034E+01   4.35872984E+00   3.74109230E+01   3.82734656E+00   8.38298988E+00
             3349                2   3.64054222E+01   3.94535904E+01   3.94535904E+01   2.31606174E+00   3.82734656E+00   3.94535904E+01   3.94535904E+01   3.82734656E+00   2.31606174E+00   3.71375313E+01  -1.51990004E+01   3.63347435E+01   4.37138414E+00   3.73982697E+01   3.82734656E+00   8.49147987E+00
             3349                3   3.61825562E+01   3.93078156E+01   3.93078156E+01   2.46183705E+00   3.82734656E+00   3.93078156E+01   3.93078156E+01   3.82734656E+00   2.46183705E+00   3.68459778E+01  -1.51990004E+01   3.61245117E+01   4.47346067E+00   3.72961922E+01   3.82734656E+00   8.37099934E+00
             3349                4   3.62419090E+01   3.93466644E+01   3.93466644E+01   2.42298961E+00   3.82734656E+00   3.93466644E+01   3.93466644E+01   3.82734656E+00   2.42298961E+00   3.69236755E+01  -1.51990004E+01   3.61806107E+01   4.48556471E+00   3.72840881E+01   3.82734656E+00   8.47960186E+00
             3350                1   7.06073532E+01   7.10847549E+01   7.10847549E+01   4.33891028E-01   5.20984232E-01   7.10847549E+01   7.10847549E+01   5.20984232E-01   4.33891028E-01   7.06508636E+01  -2.40132084E+01   7.06072388E+01   2.06480179E+01   5.08706245E+01   5.20984232E-01   3.19301529E+01
             3350                2   7.00754929E+01   7.07299500E+01   7.07299500E+01   7.88697064E-01   5.20984232E-01   7.07299500E+01   7.07299500E+01   7.88697064E-01   5.20984232E-01   7.02089615E+01  -2.40132084E+01   7.00743408E+01   2.15486622E+01   4.99699821E+01   5.20984232E-01   3.19531193E+01
             3350                3   6.94666443E+01   7.03226624E+01   7.03226624E+01   1.19598150E+00   5.20984232E-01   7.03226624E+01   7.03226624E+01   1.19598150E+00   5.20984232E-01   6.98016815E+01  -2.40132084E+01   6.94592590E+01   2.05825577E+01   5.09360847E+01   5.20984232E-01   3.10530262E+01
             3350                4   6.89448013E+01   6.99726028E+01   6.99726028E+01   1.54604590E+00   5.20984232E-01   6.99726028E+01   6.99726028E+01   1.54604590E+00   5.20984232E-01   6.94516144E+01  -2.40132084E+01   6.89276505E+01   2.13998966E+01   5.01187477E+01   5.20984232E-01   3.10540695E+01
             3351                1   3.53654518E+01   4.24720955E+01   4.24720955E+01   6.89258528E+00   7.32466030E+00   4.24720955E+01   4.24720955E+01   7.32466030E+00   6.89258528E+00   3.55795097E+01  -1.88964481E+01   3.53595123E+01   8.19206715E+00   4.11726151E+01   7.32466030E+00   6.67429781E+00
             3351                2   3.57225189E+01   4.27083359E+01   4.27083359E+01   6.65635014E+00   7.32466030E+00   4.27083359E+01   4.27083359E+01   7.32466030E+00   6.65635014E+00   3.60519867E+01  -1.88964481E+01   3.57084465E+01   7.98145628E+00   4.13832283E+01   7.32466030E+00   6.78356981E+00
             3351                3   3.53368301E+01   4.24531288E+01   4.24531288E+01   6.91155767E+00   7.32466030E+00   4.24531288E+01   4.24531288E+01   7.32466030E+00   6.91155767E+00   3.55415688E+01  -1.88964481E+01   3.53313942E+01   8.29905987E+00   4.10656242E+01   7.32466030E+00   6.88395786E+00
             3351                4   3.56939812E+01   4.26894798E+01   4.26894798E+01   6.67520046E+00   7.32466030E+00   4.26894798E+01   4.26894798E+01   7.32466030E+00   6.67520046E+00   3.60142822E+01  -1.88964481E+01   3.56806831E+01   8.08873749E+00   4.12759438E+01   7.32466030E+00   6.99352789E+00
             3352                1   3.84269066E+01   4.30296059E+01   4.30296059E+01   4.30769014E+00   4.90466022E+00   4.30296059E+01   4.30296059E+01   4.90466022E+00   4.30769014E+00   3.87219162E+01  -1.74139843E+01   3.84164734E+01   5.98159790E+00   4.13556976E+01   4.90466022E+00   7.87495708E+00
             3352                2   3.83771362E+01   4.29966698E+01   4.29966698E+01   4.34062624E+00   4.90466022E+00   4.29966698E+01   4.29966698E+01   4.90466022E+00   4.34062624E+00   3.86560440E+01  -1.74139843E+01   3.83678093E+01   6.10226774E+00   4.12350273E+01   4.90466022E+00   8.06193066E+00
             3352                3   3.80950623E+01   4.28097610E+01   4.28097610E+01   4.52753496E+00   4.90466022E+00   4.28097610E+01   4.28097610E+01   4.90466022E+00   4.52753496E+00   3.82822266E+01  -1.74139843E+01   3.80908623E+01   6.16795444E+00   4.11693420E+01   4.90466022E+00   7.75292826E+00
             3352                4   3.80450592E+01   4.27765808E+01   4.27765808E+01   4.56071520E+00   4.90466022E+00   4.27765808E+01   4.27765808E+01   4.90466022E+00   4.56071520E+00   3.82158661E+01  -1.74139843E+01   3.80415611E+01   6.28847790E+00   4.10488167E+01   4.90466022E+00   7.93995047E+00
             3353                1   2.58797131E+01   3.74299927E+01   3.74299927E+01   9.87388802E+00   1.36391726E+01   3.74299927E+01   3.74299927E+01   1.36391726E+01   9.87388802E+00   2.75561028E+01  -2.03143501E+01   2.52524319E+01   1.36757021E+01   3.36281776E+01   1.36391726E+01   9.50312424E+00
             3353                2   2.60272179E+01   3.75223007E+01   3.75223007E+01   9.78158283E+00   1.36391726E+01   3.75223007E+01   3.75223007E+01   1.36391726E+01   9.78158283E+00   2.77407169E+01  -2.03143520E+01   2.53720837E+01   1.37078819E+01   3.35960007E+01   1.36391726E+01   9.66967010E+00
             3353                3   2.56518974E+01   3.72872391E+01   3.72872391E+01   1.00166378E+01   1.36391726E+01   3.72872391E+01   3.72872391E+01   1.36391726E+01   1.00166378E+01   2.72706032E+01  -2.03143501E+01   2.50667362E+01   1.38422832E+01   3.34615974E+01   1.36391726E+01   9.47058964E+00
             3353                4   2.58006973E+01   3.73805046E+01   3.73805046E+01   9.92337704E+00   1.36391726E+01   3.73805046E+01   3.73805046E+01   1.36391726E+01   9.92337704E+00   2.74571285E+01  -2.03143520E+01   2.51881466E+01   1.38745499E+01   3.34293327E+01   1.36391726E+01   9.63722420E+00
             3354                1   3.43907051E+01   4.01901016E+01   4.01901016E+01   5.01652288E+00   6.63975096E+00   4.01901016E+01   4.01901016E+01   6.63975096E+00   5.01652288E+00   3.51735764E+01  -1.72821255E+01   3.43043556E+01   7.47760487E+00   3.77290192E+01   6.63975096E+00   8.97263050E+00
             3354                2   3.44716949E+01   4.02428741E+01   4.02428741E+01   4.96375179E+00   6.63975096E+00   4.02428741E+01   4.02428741E+01   6.63975096E+00   4.96375179E+00   3.52791252E+01  -1.72821255E+01   3.43798447E+01   7.53002357E+00   3.76766014E+01   6.63975096E+00   9.16242886E+00
             3354                3   3.40972214E+01   3.99985695E+01   3.99985695E+01   5.20805168E+00   6.63975096E+00   3.99985695E+01   3.99985695E+01   6.63975096E+00   5.20805168E+00   3.47905197E+01  -1.72821255E+01   3.40294952E+01   7.66747761E+00   3.75391464E+01   6.63975096E+00   8.91716862E+00
             3354                4   3.41790161E+01   4.00519981E+01   4.00519981E+01   5.15462875E+00   6.63975096E+00   4.00519981E+01   4.00519981E+01   6.63975096E+00   5.15462875E+00   3.48973694E+01  -1.72821255E+01   3.41063042E+01   7.72008753E+00   3.74865379E+01   6.63975096E+00   9.10748005E+00
             3355                1   2.65134602E+01   3.87120476E+01   3.87120476E+01   1.13077621E+01   1.31896906E+01   3.87120476E+01   3.87120476E+01   1.31896906E+01   1.13077621E+01   2.74042854E+01  -2.10698338E+01   2.63625641E+01   1.33293724E+01   3.66904373E+01   1.31896906E+01   7.16337061E+00
             3355                2   2.65940609E+01   3.87640152E+01   3.87640152E+01   1.12557955E+01   1.31896906E+01   3.87640152E+01   3.87640152E+01   1.31896906E+01   1.12557955E+01   2.75082188E+01  -2.10698338E+01   2.64351654E+01   1.34022179E+01   3.66175919E+01   1.31896906E+01   7.37815189E+00
             3355                3   2.61706352E+01   3.84905663E+01   3.84905663E+01   1.15292435E+01   1.31896906E+01   3.84905663E+01   3.84905663E+01   1.31896906E+01   1.15292435E+01   2.69613228E+01  -2.10698338E+01   2.60517273E+01   1.35442276E+01   3.64755821E+01   1.31896906E+01   7.08988571E+00
             3355                4   2.62523117E+01   3.85433998E+01   3.85433998E+01   1.14764080E+01   1.31896906E+01   3.85433998E+01   3.85433998E+01   1.31896906E+01   1.14764080E+01   2.70669899E+01  -2.10698318E+01   2.61260872E+01   1.36171083E+01   3.64026985E+01   1.31896906E+01   7.30477285E+00
             3356                1   2.83124886E+01   3.98236465E+01   3.98236465E+01   1.09053040E+01   1.21586399E+01   3.98236465E+01   3.98236465E+01   1.21586399E+01   1.09053040E+01   2.89183426E+01  -2.09625301E+01   2.82499714E+01   1.23644829E+01   3.83644676E+01   1.21586399E+01   6.32991505E+00
             3356                2   2.83586597E+01   3.98537750E+01   3.98537750E+01   1.08751745E+01   1.21586399E+01   3.98537750E+01   3.98537750E+01   1.21586399E+01   1.08751745E+01   2.89786015E+01  -2.09625301E+01   2.82932034E+01   1.24438553E+01   3.82850952E+01   1.21586399E+01   6.55724049E+00
             3356                3   2.79453182E+01   3.95835571E+01   3.95835571E+01   1.11453953E+01   1.21586399E+01   3.95835571E+01   3.95835571E+01   1.21586399E+01   1.11453953E+01   2.84381599E+01  -2.09625301E+01   2.79039440E+01   1.25923529E+01   3.81365967E+01   1.21586399E+01   6.24941254E+00
             3356                4   2.79920845E+01   3.96141853E+01   3.96141853E+01   1.11147661E+01   1.21586399E+01   3.96141853E+01   3.96141853E+01   1.21586399E+01   1.11147661E+01   2.84994183E+01  -2.09625301E+01   2.79482441E+01   1.26716938E+01   3.80572586E+01   1.21586399E+01   6.47668839E+00
             3357                1   4.43088913E+01   4.63023491E+01   4.63023491E+01   1.93843579E+00   2.04868031E+00   4.63023491E+01   4.63023491E+01   2.04868031E+00   1.93843579E+00   4.43639107E+01  -1.67631550E+01   4.43085861E+01   3.28580570E+00   4.49549789E+01   2.04868031E+00   7.61309099E+00
             3357                2   4.41768913E+01   4.62144127E+01   4.62144127E+01   2.02637315E+00   2.04868031E+00   4.62144127E+01   4.62144127E+01   2.04868031E+00   2.02637315E+00   4.41880417E+01  -1.67631550E+01   4.41768799E+01   3.44454408E+00   4.47962418E+01   2.04868031E+00   7.78813553E+00
             3357                3   4.39769096E+01   4.60810242E+01   4.60810242E+01   2.15975809E+00   2.04868031E+00   4.60810242E+01   4.60810242E+01   2.15975809E+00   2.04868031E+00   4.40323448E+01  -1.67631550E+01   4.39765968E+01   3.46370101E+00   4.47770844E+01   2.04868031E+00   7.45456171E+00
             3357                4   4.38455734E+01   4.59933128E+01   4.59933128E+01   2.24747586E+00   2.04868031E+00   4.59933128E+01   4.59933128E+01   2.24747586E+00   2.04868031E+00   4.39446297E+01  -1.67631550E+01   4.38445587E+01   3.62020111E+00   4.46205864E+01   2.04868031E+00   7.62670565E+00
             3358                1   3.90845451E+01   4.39131813E+01   4.39131813E+01   4.59296131E+00   5.06865168E+00   4.39131813E+01   4.39131813E+01   5.06865168E+00   4.59296131E+00   3.93202209E+01  -1.78582649E+01   3.90780296E+01   5.98874378E+00   4.25173988E+01   5.06865168E+00   7.27559185E+00
             3358                2   3.90226555E+01   4.38721581E+01   4.38721581E+01   4.63398504E+00   5.06865168E+00   4.38721581E+01   4.38721581E+01   5.06865168E+00   4.63398504E+00   3.92381706E+01  -1.78582649E+01   3.90172043E+01   6.11250782E+00   4.23936348E+01   5.06865168E+00   7.47184515E+00
             3358                3   3.87396698E+01   4.36843185E+01   4.36843185E+01   4.82182407E+00   5.06865168E+00   4.36843185E+01   4.36843185E+01   5.06865168E+00   4.82182407E+00   3.88624916E+01  -1.78582649E+01   3.87378998E+01   6.18486881E+00   4.23212738E+01   5.06865168E+00   7.14936256E+00
             3358                4   3.86771927E+01   4.36427879E+01   4.36427879E+01   4.86335564E+00   5.06865168E+00   4.36427879E+01   4.36427879E+01   5.06865168E+00   4.86335564E+00   3.87794304E+01  -1.78582649E+01   3.86759644E+01   6.30854368E+00   4.21975975E+01   5.06865168E+00   7.34540844E+00
             3359                1   3.67593956E+01   4.23476830E+01   4.23476830E+01   5.21004963E+00   5.97857380E+00   4.23476830E+01   4.23476830E+01   5.97857380E+00   5.21004963E+00   3.71376343E+01  -1.78454342E+01   3.67413139E+01   6.94168425E+00   4.06160469E+01   5.97857380E+00   7.83008766E+00
             3359                2   3.67334824E+01   4.23305779E+01   4.23305779E+01   5.22715235E+00   5.97857380E+00   4.23305779E+01   4.23305779E+01   5.97857380E+00   5.22715235E+00   3.71034279E+01  -1.78454342E+01   3.67161827E+01   7.05252171E+00   4.05052109E+01   5.97857380E+00   8.02467823E+00
             3359                3   3.64208336E+01   4.21239548E+01   4.21239548E+01   5.43377829E+00   5.97857380E+00   4.21239548E+01   4.21239548E+01   5.97857380E+00   5.43377829E+00   3.66901741E+01  -1.78454342E+01   3.64116669E+01   7.13564777E+00   4.04220848E+01   5.97857380E+00   7.71657276E+00
             3359                4   3.63943596E+01   4.21064301E+01   4.21064301E+01   5.45130014E+00   5.97857380E+00   4.21064301E+01   4.21064301E+01   5.97857380E+00   5.45130014E+00   3.66551323E+01  -1.78454342E+01   3.63857651E+01   7.24679804E+00   4.03109322E+01   5.97857380E+00   7.91141272E+00
             3360                1   2.48025055E+01   3.82879868E+01   3.82879868E+01   1.24926834E+01   1.46146240E+01   3.82879868E+01   3.82879868E+01   1.46146240E+01   1.24926834E+01   2.57953033E+01  -2.17984314E+01   2.45970421E+01   1.46251440E+01   3.61555252E+01   1.46146240E+01   7.10352755E+00
             3360                2   2.44579239E+01   3.80667458E+01   3.80667458E+01   1.27139254E+01   1.46146240E+01   3.80667458E+01   3.80667458E+01   1.46146240E+01   1.27139254E+01   2.53528194E+01  -2.17984314E+01   2.42909279E+01   1.48480301E+01   3.59326401E+01   1.46146240E+01   7.03925943E+00
             3360                3   2.46975365E+01   3.82206688E+01   3.82206688E+01   1.25600014E+01   1.46146240E+01   3.82206688E+01   3.82206688E+01   1.46146240E+01   1.25600014E+01   2.56606674E+01  -2.17984314E+01   2.45041523E+01   1.45611057E+01   3.62195663E+01   1.46146240E+01   6.88078690E+00
             3360                4   2.43514137E+01   3.79982109E+01   3.79982109E+01   1.27824640E+01   1.46146240E+01   3.79982109E+01   3.79982109E+01   1.46146240E+01   1.27824640E+01   2.52157459E+01  -2.17984314E+01   2.41956177E+01   1.47840567E+01   3.59966164E+01   1.46146240E+01   6.81654549E+00
             3361                1   2.45820026E+01   3.83664627E+01   3.83664627E+01   1.29155512E+01   1.47569256E+01   3.83664627E+01   3.83664627E+01   1.47569256E+01   1.29155512E+01   2.54509106E+01  -2.20129795E+01   2.44261131E+01   1.46898088E+01   3.65922050E+01   1.47569256E+01   6.48139429E+00
             3361                2   2.46844463E+01   3.84323921E+01   3.84323921E+01   1.28496199E+01   1.47569256E+01   3.84323921E+01   3.84323921E+01   1.47569256E+01   1.28496199E+01   2.55827732E+01  -2.20129795E+01   2.45178375E+01   1.47528372E+01   3.65291748E+01   1.47569256E+01   6.71322203E+00
             3361                3   2.42227802E+01   3.81347351E+01   3.81347351E+01   1.31472740E+01   1.47569256E+01   3.81347351E+01   3.81347351E+01   1.47569256E+01   1.31472740E+01   2.49874611E+01  -2.20129776E+01   2.41020126E+01   1.49216814E+01   3.63603287E+01   1.47569256E+01   6.41789627E+00
             3361                4   2.43266544E+01   3.82018318E+01   3.82018318E+01   1.30801821E+01   1.47569256E+01   3.82018318E+01   3.82018318E+01   1.47569256E+01   1.30801821E+01   2.51216488E+01  -2.20129795E+01   2.41961288E+01   1.49848108E+01   3.62972031E+01   1.47569256E+01   6.64979553E+00
             3362                1   4.71700363E+01   4.83611031E+01   4.83611031E+01   1.17770255E+00   1.20444763E+00   4.83611031E+01   4.83611031E+01   1.20444763E+00   1.17770255E+00   4.71834030E+01  -1.69144192E+01   4.71700172E+01   2.29288340E+00   4.72459221E+01   1.20444763E+00   7.16759825E+00
             3362                2   4.70255852E+01   4.82647820E+01   4.82647820E+01   1.27402508E+00   1.20444763E+00   4.82647820E+01   4.82647820E+01   1.27402508E+00   1.20444763E+00   4.70603333E+01  -1.69144192E+01   4.70254669E+01   2.44919705E+00   4.70896111E+01   1.20444763E+00   7.33765221E+00
             3362                3   4.68052292E+01   4.81176529E+01   4.81176529E+01   1.42115295E+00   1.20444763E+00   4.81176529E+01   4.81176529E+01   1.42115295E+00   1.20444763E+00   4.69132080E+01  -1.69144192E+01   4.68041000E+01   2.49211907E+00   4.70466881E+01   1.20444763E+00   6.99023533E+00
             3362                4   4.66506119E+01   4.80142784E+01   4.80142784E+01   1.52452886E+00   1.20444763E+00   4.80142784E+01   4.80142784E+01   1.52452886E+00   1.20444763E+00   4.68098297E+01  -1.69144192E+01   4.66481400E+01   2.65301156E+00   4.68857956E+01   1.20444763E+00   7.15467644E+00
             3363                1   8.61762314E+01   8.50949631E+01   8.50949631E+01  -7.40922987E-01  -1.41762877E+00   8.50949631E+01   8.50949631E+01  -7.40922987E-01  -1.41762877E+00   8.65125961E+01  -2.76454716E+01   8.61702499E+01   7.08589363E+00   7.72681503E+01  -1.41762877E+00   2.47095642E+01
             3363                2   8.73597031E+01   8.58852386E+01   8.58852386E+01  -1.53118885E+00  -1.41762877E+00   8.58852386E+01   8.58852386E+01  -1.41762877E+00  -1.53118885E+00   8.74164276E+01  -2.76454754E+01   8.73595352E+01   6.01612806E+00   7.83379211E+01  -1.41762877E+00   2.45519352E+01
             3363                3   8.69232712E+01   8.55942307E+01   8.55942307E+01  -1.24017906E+00  -1.41762877E+00   8.55942307E+01   8.55942307E+01  -1.24017906E+00  -1.41762877E+00   8.70118561E+01  -2.76454754E+01   8.69228592E+01   7.25701046E+00   7.70970383E+01  -1.41762877E+00   2.58001213E+01
             3363                4   8.81540833E+01   8.64136963E+01   8.64136963E+01  -2.05964613E+00  -1.41762877E+00   8.64136963E+01   8.64136963E+01  -1.41762877E+00  -2.05964613E+00   8.84733429E+01  -2.76454754E+01   8.81488266E+01   6.11258078E+00   7.82414703E+01  -1.41762877E+00   2.56171589E+01
             3364                1   3.00718708E+01   3.88590775E+01   3.88590775E+01   7.60362101E+00   1.01302147E+01   3.88590775E+01   3.88590775E+01   1.01302147E+01   7.60362101E+00   3.12554569E+01  -1.88643055E+01   2.98316708E+01   1.06707010E+01   3.57919998E+01   1.01302147E+01   9.29817104E+00
             3364                2   3.02166309E+01   3.89518776E+01   3.89518776E+01   7.51082182E+00   1.01302147E+01   3.89518776E+01   3.89518776E+01   1.01302147E+01   7.51082182E+00   3.14410572E+01  -1.88643055E+01   2.99596024E+01   1.07086086E+01   3.57540932E+01   1.01302147E+01   9.50346947E+00
             3364                3   2.97783279E+01   3.86705780E+01   3.86705780E+01   7.79212379E+00   1.01302147E+01   3.86705780E+01   3.86705780E+01   1.01302147E+01   7.79212379E+00   3.08784523E+01  -1.88643055E+01   2.95707588E+01   1.08766870E+01   3.55860138E+01   1.01302147E+01   9.25915718E+00
             3364                4   2.99244728E+01   3.87644806E+01   3.87644806E+01   7.69822311E+00   1.01302147E+01   3.87644806E+01   3.87644806E+01   1.01302147E+01   7.69822311E+00   3.10662575E+01  -1.88643055E+01   2.97009087E+01   1.09145803E+01   3.55481224E+01   1.01302147E+01   9.46442032E+00
             3365                1   3.20922966E+01   4.07506828E+01   4.07506828E+01   6.43594265E+00   1.14776402E+01   4.07506828E+01   4.07506828E+01   1.14776402E+01   6.43594265E+00   3.43147392E+01  -1.95547562E+01   3.11826000E+01   1.06934471E+01   3.64931793E+01   1.14776402E+01   1.13123302E+01
             3365                2   3.27473640E+01   4.11584320E+01   4.11584320E+01   6.02819395E+00   1.14776402E+01   4.11584320E+01   4.11584320E+01   1.14776402E+01   6.02819395E+00   3.51302376E+01  -1.95547562E+01   3.17030964E+01   1.04750519E+01   3.67115746E+01   1.14776402E+01   1.16809521E+01
             3365                3   3.18795509E+01   4.06179657E+01   4.06179657E+01   6.56866455E+00   1.14776402E+01   4.06179657E+01   4.06179657E+01   1.14776402E+01   6.56866455E+00   3.40493011E+01  -1.95547562E+01   3.10120907E+01   1.10662022E+01   3.61204262E+01   1.14776402E+01   1.15286684E+01
             3365                4   3.25386200E+01   4.10286446E+01   4.10286446E+01   6.15798235E+00   1.14776402E+01   4.10286446E+01   4.10286446E+01   1.14776402E+01   6.15798235E+00   3.48706627E+01  -1.95547562E+01   3.15379620E+01   1.08477974E+01   3.63388290E+01   1.14776402E+01   1.18971672E+01
             3366                1   1.19363640E+02   1.41794083E+02   1.41794083E+02   2.17370358E+01   2.31361408E+01   1.41794083E+02   1.41794083E+02   2.31361408E+01   2.17370358E+01   1.20057037E+02  -6.22224159E+01   1.19345200E+02   2.23393002E+01   1.41191818E+02   2.31361408E+01   8.48192596E+00
             3366                2   1.19465622E+02   1.41861664E+02   1.41861664E+02   2.16694584E+01   2.31361408E+01   1.41861664E+02   1.41861664E+02   2.31361408E+01   2.16694584E+01   1.20192215E+02  -6.22224236E+01   1.19445358E+02   2.23061447E+01   1.41224976E+02   2.31361408E+01   8.72466755E+00
             3366                3   1.19007629E+02   1.41557999E+02   1.41557999E+02   2.19731197E+01   2.31361408E+01   1.41557999E+02   1.41557999E+02   2.31361408E+01   2.19731197E+01   1.19584869E+02  -6.22224159E+01   1.18994850E+02   2.25808315E+01   1.40950287E+02   2.31361408E+01   8.50315094E+00
             3366                4   1.19109932E+02   1.41625870E+02   1.41625870E+02   2.19052639E+01   2.31361408E+01   1.41625870E+02   1.41625870E+02   2.31361408E+01   2.19052639E+01   1.19720604E+02  -6.22224236E+01   1.19095619E+02   2.25476036E+01   1.40983521E+02   2.31361408E+01   8.74580860E+00
             3367                1   2.72031708E+01   3.78913612E+01   3.78913612E+01   9.19695759E+00   1.24768257E+01   3.78913612E+01   3.78913612E+01   1.24768257E+01   9.19695759E+00   2.86944027E+01  -1.98550472E+01   2.67529011E+01   1.27364416E+01   3.43518753E+01   1.24768257E+01   9.43586063E+00
             3367                2   2.73552876E+01   3.79874496E+01   3.79874496E+01   9.10086918E+00   1.24768257E+01   3.79874496E+01   3.79874496E+01   1.24768257E+01   9.10086918E+00   2.88865795E+01  -1.98550472E+01   2.68806229E+01   1.27720556E+01   3.43162613E+01   1.24768257E+01   9.62135220E+00
             3367                3   2.69449787E+01   3.77280235E+01   3.77280235E+01   9.36029434E+00   1.24768257E+01   3.77280235E+01   3.77280235E+01   1.24768257E+01   9.36029434E+00   2.83677292E+01  -1.98550472E+01   2.65349464E+01   1.29220209E+01   3.41662979E+01   1.24768257E+01   9.39958382E+00
             3367                4   2.70985756E+01   3.78252296E+01   3.78252296E+01   9.26308918E+00   1.24768257E+01   3.78252296E+01   3.78252296E+01   1.24768257E+01   9.26308918E+00   2.85621395E+01  -1.98550472E+01   2.66647835E+01   1.29576483E+01   3.41306686E+01   1.24768257E+01   9.58513260E+00
             3368                1   4.15996971E+01   4.56367226E+01   4.56367226E+01   3.89712572E+00   4.17835379E+00   4.56367226E+01   4.56367226E+01   4.17835379E+00   3.89712572E+00   4.17395973E+01  -1.79040661E+01   4.15975571E+01   4.99181604E+00   4.45420303E+01   4.17835379E+00   6.67035532E+00
             3368                2   4.15118675E+01   4.55783463E+01   4.55783463E+01   3.95550084E+00   4.17835379E+00   4.55783463E+01   4.55783463E+01   4.17835379E+00   3.95550084E+00   4.16228447E+01  -1.79040661E+01   4.15105247E+01   5.12059259E+00   4.44132538E+01   4.17835379E+00   6.86564302E+00
             3368                3   4.12526703E+01   4.54058304E+01   4.54058304E+01   4.12801313E+00   4.17835379E+00   4.54058304E+01   4.54058304E+01   4.17835379E+00   4.12801313E+00   4.12778168E+01  -1.79040661E+01   4.12526016E+01   5.19242954E+00   4.43414154E+01   4.17835379E+00   6.54245901E+00
             3368                4   4.11661797E+01   4.53481865E+01   4.53481865E+01   4.18565941E+00   4.17835379E+00   4.53481865E+01   4.53481865E+01   4.18565941E+00   4.17835379E+00   4.11698303E+01  -1.79040661E+01   4.11661797E+01   5.31875992E+00   4.42150841E+01   4.17835379E+00   6.73478746E+00
             3369                1   3.54928932E+01   4.23554153E+01   4.23554153E+01   6.49188137E+00   7.24515867E+00   4.23554153E+01   4.23554153E+01   7.24515867E+00   6.49188137E+00   3.58635368E+01  -1.86974850E+01   3.54748993E+01   7.97682714E+00   4.08704720E+01   7.24515867E+00   7.14494896E+00
             3369                2   3.54706383E+01   4.23407326E+01   4.23407326E+01   6.50656796E+00   7.24515867E+00   4.23407326E+01   4.23407326E+01   7.24515867E+00   6.50656796E+00   3.58341675E+01  -1.86974869E+01   3.54533310E+01   8.08468151E+00   4.07626190E+01   7.24515867E+00   7.35254908E+00
             3369                3   3.51390114E+01   4.21215744E+01   4.21215744E+01   6.72572756E+00   7.24515867E+00   4.21215744E+01   4.21215744E+01   7.24515867E+00   6.72572756E+00   3.53958473E+01  -1.86974869E+01   3.51303711E+01   8.18382359E+00   4.06634789E+01   7.24515867E+00   7.03451920E+00
             3369                4   3.51165771E+01   4.21067238E+01   4.21067238E+01   6.74057579E+00   7.24515867E+00   4.21067238E+01   4.21067238E+01   7.24515867E+00   6.74057579E+00   3.53661499E+01  -1.86974869E+01   3.51084175E+01   8.29172039E+00   4.05555801E+01   7.24515867E+00   7.24237442E+00
             3370                1   4.99442482E+01   4.40413818E+01   4.40413818E+01  -3.93281269E+00  -7.66367817E+00   4.40413818E+01   4.40413818E+01  -3.93281269E+00  -7.66367817E+00   5.17050629E+01  -1.08149643E+01   4.96292801E+01  -7.45875359E-01   4.08544464E+01  -7.66367817E+00   1.19471397E+01
             3370                2   4.93256760E+01   4.36108589E+01   4.36108589E+01  -3.50228667E+00  -7.66367817E+00   4.36108589E+01   4.36108589E+01  -3.50228667E+00  -7.66367817E+00   5.12745399E+01  -1.08149652E+01   4.89283981E+01  -2.55399585E-01   4.03639717E+01  -7.66367817E+00   1.19343567E+01
             3370                3   4.96333694E+01   4.38253174E+01   4.38253174E+01  -3.71674562E+00  -7.66367817E+00   4.38253174E+01   4.38253174E+01  -3.71674562E+00  -7.66367817E+00   5.14889946E+01  -1.08149643E+01   4.92784348E+01  -7.73299694E-01   4.08818703E+01  -7.66367817E+00   1.14574690E+01
             3370                4   4.90096779E+01   4.33899765E+01   4.33899765E+01  -3.28140068E+00  -7.66367817E+00   4.33899765E+01   4.33899765E+01  -3.28140068E+00  -7.66367817E+00   5.10536537E+01  -1.08149652E+01   4.85659447E+01  -2.83710778E-01   4.03922844E+01  -7.66367817E+00   1.14420357E+01
             3371                1   2.01739788E+01   1.11114798E+01   1.11114798E+01  -2.39004105E-01  -1.21809216E+01   1.11114798E+01  -1.21809216E+01  -2.39004105E-01  -1.21809216E+01   2.32924004E+01   4.36148643E-01  -7.12008667E+00   2.56551385E+00   8.30696201E+00  -1.21809216E+01   4.89564228E+00
             3371                2   1.99862957E+01   1.08856335E+01   1.08856335E+01  -1.31580085E-02  -1.21809216E+01   1.08856335E+01  -1.21809216E+01  -1.31580085E-02  -1.21809216E+01   2.30665550E+01   4.36148643E-01  -9.12307644E+00   2.95531106E+00   7.91716480E+00  -1.21809216E+01   4.85189819E+00
             3371                3   1.99310188E+01   1.08177261E+01   1.08177261E+01   5.47506139E-02  -1.21809216E+01   1.08177261E+01  -1.21809216E+01   5.47506139E-02  -1.21809216E+01   2.29986477E+01   4.36148316E-01  -9.56806755E+00   2.48563147E+00   8.38684464E+00  -1.21809216E+01   4.50048113E+00
             3371                4   1.97428932E+01   1.05813818E+01   1.05813818E+01   2.91094154E-01  -1.21809216E+01   1.05813818E+01  -1.21809216E+01   2.91094154E-01  -1.21809216E+01   2.27623024E+01   4.36148643E-01  -1.08304710E+01   2.87208772E+00   8.00038815E+00  -1.21809216E+01   4.46067667E+00
             3372                1   2.78784447E+01   3.81592674E+01   3.81592674E+01   8.55726814E+00   1.24038706E+01   3.81592674E+01   3.81592674E+01   1.24038706E+01   8.55726814E+00   2.96020012E+01  -1.97068024E+01   2.72718143E+01   1.26297741E+01   3.40867615E+01   1.24038706E+01   1.01965208E+01
             3372                2   2.76473141E+01   3.80140419E+01   3.80140419E+01   8.70249462E+00   1.24038706E+01   3.80140419E+01   3.80140419E+01   1.24038706E+01   8.70249462E+00   2.93115482E+01  -1.97068024E+01   2.70814705E+01   1.28252258E+01   3.38913116E+01   1.24038706E+01   1.01905212E+01
             3372                3   2.76723175E+01   3.80297661E+01   3.80297661E+01   8.68677330E+00   1.24038706E+01   3.80297661E+01   3.80297661E+01   1.24038706E+01   8.68677330E+00   2.93429909E+01  -1.97068024E+01   2.71021156E+01   1.26243029E+01   3.40922356E+01   1.24038706E+01   1.00017366E+01
             3372                4   2.74394798E+01   3.78832626E+01   3.78832626E+01   8.83327675E+00   1.24038706E+01   3.78832626E+01   3.78832626E+01   1.24038706E+01   8.83327675E+00   2.90499840E+01  -1.97068024E+01   2.69093742E+01   1.28197603E+01   3.38967781E+01   1.24038706E+01   9.99575996E+00
             3373                1   3.04963531E+01   4.13257561E+01   4.13257561E+01   1.04827852E+01   1.11882601E+01   4.13257561E+01   4.13257561E+01   1.11882601E+01   1.04827852E+01   3.08429699E+01  -2.09989338E+01   3.04779854E+01   1.14164925E+01   4.03920479E+01   1.11882601E+01   5.28455162E+00
             3373                2   3.01128139E+01   4.10724449E+01   4.10724449E+01   1.07360954E+01   1.11882601E+01   4.10724449E+01   4.10724449E+01   1.11882601E+01   1.07360954E+01   3.03363495E+01  -2.09989338E+01   3.01051750E+01   1.16576052E+01   4.01509361E+01   1.11882601E+01   5.20634651E+00
             3373                3   3.04836025E+01   4.13173485E+01   4.13173485E+01   1.04911909E+01   1.11882601E+01   4.13173485E+01   4.13173485E+01   1.11882601E+01   1.04911909E+01   3.08261585E+01  -2.09989338E+01   3.04656658E+01   1.13403530E+01   4.04681892E+01   1.11882601E+01   5.04532576E+00
             3373                4   3.00999660E+01   4.10639420E+01   4.10639420E+01   1.07445974E+01   1.11882601E+01   4.10639420E+01   4.10639420E+01   1.11882601E+01   1.07445974E+01   3.03193455E+01  -2.09989338E+01   3.00926094E+01   1.15816126E+01   4.02269287E+01   1.11882601E+01   4.96760893E+00
             3374                1   3.58252258E+01   4.31559906E+01   4.31559906E+01   7.19108582E+00   7.47209787E+00   4.31559906E+01   4.31559906E+01   7.47209787E+00   7.19108582E+00   3.59649048E+01  -1.92730579E+01   3.58227425E+01   8.18472862E+00   4.21623459E+01   7.47209787E+00   5.89482832E+00
             3374                2   3.61896286E+01   4.33975906E+01   4.33975906E+01   6.94948673E+00   7.47209787E+00   4.33975906E+01   4.33975906E+01   7.47209787E+00   6.94948673E+00   3.64481010E+01  -1.92730579E+01   3.61811333E+01   7.96594048E+00   4.23811340E+01   7.47209787E+00   6.00122404E+00
             3374                3   3.57887573E+01   4.31317673E+01   4.31317673E+01   7.21530771E+00   7.47209787E+00   4.31317673E+01   4.31317673E+01   7.47209787E+00   7.21530771E+00   3.59164619E+01  -1.92730579E+01   3.57866821E+01   8.28724098E+00   4.20598335E+01   7.47209787E+00   6.11155272E+00
             3374                4   3.61537132E+01   4.33738136E+01   4.33738136E+01   6.97325993E+00   7.47209787E+00   4.33738136E+01   4.33738136E+01   7.47209787E+00   6.97325993E+00   3.64005508E+01  -1.92730579E+01   3.61459694E+01   8.06827545E+00   4.22787971E+01   7.47209787E+00   6.21772528E+00
             3375                1   2.68834534E+01   3.79078178E+01   3.79078178E+01   9.05834007E+00   1.35583172E+01   3.79078178E+01   3.79078178E+01   1.35583172E+01   9.05834007E+00   2.88494759E+01  -2.01748257E+01   2.60158100E+01   1.35763493E+01   3.33898087E+01   1.35583172E+01   1.04847403E+01
             3375                2   2.67051792E+01   3.77970085E+01   3.77970085E+01   9.16915131E+00   1.35583172E+01   3.77970085E+01   3.77970085E+01   1.35583172E+01   9.16915131E+00   2.86278572E+01  -2.01748257E+01   2.58749599E+01   1.37493391E+01   3.32168198E+01   1.35583172E+01   1.04948969E+01
             3375                3   2.66707020E+01   3.77755661E+01   3.77755661E+01   9.19059372E+00   1.35583172E+01   3.77755661E+01   3.77755661E+01   1.35583172E+01   9.19059372E+00   2.85849724E+01  -2.01748257E+01   2.58476543E+01   1.35867157E+01   3.33794441E+01   1.35583172E+01   1.03119898E+01
             3375                4   2.64909954E+01   3.76637230E+01   3.76637230E+01   9.30243397E+00   1.35583172E+01   3.76637230E+01   3.76637230E+01   1.35583172E+01   9.30243397E+00   2.83612881E+01  -2.01748257E+01   2.57049427E+01   1.37597399E+01   3.32064171E+01   1.35583172E+01   1.03221769E+01
             3376                1   2.84155045E+01   3.85285835E+01   3.85285835E+01   8.24624252E+00   1.24477701E+01   3.85285835E+01   3.85285835E+01   1.24477701E+01   8.24624252E+00   3.02823410E+01  -1.97408657E+01   2.77037258E+01   1.25517941E+01   3.42230339E+01   1.24477701E+01   1.05756502E+01
             3376                2   2.87142849E+01   3.87153244E+01   3.87153244E+01   8.05950737E+00   1.24477701E+01   3.87153244E+01   3.87153244E+01   1.24477701E+01   8.05950737E+00   3.06558151E+01  -1.97408657E+01   2.79449177E+01   1.25104065E+01   3.42644234E+01   1.24477701E+01   1.07997894E+01
             3376                3   2.82056408E+01   3.83972168E+01   3.83972168E+01   8.37761402E+00   1.24477701E+01   3.83972168E+01   3.83972168E+01   1.24477701E+01   8.37761402E+00   3.00196018E+01  -1.97408657E+01   2.75333080E+01   1.27765741E+01   3.39982567E+01   1.24477701E+01   1.06162214E+01
             3376                4   2.85066910E+01   3.85856094E+01   3.85856094E+01   8.18921471E+00   1.24477701E+01   3.85856094E+01   3.85856094E+01   1.24477701E+01   8.18921471E+00   3.03963966E+01  -1.97408657E+01   2.77775154E+01   1.27351742E+01   3.40396538E+01   1.24477701E+01   1.08404341E+01
             3377                1   2.99158115E+01   3.89854393E+01   3.89854393E+01   7.29482698E+00   1.12348967E+01   3.89854393E+01   3.89854393E+01   1.12348967E+01   7.29482698E+00   3.16906109E+01  -1.91717205E+01   2.93235397E+01   1.15277004E+01   3.47525635E+01   1.12348967E+01   1.07807770E+01
             3377                2   2.95877724E+01   3.87787781E+01   3.87787781E+01   7.50148535E+00   1.12348967E+01   3.87787781E+01   3.87787781E+01   1.12348967E+01   7.50148535E+00   3.12772903E+01  -1.91717205E+01   2.90507584E+01   1.15804901E+01   3.46997719E+01   1.12348967E+01   1.05328979E+01
             3377                3   3.01528130E+01   3.91344795E+01   3.91344795E+01   7.14578295E+00   1.12348967E+01   3.91344795E+01   3.91344795E+01   1.12348967E+01   7.14578295E+00   3.19886951E+01  -1.91717205E+01   2.95193405E+01   1.12785234E+01   3.50017395E+01   1.12348967E+01   1.07294645E+01
             3377                4   2.98273582E+01   3.89297562E+01   3.89297562E+01   7.35050964E+00   1.12348967E+01   3.89297562E+01   3.89297562E+01   1.12348967E+01   7.35050964E+00   3.15792465E+01  -1.91717205E+01   2.92501926E+01   1.13312407E+01   3.49490242E+01   1.12348967E+01   1.04815216E+01
             3378                1   2.45699806E+01   3.85740166E+01   3.85740166E+01   1.31993685E+01   1.48967247E+01   3.85740166E+01   3.85740166E+01   1.48967247E+01   1.31993685E+01   2.53746471E+01  -2.22233677E+01   2.44375572E+01   1.48775539E+01   3.68958321E+01   1.48967247E+01   6.30611181E+00
             3378                2   2.41994095E+01   3.83343430E+01   3.83343430E+01   1.34390411E+01   1.48967247E+01   3.83343430E+01   3.83343430E+01   1.48967247E+01   1.34390411E+01   2.48953018E+01  -2.22233677E+01   2.41003361E+01   1.51185741E+01   3.66548080E+01   1.48967247E+01   6.24433088E+00
             3378                3   2.44706745E+01   3.85098763E+01   3.85098763E+01   1.32635059E+01   1.48967247E+01   3.85098763E+01   3.85098763E+01   1.48967247E+01   1.32635059E+01   2.52463722E+01  -2.22233677E+01   2.43475990E+01   1.48161802E+01   3.69572029E+01   1.48967247E+01   6.06536150E+00
             3378                4   2.40986309E+01   3.82690010E+01   3.82690010E+01   1.35043831E+01   1.48967247E+01   3.82690010E+01   3.82690010E+01   1.48967247E+01   1.35043831E+01   2.47646179E+01  -2.22233677E+01   2.40078869E+01   1.50572376E+01   3.67161446E+01   1.48967247E+01   6.00370741E+00
             3379                1   2.43633118E+01   3.86481056E+01   3.86481056E+01   1.36005898E+01   1.50321236E+01   3.86481056E+01   3.86481056E+01   1.50321236E+01   1.36005898E+01   2.50475159E+01  -2.24269409E+01   2.42684135E+01   1.49391050E+01   3.73095894E+01   1.50321236E+01   5.63337231E+00
             3379                2   2.44589367E+01   3.87100830E+01   3.87100830E+01   1.35386133E+01   1.50321236E+01   3.87100830E+01   3.87100830E+01   1.50321236E+01   1.35386133E+01   2.51714687E+01  -2.24269409E+01   2.43560219E+01   1.49980459E+01   3.72506485E+01   1.50321236E+01   5.88269758E+00
             3379                3   2.39794903E+01   3.83986893E+01   3.83986893E+01   1.38500051E+01   1.50321236E+01   3.83986893E+01   3.83986893E+01   1.50321236E+01   1.38500051E+01   2.45486851E+01  -2.24269409E+01   2.39137955E+01   1.51888494E+01   3.70598450E+01   1.50321236E+01   5.57444096E+00
             3379                4   2.40765343E+01   3.84618530E+01   3.84618530E+01   1.37868423E+01   1.50321236E+01   3.84618530E+01   3.84618530E+01   1.50321236E+01   1.37868423E+01   2.46750107E+01  -2.24269409E+01   2.40039158E+01   1.52477579E+01   3.70009384E+01   1.50321236E+01   5.82355690E+00
             3380                1   7.02638397E+01   6.37356911E+01   6.37356911E+01  -5.40382671E+00  -7.60093069E+00   6.37356911E+01   6.37356911E+01  -5.40382671E+00  -7.60093069E+00   7.13366241E+01  -1.69103107E+01   7.01864853E+01  -1.16259560E-01   5.84481239E+01  -7.60093069E+00   1.83744774E+01
             3380                2   6.96632156E+01   6.33280983E+01   6.33280983E+01  -4.99623680E+00  -7.60093069E+00   6.33280983E+01   6.33280983E+01  -4.99623680E+00  -7.60093069E+00   7.09290314E+01  -1.69103107E+01   6.95535278E+01  -1.15459569E-01   5.84473228E+01  -7.60093069E+00   1.75969849E+01
             3380                3   7.11954193E+01   6.43652954E+01   6.43652954E+01  -6.03343248E+00  -7.60093069E+00   6.43652954E+01   6.43652954E+01  -6.03343248E+00  -7.60093069E+00   7.19662247E+01  -1.69103107E+01   7.11565781E+01  -8.74799907E-01   5.92066612E+01  -7.60093069E+00   1.83452873E+01
             3380                4   7.05746765E+01   6.39461098E+01   6.39461098E+01  -5.61425161E+00  -7.60093069E+00   6.39461098E+01   6.39461098E+01  -5.61425161E+00  -7.60093069E+00   7.15470428E+01  -1.69103107E+01   7.05117188E+01  -8.69615793E-01   5.92014771E+01  -7.60093069E+00   1.75364456E+01
             3381                1   2.43526611E+01   3.88385925E+01   3.88385925E+01   1.38628654E+01   1.51609173E+01   3.88385925E+01   3.88385925E+01   1.51609173E+01   1.38628654E+01   2.49757271E+01  -2.26207905E+01   2.42746449E+01   1.51118994E+01   3.75895576E+01   1.51609173E+01   5.44384766E+00
             3381                2   2.39589443E+01   3.85820961E+01   3.85820961E+01   1.41193600E+01   1.51609173E+01   3.85820961E+01   3.85820961E+01   1.51609173E+01   1.41193600E+01   2.44627380E+01  -2.26207905E+01   2.39079304E+01   1.53699732E+01   3.73314857E+01   1.51609173E+01   5.38789034E+00
             3381                3   2.42615662E+01   3.87793465E+01   3.87793465E+01   1.39221077E+01   1.51609173E+01   3.87793465E+01   3.87793465E+01   1.51609173E+01   1.39221077E+01   2.48572388E+01  -2.26207905E+01   2.41902542E+01   1.50558529E+01   3.76456032E+01   1.51609173E+01   5.18617105E+00
             3381                4   2.38663521E+01   3.85216064E+01   3.85216064E+01   1.41798506E+01   1.51609173E+01   3.85216064E+01   3.85216064E+01   1.51609173E+01   1.41798506E+01   2.43417568E+01  -2.26207905E+01   2.38209229E+01   1.53139009E+01   3.73875580E+01   1.51609173E+01   5.13017511E+00
             3382                1   2.03999664E+02   2.33343414E+02   2.33343414E+02   1.04036207E+01   5.60005455E+01   2.33343414E+02   2.33343414E+02   5.60005455E+01   1.04036207E+01   2.22939804E+02  -9.99158630E+01   1.92025650E+02   1.23349199E+01   2.31412125E+02   5.60005455E+01   2.06599274E+01
             3382                2   2.05447678E+02   2.33705475E+02   2.33705475E+02   7.62737179E+00   5.84147530E+01   2.33705475E+02   2.33705475E+02   5.84147530E+01   7.62737179E+00   2.26078094E+02  -9.99158630E+01   1.90540726E+02   1.00105982E+01   2.31322235E+02   5.84147530E+01   2.30893269E+01
             3382                3   2.03392075E+02   2.33122223E+02   2.33122223E+02   1.13696890E+01   5.52556763E+01   2.33122223E+02   2.33122223E+02   5.52556763E+01   1.13696890E+01   2.21752533E+02  -9.99158630E+01   1.92301651E+02   1.48768435E+01   2.29615067E+02   5.52556763E+01   2.76662407E+01
             3382                4   2.04867218E+02   2.33501175E+02   2.33501175E+02   8.49768162E+00   5.77487297E+01   2.33501175E+02   2.33501175E+02   5.77487297E+01   8.49768162E+00   2.25003494E+02  -9.99158630E+01   1.90853302E+02   1.25326967E+01   2.29466156E+02   5.77487297E+01   2.98598671E+01
             3383                1   3.68325615E+01   4.05378418E+01   4.05378418E+01   3.14580870E+00   4.29148483E+00   4.05378418E+01   4.05378418E+01   4.29148483E+00   3.14580870E+00   3.73920326E+01  -1.59917116E+01   3.67924385E+01   5.39694834E+00   3.82867012E+01   4.29148483E+00   8.89421749E+00
             3383                2   3.65827103E+01   4.03736000E+01   4.03736000E+01   3.31004548E+00   4.29148483E+00   4.03736000E+01   4.03736000E+01   4.29148483E+00   3.31004548E+00   3.70635567E+01  -1.59917107E+01   3.65530739E+01   5.54957771E+00   3.81340714E+01   4.29148483E+00   8.83116436E+00
             3383                3   3.68066864E+01   4.05208473E+01   4.05208473E+01   3.16280031E+00   4.29148483E+00   4.05208473E+01   4.05208473E+01   4.29148483E+00   3.16280031E+00   3.73580475E+01  -1.59917107E+01   3.67677193E+01   5.33497381E+00   3.83486748E+01   4.29148483E+00   8.74241257E+00
             3383                4   3.65564232E+01   4.03563042E+01   4.03563042E+01   3.32734489E+00   4.29148483E+00   4.03563042E+01   4.03563042E+01   4.29148483E+00   3.32734489E+00   3.70289574E+01  -1.59917107E+01   3.65278015E+01   5.48756790E+00   3.81960793E+01   4.29148483E+00   8.67895412E+00
             3384                1   3.33515625E+01   4.09745827E+01   4.09745827E+01   7.06640434E+00   8.20900249E+00   4.09745827E+01   4.09745827E+01   8.20900249E+00   7.06640434E+00   3.39081802E+01  -1.87499981E+01   3.33074837E+01   8.95815754E+00   3.90828323E+01   8.20900249E+00   7.78248978E+00
             3384                2   3.33677483E+01   4.09851990E+01   4.09851990E+01   7.05579424E+00   8.20900249E+00   4.09851990E+01   4.09851990E+01   8.20900249E+00   7.05579424E+00   3.39294052E+01  -1.87499981E+01   3.33228645E+01   9.05321693E+00   3.89877739E+01   8.20900249E+00   7.98634434E+00
             3384                3   3.30082169E+01   4.07491035E+01   4.07491035E+01   7.29188633E+00   8.20900249E+00   4.07491035E+01   4.07491035E+01   8.20900249E+00   7.29188633E+00   3.34572182E+01  -1.87499981E+01   3.29795303E+01   9.16190720E+00   3.88790817E+01   8.20900249E+00   7.68561745E+00
             3384                4   3.30245895E+01   4.07598724E+01   4.07598724E+01   7.28111649E+00   8.20900249E+00   4.07598724E+01   4.07598724E+01   8.20900249E+00   7.28111649E+00   3.34787560E+01  -1.87499981E+01   3.29952431E+01   9.25703430E+00   3.87839546E+01   8.20900249E+00   7.88967800E+00
             3385                1   2.73430481E+01   3.78819847E+01   3.78819847E+01   8.97688484E+00   1.24288168E+01   3.78819847E+01   3.78819847E+01   1.24288168E+01   8.97688484E+00   2.89051018E+01  -1.97625637E+01   2.68462620E+01   1.28867769E+01   3.39720955E+01   1.24288168E+01   9.88577461E+00
             3385                2   2.71658630E+01   3.77701759E+01   3.77701759E+01   9.08869457E+00   1.24288168E+01   3.77701759E+01   3.77701759E+01   1.24288168E+01   9.08869457E+00   2.86814823E+01  -1.97625637E+01   2.66980286E+01   1.28647432E+01   3.39941292E+01   1.24288168E+01   9.69763374E+00
             3385                3   2.75867100E+01   3.80355186E+01   3.80355186E+01   8.82335567E+00   1.24288168E+01   3.80355186E+01   3.80355186E+01   1.24288168E+01   8.82335567E+00   2.92121639E+01  -1.97625637E+01   2.70490150E+01   1.26981201E+01   3.41607552E+01   1.24288168E+01   9.90840340E+00
             3385                4   2.74110756E+01   3.79248772E+01   3.79248772E+01   8.93399715E+00   1.24288168E+01   3.79248772E+01   3.79248772E+01   1.24288168E+01   8.93399715E+00   2.89908810E+01  -1.97625637E+01   2.69029922E+01   1.26760244E+01   3.41828499E+01   1.24288168E+01   9.72018051E+00
             3386                1   3.86454926E+01   4.20185623E+01   4.20185623E+01   3.17881680E+00   3.57029724E+00   4.20185623E+01   4.20185623E+01   3.57029724E+00   3.17881680E+00   3.88397484E+01  -1.62558918E+01   3.86410332E+01   5.07896185E+00   4.01184196E+01   3.57029724E+00   8.37798023E+00
             3386                2   3.89346466E+01   4.22101440E+01   4.22101440E+01   2.98724174E+00   3.57029724E+00   4.22101440E+01   4.22101440E+01   3.57029724E+00   2.98724174E+00   3.92229004E+01  -1.62558937E+01   3.89248199E+01   4.92107248E+00   4.02763100E+01   3.57029724E+00   8.49180794E+00
             3386                3   3.85973663E+01   4.19866333E+01   4.19866333E+01   3.21074820E+00   3.57029724E+00   4.19866333E+01   4.19866333E+01   3.57029724E+00   3.21074820E+00   3.87758827E+01  -1.62558918E+01   3.85935974E+01   5.18677330E+00   4.00106087E+01   3.57029724E+00   8.52744865E+00
             3386                4   3.88866768E+01   4.21783905E+01   4.21783905E+01   3.01899290E+00   3.57029724E+00   4.21783905E+01   4.21783905E+01   3.57029724E+00   3.01899290E+00   3.91593971E+01  -1.62558937E+01   3.88778839E+01   5.02940369E+00   4.01679802E+01   3.57029724E+00   8.64203262E+00
             3387                1   2.39915657E+01   3.91186905E+01   3.91186905E+01   1.47706547E+01   1.55002337E+01   3.91186905E+01   3.91186905E+01   1.55002337E+01   1.47706547E+01   2.43480339E+01  -2.31298599E+01   2.39665852E+01   1.53662872E+01   3.85230560E+01   1.55002337E+01   3.76134372E+00
             3387                2   2.40646420E+01   3.91666718E+01   3.91666718E+01   1.47226725E+01   1.55002337E+01   3.91666718E+01   3.91666718E+01   1.55002337E+01   1.47226725E+01   2.44439983E+01  -2.31298599E+01   2.40363522E+01   1.54099255E+01   3.84794197E+01   1.55002337E+01   4.04065371E+00
             3387                3   2.35674706E+01   3.88393555E+01   3.88393555E+01   1.50499878E+01   1.55002337E+01   3.88393555E+01   3.88393555E+01   1.55002337E+01   1.50499878E+01   2.37893677E+01  -2.31298599E+01   2.35577888E+01   1.56457443E+01   3.82435989E+01   1.55002337E+01   3.71722388E+00
             3387                4   2.36417446E+01   3.88883858E+01   3.88883858E+01   1.50009565E+01   1.55002337E+01   3.88883858E+01   3.88883858E+01   1.55002337E+01   1.50009565E+01   2.38874302E+01  -2.31298599E+01   2.36298771E+01   1.56894846E+01   3.81998596E+01   1.55002337E+01   3.99663138E+00
             3388                1   4.13306618E+01   4.29440346E+01   4.29440346E+01   1.66303945E+00   1.56388247E+00   4.29440346E+01   4.29440346E+01   1.66303945E+00   1.56388247E+00   4.13801537E+01  -1.53903189E+01   4.13303986E+01   3.43623447E+00   4.11708412E+01   1.56388247E+00   8.36988640E+00
             3388                2   4.16026726E+01   4.31253929E+01   4.31253929E+01   1.48168445E+00   1.56388247E+00   4.31253929E+01   4.31253929E+01   1.56388247E+00   1.48168445E+00   4.16437111E+01  -1.53903198E+01   4.16024895E+01   3.30684137E+00   4.13002357E+01   1.56388247E+00   8.52497292E+00
             3388                3   4.12129097E+01   4.28654022E+01   4.28654022E+01   1.74167752E+00   1.56388247E+00   4.28654022E+01   4.28654022E+01   1.74167752E+00   1.56388247E+00   4.13015175E+01  -1.53903198E+01   4.12120476E+01   3.57779336E+00   4.10292854E+01   1.56388247E+00   8.49332619E+00
             3388                4   4.14841232E+01   4.30464020E+01   4.30464020E+01   1.56067300E+00   1.56388247E+00   4.30464020E+01   4.30464020E+01   1.56388247E+00   1.56067300E+00   4.14857292E+01  -1.53903189E+01   4.14841270E+01   3.45036387E+00   4.11567116E+01   1.56388247E+00   8.65010071E+00
             3389                1   3.36811905E+01   4.15923157E+01   4.15923157E+01   7.46399689E+00   8.37680912E+00   4.15923157E+01   4.15923157E+01   8.37680912E+00   7.46399689E+00   3.41283188E+01  -1.91443729E+01   3.36533432E+01   9.01294422E+00   4.00433693E+01   8.37680912E+00   7.10378075E+00
             3389                2   3.36779823E+01   4.15902023E+01   4.15902023E+01   7.46610928E+00   8.37680912E+00   4.15902023E+01   4.15902023E+01   8.37680912E+00   7.46610928E+00   3.41240959E+01  -1.91443729E+01   3.36502609E+01   9.11358643E+00   3.99427261E+01   8.37680912E+00   7.31467628E+00
             3389                3   3.33259430E+01   4.13582115E+01   4.13582115E+01   7.69810009E+00   8.37680912E+00   4.13582115E+01   4.13582115E+01   8.37680912E+00   7.69810009E+00   3.36601143E+01  -1.91443729E+01   3.33103867E+01   9.22333527E+00   3.98329773E+01   8.37680912E+00   7.00094652E+00
             3389                4   3.33223610E+01   4.13558502E+01   4.13558502E+01   7.70046377E+00   8.37680912E+00   4.13558502E+01   4.13558502E+01   8.37680912E+00   7.70046377E+00   3.36553841E+01  -1.91443729E+01   3.33069115E+01   9.32425022E+00   3.97320633E+01   8.37680912E+00   7.21196508E+00
             3390                1   3.41847382E+01   4.38624306E+01   4.38624306E+01   6.80758762E+00   1.35536509E+01   4.38624306E+01   4.38624306E+01   1.35536509E+01   6.80758762E+00   3.70548401E+01  -2.14078903E+01   3.26363220E+01   1.24595976E+01   3.82104187E+01   1.35536509E+01   1.33225050E+01
             3390                2   3.30925941E+01   4.31892281E+01   4.31892281E+01   7.48078966E+00   1.35536509E+01   4.31892281E+01   4.31892281E+01   1.35536509E+01   7.48078966E+00   3.57084389E+01  -2.14078903E+01   3.18024788E+01   1.28468580E+01   3.78231583E+01   1.35536509E+01   1.27600651E+01
             3390                3   3.44017792E+01   4.39958572E+01   4.39958572E+01   6.67415667E+00   1.35536509E+01   4.39958572E+01   4.39958572E+01   1.35536509E+01   6.67415667E+00   3.73217010E+01  -2.14078884E+01   3.28001595E+01   1.18892078E+01   3.87808075E+01   1.35536509E+01   1.29397755E+01
             3390                4   3.33151474E+01   4.33266602E+01   4.33266602E+01   7.34335279E+00   1.35536509E+01   4.33266602E+01   4.33266602E+01   1.35536509E+01   7.34335279E+00   3.59833069E+01  -2.14078884E+01   3.19737186E+01   1.22766342E+01   3.83933792E+01   1.35536509E+01   1.23765306E+01
             3391                1   3.12174778E+01   3.98274040E+01   3.98274040E+01   7.98586893E+00   9.27385521E+00   3.98274040E+01   3.98274040E+01   9.27385521E+00   7.98586893E+00   3.18415375E+01  -1.90290432E+01   3.11576138E+01   1.01505594E+01   3.76627159E+01   9.27385521E+00   8.01505852E+00
             3391                2   3.15523052E+01   4.00459213E+01   4.00459213E+01   7.76735163E+00   9.27385521E+00   4.00459213E+01   4.00459213E+01   9.27385521E+00   7.76735163E+00   3.22785721E+01  -1.90290432E+01   3.14712353E+01   9.94694901E+00   3.78663254E+01   9.27385521E+00   8.09960747E+00
             3391                3   3.12658081E+01   3.98589859E+01   3.98589859E+01   7.95428705E+00   9.27385521E+00   3.98589859E+01   3.98589859E+01   9.27385521E+00   7.95428705E+00   3.19047012E+01  -1.90290432E+01   3.12030640E+01   1.02336226E+01   3.75796509E+01   9.27385521E+00   8.21743107E+00
             3391                4   3.16000862E+01   4.00770531E+01   4.00770531E+01   7.73622084E+00   9.27385521E+00   4.00770531E+01   4.00770531E+01   9.27385521E+00   7.73622084E+00   3.23408318E+01  -1.90290432E+01   3.15157509E+01   1.00302000E+01   3.77830734E+01   9.27385521E+00   8.30222130E+00
             3392                1   1.72114029E+02   1.76915451E+02   1.76915451E+02   1.76178145E+00   8.01127815E+00   1.76915451E+02   1.76915451E+02   8.01127815E+00   1.76178145E+00   1.75153671E+02  -6.22295036E+01   1.71858475E+02   1.86761916E+00   1.76809616E+02   8.01127815E+00   4.30417156E+00
             3392                2   1.71355347E+02   1.76443771E+02   1.76443771E+02   3.15321279E+00   7.09154320E+00   1.76443771E+02   1.76443771E+02   7.09154320E+00   3.15321279E+00   1.73290558E+02  -6.22295074E+01   1.71253464E+02   3.40563607E+00   1.76191345E+02   7.09154320E+00   6.60904455E+00
             3392                3   1.71046783E+02   1.76235962E+02   1.76235962E+02   3.16943359E+00   7.28312540E+00   1.76235962E+02   1.76235962E+02   7.28312540E+00   3.16943359E+00   1.73066528E+02  -6.22295074E+01   1.70935425E+02   3.19013619E+00   1.76215256E+02   7.28312540E+00   1.89291489E+00
             3392                4   1.70250305E+02   1.75725494E+02   1.75725494E+02   4.63390350E+00   6.32912588E+00   1.75725494E+02   1.75725494E+02   6.32912588E+00   4.63390350E+00   1.71091583E+02  -6.22295074E+01   1.70231308E+02   4.73645592E+00   1.75622940E+02   6.32912588E+00   4.18740797E+00
             3393                1   5.00932121E+01   5.04380035E+01   5.04380035E+01   4.09584165E-01   2.80247927E-01   5.04380035E+01   5.04380035E+01   4.09584165E-01   2.80247927E-01   5.01577568E+01  -1.70426121E+01   5.00928383E+01   1.36909771E+00   4.94784889E+01   2.80247927E-01   6.86165619E+00
             3393                2   4.97509232E+01   5.02092514E+01   5.02092514E+01   6.38337433E-01   2.80247927E-01   5.02092514E+01   5.02092514E+01   6.38337433E-01   2.80247927E-01   4.99290009E+01  -1.70426121E+01   4.97480240E+01   1.55934930E+00   4.92882385E+01   2.80247927E-01   6.69381237E+00
             3393                3   5.02585564E+01   5.05483131E+01   5.05483131E+01   2.99273551E-01   2.80247927E-01   5.05483131E+01   5.05483131E+01   2.99273551E-01   2.80247927E-01   5.02680664E+01  -1.70426121E+01   5.02585487E+01   1.20351756E+00   4.96440697E+01   2.80247927E-01   6.67980194E+00
             3393                4   4.99167519E+01   5.03201408E+01   5.03201408E+01   5.27448475E-01   2.80247927E-01   5.03201408E+01   5.03201408E+01   5.27448475E-01   2.80247927E-01   5.00398903E+01  -1.70426121E+01   4.99153748E+01   1.39284003E+00   4.94547462E+01   2.80247927E-01   6.50702190E+00
             3394                1   1.51698532E+02   1.75169556E+02   1.75169556E+02   1.76640968E+01   3.00355854E+01   1.75169556E+02   1.75169556E+02   3.00355854E+01   1.76640968E+01   1.57505447E+02  -7.42897415E+01   1.50557281E+02   2.74993134E+01   1.65334335E+02   3.00355854E+01   3.81099548E+01
             3394                2   1.49005600E+02   1.73436737E+02   1.73436737E+02   1.93969154E+01   3.00355854E+01   1.73436737E+02   1.73436737E+02   3.00355854E+01   1.93969154E+01   1.54039810E+02  -7.42897415E+01   1.48147507E+02   2.89025345E+01   1.63931122E+02   3.00355854E+01   3.70659676E+01
             3394                3   1.52601624E+02   1.75749008E+02   1.75749008E+02   1.70846424E+01   3.00355854E+01   1.75749008E+02   1.75749008E+02   3.00355854E+01   1.70846424E+01   1.58664368E+02  -7.42897415E+01   1.51357788E+02   2.61693001E+01   1.66664352E+02   3.00355854E+01   3.68629875E+01
             3394                4   1.49975754E+02   1.74061874E+02   1.74061874E+02   1.87717953E+01   3.00355854E+01   1.74061874E+02   1.74061874E+02   3.00355854E+01   1.87717953E+01   1.55290070E+02  -7.42897491E+01   1.49019638E+02   2.75119896E+01   1.65321671E+02   3.00355854E+01   3.57893143E+01
             3395                1   3.03243198E+01   4.03580284E+01   4.03580284E+01   7.82998371E+00   1.28686218E+01   4.03580284E+01   4.03580284E+01   1.28686218E+01   7.82998371E+00   3.25280418E+01  -2.03522110E+01   2.93603039E+01   1.28319139E+01   3.53560982E+01   1.28686218E+01   1.17338686E+01
             3395                2   3.05142727E+01   4.04760246E+01   4.04760246E+01   7.71198750E+00   1.28686218E+01   4.04760246E+01   4.04760246E+01   1.28686218E+01   7.71198750E+00   3.27640343E+01  -2.03522110E+01   2.95100269E+01   1.24824047E+01   3.57056084E+01   1.28686218E+01   1.15560036E+01
             3395                3   3.09291534E+01   4.07333488E+01   4.07333488E+01   7.45466089E+00   1.28686218E+01   4.07333488E+01   4.07333488E+01   1.28686218E+01   7.45466089E+00   3.32786903E+01  -2.03522110E+01   2.98350296E+01   1.26521387E+01   3.55358734E+01   1.28686218E+01   1.20810366E+01
             3395                4   3.11156654E+01   4.08488617E+01   4.08488617E+01   7.33915091E+00   1.28686218E+01   4.08488617E+01   4.08488617E+01   1.28686218E+01   7.33915091E+00   3.35097084E+01  -2.03522110E+01   2.99802570E+01   1.23027353E+01   3.58852768E+01   1.28686218E+01   1.19034061E+01
             3396                1   4.49419060E+01   3.89039688E+01   3.89039688E+01  -2.23122120E+00  -9.06247330E+00   3.89039688E+01   3.89039688E+01  -2.23122120E+00  -9.06247330E+00   4.79664421E+01  -9.20342541E+00   4.37509308E+01   7.64432287E+00   2.90284252E+01  -9.06247330E+00   1.75700321E+01
             3396                2   4.54091187E+01   3.92432404E+01   3.92432404E+01  -2.57049155E+00  -9.06247330E+00   3.92432404E+01   3.92432404E+01  -2.57049155E+00  -9.06247330E+00   4.83057137E+01  -9.20342541E+00   4.43470078E+01   7.01929903E+00   2.96534481E+01  -9.06247330E+00   1.75789890E+01
             3396                3   4.56916656E+01   3.94474411E+01   3.94474411E+01  -2.77469397E+00  -9.06247330E+00   3.94474411E+01   3.94474411E+01  -2.77469397E+00  -9.06247330E+00   4.85099144E+01  -9.20342541E+00   4.47027550E+01   7.70286131E+00   2.89698868E+01  -9.06247330E+00   1.82374783E+01
             3396                4   4.61118813E+01   3.97498322E+01   3.97498322E+01  -3.07708478E+00  -9.06247330E+00   3.97498322E+01   3.97498322E+01  -3.07708478E+00  -9.06247330E+00   4.88123055E+01  -9.20342541E+00   4.52255440E+01   7.07439375E+00   2.95983543E+01  -9.06247330E+00   1.82127438E+01
             3397                1   3.67215919E+01   4.01913490E+01   4.01913490E+01   1.28458261E+00   6.13752270E+00   4.01913490E+01   4.01913490E+01   6.13752270E+00   1.28458261E+00   3.89067688E+01  -1.58711519E+01   3.59895363E+01   2.52976513E+00   3.89461670E+01   6.13752270E+00   6.84803486E+00
             3397                2   3.69643250E+01   4.03439865E+01   4.03439865E+01   1.13194132E+00   6.13752270E+00   4.03439865E+01   4.03439865E+01   6.13752270E+00   1.13194132E+00   3.92120476E+01  -1.58711510E+01   3.61900368E+01   2.36813140E+00   3.91077995E+01   6.13752270E+00   6.85166502E+00
             3397                3   3.68084831E+01   4.02460098E+01   4.02460098E+01   1.22991967E+00   6.13752270E+00   4.02460098E+01   4.02460098E+01   6.13752270E+00   1.22991967E+00   3.90160904E+01  -1.58711510E+01   3.60614128E+01   2.53459716E+00   3.89413338E+01   6.13752270E+00   7.01435471E+00
             3397                4   3.70528870E+01   4.03996315E+01   4.03996315E+01   1.07629657E+00   6.13752270E+00   4.03996315E+01   4.03996315E+01   6.13752270E+00   1.07629657E+00   3.93233376E+01  -1.58711510E+01   3.62629623E+01   2.37202597E+00   3.91039047E+01   6.13752270E+00   7.01950407E+00
             3398                1   2.64290695E+01   3.90761528E+01   3.90761528E+01   1.19222527E+01   1.34370728E+01   3.90761528E+01   3.90761528E+01   1.34370728E+01   1.19222527E+01   2.71539001E+01  -2.14784927E+01   2.63311310E+01   1.35170593E+01   3.74813461E+01   1.34370728E+01   6.38449812E+00
             3398                2   2.65011578E+01   3.91229134E+01   3.91229134E+01   1.18754930E+01   1.34370728E+01   3.91229134E+01   3.91229134E+01   1.34370728E+01   1.18754930E+01   2.72474194E+01  -2.14784927E+01   2.63973465E+01   1.35887108E+01   3.74096947E+01   1.34370728E+01   6.61404848E+00
             3398                3   2.60651340E+01   3.88395691E+01   3.88395691E+01   1.21588354E+01   1.34370728E+01   3.88395691E+01   3.88395691E+01   1.34370728E+01   1.21588354E+01   2.66807346E+01  -2.14784927E+01   2.59944763E+01   1.37466030E+01   3.72518044E+01   1.34370728E+01   6.31203413E+00
             3398                4   2.61380558E+01   3.88870468E+01   3.88870468E+01   1.21113596E+01   1.34370728E+01   3.88870468E+01   3.88870468E+01   1.34370728E+01   1.21113596E+01   2.67756863E+01  -2.14784927E+01   2.60622540E+01   1.38183756E+01   3.71800308E+01   1.34370728E+01   6.54160547E+00
             3399                1   2.82662487E+01   3.93920403E+01   3.93920403E+01   1.03747921E+01   1.19419928E+01   3.93920403E+01   3.93920403E+01   1.19419928E+01   1.03747921E+01   2.90172462E+01  -2.05696087E+01   2.81682491E+01   1.22335901E+01   3.75332413E+01   1.19419928E+01   7.10507202E+00
             3399                2   2.83234596E+01   3.94291801E+01   3.94291801E+01   1.03376493E+01   1.19419928E+01   3.94291801E+01   3.94291801E+01   1.19419928E+01   1.03376493E+01   2.90915318E+01  -2.05696087E+01   2.82209549E+01   1.23138304E+01   3.74529991E+01   1.19419928E+01   7.32016897E+00
             3399                3   2.79164791E+01   3.91645126E+01   3.91645126E+01   1.06023169E+01   1.19419928E+01   3.91645126E+01   3.91645126E+01   1.19419928E+01   1.06023169E+01   2.85621967E+01  -2.05696087E+01   2.78440189E+01   1.24488163E+01   3.73180161E+01   1.19419928E+01   7.02356768E+00
             3399                4   2.79743690E+01   3.92022247E+01   3.92022247E+01   1.05646057E+01   1.19419928E+01   3.92022247E+01   3.92022247E+01   1.19419928E+01   1.05646057E+01   2.86376190E+01  -2.05696087E+01   2.78979187E+01   1.25290699E+01   3.72377586E+01   1.19419928E+01   7.23867989E+00
             3400                1   2.63684349E+01   3.97980385E+01   3.97980385E+01   1.29894333E+01   1.38930016E+01   3.97980385E+01   3.97980385E+01   1.38930016E+01   1.29894333E+01   2.68086052E+01  -2.22268238E+01   2.63335667E+01   1.39188986E+01   3.88685722E+01   1.38930016E+01   4.90446520E+00
             3400                2   2.59694519E+01   3.95358315E+01   3.95358315E+01   1.32516403E+01   1.38930016E+01   3.95358315E+01   3.95358315E+01   1.38930016E+01   1.32516403E+01   2.62841911E+01  -2.22268238E+01   2.59516239E+01   1.41773882E+01   3.86100845E+01   1.38930016E+01   4.84515333E+00
             3400                3   2.63126354E+01   3.97614365E+01   3.97614365E+01   1.30260334E+01   1.38930016E+01   3.97614365E+01   3.97614365E+01   1.38930016E+01   1.30260334E+01   2.67354050E+01  -2.22268238E+01   2.62804699E+01   1.38595848E+01   3.89278870E+01   1.38930016E+01   4.64655972E+00
             3400                4   2.59128933E+01   3.94985657E+01   3.94985657E+01   1.32889051E+01   1.38930016E+01   3.94985657E+01   3.94985657E+01   1.38930016E+01   1.32889051E+01   2.62096615E+01  -2.22268238E+01   2.58970451E+01   1.41179285E+01   3.86695442E+01   1.38930016E+01   4.58705854E+00
             3401                1   3.64205627E+01   4.40507889E+01   4.40507889E+01   7.59032154E+00   7.67025995E+00   4.40507889E+01   4.40507889E+01   7.67025995E+00   7.59032154E+00   3.64604645E+01  -1.97704563E+01   3.64203644E+01   8.24206924E+00   4.33990402E+01   7.67025995E+00   4.83096695E+00
             3401                2   3.64573975E+01   4.40753136E+01   4.40753136E+01   7.56579638E+00   7.67025995E+00   4.40753136E+01   4.40753136E+01   7.67025995E+00   7.56579638E+00   3.65095177E+01  -1.97704563E+01   3.64570580E+01   8.15627193E+00   4.34848366E+01   7.67025995E+00   4.60536098E+00
             3401                3   3.67946014E+01   4.42994576E+01   4.42994576E+01   7.34165192E+00   7.67025995E+00   4.42994576E+01   4.42994576E+01   7.67025995E+00   7.34165192E+00   3.69578056E+01  -1.97704563E+01   3.67912979E+01   8.00929356E+00   4.36318169E+01   7.67025995E+00   4.92227554E+00
             3401                4   3.68290672E+01   4.43223305E+01   4.43223305E+01   7.31877947E+00   7.67025995E+00   4.43223305E+01   4.43223305E+01   7.67025995E+00   7.31877947E+00   3.70035515E+01  -1.97704563E+01   3.68252945E+01   7.92424679E+00   4.37168617E+01   7.67025995E+00   4.69445324E+00
             3402                1   2.70430145E+01   3.80740471E+01   3.80740471E+01   9.03743267E+00   1.36068306E+01   3.80740471E+01   3.80740471E+01   1.36068306E+01   9.03743267E+00   2.90366154E+01  -2.02394371E+01   2.61532574E+01   1.36194830E+01   3.34919968E+01   1.36068306E+01   1.05854654E+01
             3402                2   2.72940159E+01   3.82297821E+01   3.82297821E+01   8.88169861E+00   1.36068306E+01   3.82297821E+01   3.82297821E+01   1.36068306E+01   8.88169861E+00   2.93480835E+01  -2.02394371E+01   2.63501530E+01   1.35874100E+01   3.35240707E+01   1.36068306E+01   1.07684679E+01
             3402                3   2.68797607E+01   3.79726372E+01   3.79726372E+01   9.13884354E+00   1.36068306E+01   3.79726372E+01   3.79726372E+01   1.36068306E+01   9.13884354E+00   2.88337936E+01  -2.02394371E+01   2.60245857E+01   1.38026829E+01   3.33087997E+01   1.36068306E+01   1.06171923E+01
             3402                4   2.71323414E+01   3.81294975E+01   3.81294975E+01   8.98198414E+00   1.36068306E+01   3.81294975E+01   3.81294975E+01   1.36068306E+01   8.98198414E+00   2.91475124E+01  -2.02394371E+01   2.62234573E+01   1.37706709E+01   3.33408089E+01   1.36068306E+01   1.08003149E+01
             3403                1   8.79899368E+01   8.40296326E+01   8.40296326E+01  -3.60993385E+00  -4.30653715E+00   8.40296326E+01   8.40296326E+01  -3.60993385E+00  -4.30653715E+00   8.83361740E+01  -2.53710556E+01   8.79837341E+01  -2.60678679E-01   8.06803818E+01  -4.30653715E+00   1.68020706E+01
             3403                2   8.88687057E+01   8.46168213E+01   8.46168213E+01  -4.19711685E+00  -4.30653715E+00   8.46168213E+01   8.46168213E+01  -4.19711685E+00  -4.30653715E+00   8.89233627E+01  -2.53710575E+01   8.88685455E+01  -8.99486542E-01   8.13191910E+01  -4.30653715E+00   1.67929001E+01
             3403                3   8.83433304E+01   8.42660141E+01   8.42660141E+01  -3.84630513E+00  -4.30653715E+00   8.42660141E+01   8.42660141E+01  -3.84630513E+00  -4.30653715E+00   8.85725479E+01  -2.53710575E+01   8.83406296E+01  -2.41683662E-01   8.06613922E+01  -4.30653715E+00   1.74533157E+01
             3403                4   8.92437973E+01   8.48668671E+01   8.48668671E+01  -4.44715929E+00  -4.30653715E+00   8.48668671E+01   8.48668671E+01  -4.30653715E+00  -4.44715929E+00   8.93140259E+01  -2.53710575E+01   8.92435455E+01  -9.09891188E-01   8.13295975E+01  -4.30653715E+00   1.74188271E+01
             3404                1   2.50361423E+01   3.75663643E+01   3.75663643E+01   1.12414589E+01   1.40570326E+01   3.75663643E+01   3.75663643E+01   1.40570326E+01   1.12414589E+01   2.63249054E+01  -2.09549522E+01   2.46761799E+01   1.43042183E+01   3.45036049E+01   1.40570326E+01   8.44075584E+00
             3404                2   2.49184704E+01   3.74917221E+01   3.74917221E+01   1.13161020E+01   1.40570326E+01   3.74917221E+01   3.74917221E+01   1.40570326E+01   1.13161020E+01   2.61756191E+01  -2.09549522E+01   2.45758896E+01   1.42458239E+01   3.45620003E+01   1.40570326E+01   8.25251389E+00
             3404                3   2.53238602E+01   3.77485733E+01   3.77485733E+01   1.10592499E+01   1.40570326E+01   3.77485733E+01   3.77485733E+01   1.40570326E+01   1.10592499E+01   2.66893234E+01  -2.09549522E+01   2.49199734E+01   1.41159153E+01   3.46919060E+01   1.40570326E+01   8.49924469E+00
             3404                4   2.52075195E+01   3.76749458E+01   3.76749458E+01   1.11328773E+01   1.40570326E+01   3.76749458E+01   3.76749458E+01   1.40570326E+01   1.11328773E+01   2.65420685E+01  -2.09549522E+01   2.48216343E+01   1.40575361E+01   3.47502861E+01   1.40570326E+01   8.31101036E+00
             3405                1   1.85315842E+02   2.09911804E+02   2.09911804E+02   1.47401390E+01   3.63458748E+01   2.09911804E+02   2.09911804E+02   3.63458748E+01   1.47401390E+01   1.95171661E+02  -8.69992752E+01   1.82449951E+02   2.90203915E+01   1.95631561E+02   3.63458748E+01   5.08249359E+01
             3405                2   1.81411438E+02   2.07434921E+02   2.07434921E+02   1.72170391E+01   3.63458748E+01   2.07434921E+02   2.07434921E+02   3.63458748E+01   1.72170391E+01   1.90217880E+02  -8.69992752E+01   1.79121384E+02   3.10306511E+01   1.93621307E+02   3.63458748E+01   4.93637581E+01
             3405                3   1.86238632E+02   2.10495651E+02   2.10495651E+02   1.41563015E+01   3.63458748E+01   2.10495651E+02   2.10495651E+02   3.63458748E+01   1.41563015E+01   1.96339340E+02  -8.69992752E+01   1.83229218E+02   2.71704941E+01   1.97481461E+02   3.63458748E+01   4.88449326E+01
             3405                4   1.82284256E+02   2.07989578E+02   2.07989578E+02   1.66623840E+01   3.63458748E+01   2.07989578E+02   2.07989578E+02   3.63458748E+01   1.66623840E+01   1.91327194E+02  -8.69992752E+01   1.79869995E+02   2.92341423E+01   1.95417816E+02   3.63458748E+01   4.74053879E+01
             3406                1   2.14373093E+02   2.27340897E+02   2.27340897E+02  -3.63738513E+00   3.47634735E+01   2.27340897E+02   2.27340897E+02   3.47634735E+01  -3.63738513E+00   2.30978271E+02  -8.61556625E+01   2.06421188E+02  -3.62166858E+00   2.27325180E+02   3.47634735E+01  -1.90493667E+00
             3406                2   2.14108627E+02   2.27248566E+02   2.27248566E+02  -3.11057472E+00   3.43289986E+01   2.27248566E+02   2.27248566E+02   3.43289986E+01  -3.11057472E+00   2.30359131E+02  -8.61556625E+01   2.06550613E+02  -3.10279393E+00   2.27240784E+02   3.43289986E+01   1.33839405E+00
             3406                3   2.13716232E+02   2.27115570E+02   2.27115570E+02  -2.28550959E+00   3.36369247E+01   2.27115570E+02   2.27115570E+02   3.36369247E+01  -2.28550959E+00   2.29401077E+02  -8.61556625E+01   2.06759781E+02  -2.24120545E+00   2.27071274E+02   3.36369247E+01  -3.18750858E+00
             3406                4   2.13441696E+02   2.27015549E+02   2.27015549E+02  -1.72862577E+00   3.31800575E+01   2.27015549E+02   2.27015549E+02   3.31800575E+01  -1.72862577E+00   2.28744171E+02  -8.61556625E+01   2.06872498E+02  -1.72861636E+00   2.27015549E+02   3.31800575E+01   2.74458993E-02
             3407                1   2.84800930E+01   4.06606712E+01   4.06606712E+01   1.18185310E+01   1.25569887E+01   4.06606712E+01   4.06606712E+01   1.25569887E+01   1.18185310E+01   2.88421402E+01  -2.16787319E+01   2.84585400E+01   1.26609211E+01   3.98182831E+01   1.25569887E+01   4.85661173E+00
             3407                2   2.80861759E+01   4.04008064E+01   4.04008064E+01   1.20783939E+01   1.25569887E+01   4.04008064E+01   4.04008064E+01   1.25569887E+01   1.20783939E+01   2.83224144E+01  -2.16787319E+01   2.80769939E+01   1.29133177E+01   3.95658836E+01   1.25569887E+01   4.79061317E+00
             3407                3   2.84492779E+01   4.06403847E+01   4.06403847E+01   1.18388195E+01   1.25569887E+01   4.06403847E+01   4.06403847E+01   1.25569887E+01   1.18388195E+01   2.88015633E+01  -2.16787319E+01   2.84288692E+01   1.25948992E+01   3.98843040E+01   1.25569887E+01   4.60484505E+00
             3407                4   2.80549431E+01   4.03801575E+01   4.03801575E+01   1.20990448E+01   1.25569887E+01   4.03801575E+01   4.03801575E+01   1.25569887E+01   1.20990448E+01   2.82811127E+01  -2.16787319E+01   2.80465298E+01   1.28471680E+01   3.96320343E+01   1.25569887E+01   4.53850794E+00
             3408                1   2.95989876E+01   3.88607483E+01   3.88607483E+01   8.34657478E+00   1.02708502E+01   3.88607483E+01   3.88607483E+01   1.02708502E+01   8.34657478E+00   3.05141754E+01  -1.91593914E+01   2.94577618E+01   1.10507698E+01   3.61565552E+01   1.02708502E+01   8.67200089E+00
             3408                2   2.99116478E+01   3.90626717E+01   3.90626717E+01   8.14465618E+00   1.02708502E+01   3.90626717E+01   3.90626717E+01   1.02708502E+01   8.14465618E+00   3.09180164E+01  -1.91593933E+01   2.97409153E+01   1.08496389E+01   3.63576889E+01   1.02708502E+01   8.73589039E+00
             3408                3   2.96969662E+01   3.89240837E+01   3.89240837E+01   8.28324127E+00   1.02708502E+01   3.89240837E+01   3.89240837E+01   1.02708502E+01   8.28324127E+00   3.06408424E+01  -1.91593914E+01   2.95467567E+01   1.11134062E+01   3.60939178E+01   1.02708502E+01   8.87179947E+00
             3408                4   3.00085354E+01   3.91251335E+01   3.91251335E+01   8.08218956E+00   1.02708502E+01   3.91251335E+01   3.91251335E+01   1.02708502E+01   8.08218956E+00   3.10429459E+01  -1.91593914E+01   2.98281708E+01   1.09122858E+01   3.62950401E+01   1.02708502E+01   8.93560600E+00
             3409                1   2.63656826E+01   3.94334221E+01   3.94334221E+01   1.25004568E+01   1.36742306E+01   3.94334221E+01   3.94334221E+01   1.36742306E+01   1.25004568E+01   2.69329662E+01  -2.18693695E+01   2.63068027E+01   1.36950846E+01   3.82387962E+01   1.36742306E+01   5.54506254E+00
             3409                2   2.64296036E+01   3.94751244E+01   3.94751244E+01   1.24587545E+01   1.36742306E+01   3.94751244E+01   3.94751244E+01   1.36742306E+01   1.24587545E+01   2.70163708E+01  -2.18693695E+01   2.63666115E+01   1.37619057E+01   3.81719742E+01   1.36742306E+01   5.78862858E+00
             3409                3   2.59826908E+01   3.91829605E+01   3.91829605E+01   1.27509232E+01   1.36742306E+01   3.91829605E+01   3.91829605E+01   1.36742306E+01   1.27509232E+01   2.64320374E+01  -2.18693714E+01   2.59457397E+01   1.39396210E+01   3.79942627E+01   1.36742306E+01   5.47783852E+00
             3409                4   2.60474396E+01   3.92253761E+01   3.92253761E+01   1.27085066E+01   1.36742306E+01   3.92253761E+01   3.92253761E+01   1.36742306E+01   1.27085066E+01   2.65168705E+01  -2.18693714E+01   2.60071106E+01   1.40065718E+01   3.79273109E+01   1.36742306E+01   5.72151089E+00
             3410                1   3.31786156E+01   3.97318077E+01   3.97318077E+01   5.50462961E+00   7.71199417E+00   3.97318077E+01   3.97318077E+01   7.71199417E+00   5.50462961E+00   3.42271805E+01  -1.76494770E+01   3.30128021E+01   8.37416840E+00   3.68622704E+01   7.71199417E+00   9.48588276E+00
             3410                2   3.28942604E+01   3.95478477E+01   3.95478477E+01   5.68859243E+00   7.71199417E+00   3.95478477E+01   3.95478477E+01   7.71199417E+00   5.68859243E+00   3.38592529E+01  -1.76494770E+01   3.27538033E+01   8.57712555E+00   3.66593132E+01   7.71199417E+00   9.45832729E+00
             3410                3   3.30406342E+01   3.96425934E+01   3.96425934E+01   5.59384489E+00   7.71199417E+00   3.96425934E+01   3.96425934E+01   7.71199417E+00   5.59384489E+00   3.40487480E+01  -1.76494770E+01   3.28873596E+01   8.34878922E+00   3.68876495E+01   7.71199417E+00   9.28507900E+00
             3410                4   3.27556114E+01   3.94580002E+01   3.94580002E+01   5.77844000E+00   7.71199417E+00   3.94580002E+01   3.94580002E+01   7.71199417E+00   5.77844000E+00   3.36795578E+01  -1.76494770E+01   3.26268425E+01   8.55184650E+00   3.66845932E+01   7.71199417E+00   9.25825596E+00
             3411                1   1.78636383E+02   1.97446228E+02   1.97446228E+02   1.57539730E+01   2.20311794E+01   1.97446228E+02   1.97446228E+02   2.20311794E+01   1.57539730E+01   1.81692245E+02  -7.84104538E+01   1.78387985E+02   1.67825356E+01   1.96417664E+02   2.20311794E+01   1.36317005E+01
             3411                2   1.82548828E+02   2.00002762E+02   2.00002762E+02   1.31974268E+01   2.20311794E+01   2.00002762E+02   2.00002762E+02   2.20311794E+01   1.31974268E+01   1.86805344E+02  -7.84104538E+01   1.82067017E+02   1.37471848E+01   1.99453018E+02   2.20311794E+01   1.01189957E+01
             3411                3   1.84130844E+02   2.01031021E+02   2.01031021E+02   1.21468287E+01   2.20535316E+01   2.01031021E+02   2.01031021E+02   2.20535316E+01   1.21468287E+01   1.88884201E+02  -7.84104614E+01   1.83529785E+02   1.37467585E+01   1.99431091E+02   2.20535316E+01   1.73101978E+01
             3411                4   1.84827377E+02   2.01425278E+02   2.01425278E+02   1.07736530E+01   2.30324612E+01   2.01425278E+02   2.01425278E+02   2.30324612E+01   1.07736530E+01   1.90651627E+02  -7.84104614E+01   1.83909378E+02   1.17194777E+01   2.00479446E+02   2.30324612E+01   1.33951206E+01
             3412                1   3.12797756E+01   3.92965126E+01   3.92965126E+01   6.36314774E+00   9.98578835E+00   3.92965126E+01   3.92965126E+01   9.98578835E+00   6.36314774E+00   3.29333649E+01  -1.85484829E+01   3.08025169E+01   1.02244864E+01   3.54351730E+01   9.98578835E+00   1.05951385E+01
             3412                2   3.09510231E+01   3.90881233E+01   3.90881233E+01   6.57153606E+00   9.98578835E+00   3.90881233E+01   3.90881233E+01   9.98578835E+00   6.57153606E+00   3.25165863E+01  -1.85484829E+01   3.05230370E+01   1.02862120E+01   3.53734474E+01   9.98578835E+00   1.03435869E+01
             3412                3   3.15279140E+01   3.94535065E+01   3.94535065E+01   6.20615292E+00   9.98578835E+00   3.94535065E+01   3.94535065E+01   9.98578835E+00   6.20615292E+00   3.32473526E+01  -1.85484829E+01   3.10120697E+01   9.97087288E+00   3.56887894E+01   9.98578835E+00   1.05353613E+01
             3412                4   3.12018795E+01   3.92471771E+01   3.92471771E+01   6.41248322E+00   9.98578835E+00   3.92471771E+01   3.92471771E+01   9.98578835E+00   6.41248322E+00   3.28346939E+01  -1.85484829E+01   3.07364902E+01   1.00324783E+01   3.56271820E+01   9.98578835E+00   1.02838259E+01
             3413                1   7.33237000E+01   6.77693024E+01   6.77693024E+01  -4.57191229E+00  -6.49889755E+00   6.77693024E+01   6.77693024E+01  -4.57191229E+00  -6.49889755E+00   7.42682037E+01  -1.88994980E+01   7.32667007E+01   2.44846034E+00   6.07489319E+01  -6.49889755E+00   2.14144020E+01
             3413                2   7.32216415E+01   6.77003174E+01   6.77003174E+01  -4.50293112E+00  -6.49889755E+00   6.77003174E+01   6.77003174E+01  -4.50293112E+00  -6.49889755E+00   7.41992188E+01  -1.88994961E+01   7.31603928E+01   2.42260551E+00   6.07747841E+01  -6.49889755E+00   2.12622452E+01
             3413                3   7.36150131E+01   6.79660034E+01   6.79660034E+01  -4.76861429E+00  -6.49889755E+00   6.79660034E+01   6.79660034E+01  -4.76861429E+00  -6.49889755E+00   7.44649048E+01  -1.88994980E+01   7.35692368E+01   2.27554631E+00   6.09218445E+01  -6.49889755E+00   2.15112572E+01
             3413                4   7.34513779E+01   6.78555527E+01   6.78555527E+01  -4.65815878E+00  -6.49889755E+00   6.78555527E+01   6.78555527E+01  -4.65815878E+00  -6.49889755E+00   7.43544464E+01  -1.88994980E+01   7.33994598E+01   2.28427052E+00   6.09131203E+01  -6.49889755E+00   2.13359795E+01
             3414                1   3.03253117E+01   4.08598595E+01   4.08598595E+01   1.00797119E+01   1.10108271E+01   4.08598595E+01   4.08598595E+01   1.10108271E+01   1.00797119E+01   3.07801476E+01  -2.06501331E+01   3.02931252E+01   1.13539915E+01   3.95855789E+01   1.10108271E+01   6.13178110E+00
             3414                2   2.99523277E+01   4.06144295E+01   4.06144295E+01   1.03251467E+01   1.10108271E+01   4.06144295E+01   4.06144295E+01   1.10108271E+01   1.03251467E+01   3.02892818E+01  -2.06501331E+01   2.99346619E+01   1.15841846E+01   3.93553886E+01   1.10108271E+01   6.04567719E+00
             3414                3   3.03058357E+01   4.08470650E+01   4.08470650E+01   1.00925055E+01   1.10108271E+01   4.08470650E+01   4.08470650E+01   1.10108271E+01   1.00925055E+01   3.07545605E+01  -2.06501331E+01   3.02745094E+01   1.12711420E+01   3.96684303E+01   1.10108271E+01   5.90417051E+00
             3414                4   2.99326935E+01   4.06014824E+01   4.06014824E+01   1.03380919E+01   1.10108271E+01   4.06014824E+01   4.06014824E+01   1.10108271E+01   1.03380919E+01   3.02633915E+01  -2.06501331E+01   2.99156761E+01   1.15013447E+01   3.94382286E+01   1.10108271E+01   5.81814671E+00
             3415                1   4.00122108E+01   4.24844971E+01   4.24844971E+01   2.39875865E+00   2.54622293E+00   4.24844971E+01   4.24844971E+01   2.54622293E+00   2.39875865E+00   4.00857391E+01  -1.58098259E+01   4.00115967E+01   4.22629452E+00   4.06569595E+01   2.54622293E+00   8.36171436E+00
             3415                2   4.02928772E+01   4.26710510E+01   4.26710510E+01   2.21220326E+00   2.54622293E+00   4.26710510E+01   4.26710510E+01   2.54622293E+00   2.21220326E+00   4.04588470E+01  -1.58098259E+01   4.02897606E+01   4.08120728E+00   4.08020477E+01   2.54622293E+00   8.49261856E+00
             3415                3   3.99307671E+01   4.24302826E+01   4.24302826E+01   2.45297170E+00   2.54622293E+00   4.24302826E+01   4.24302826E+01   2.54622293E+00   2.45297170E+00   3.99773102E+01  -1.58098259E+01   3.99305229E+01   4.34999657E+00   4.05332603E+01   2.54622293E+00   8.49936390E+00
             3415                4   4.02121735E+01   4.26174507E+01   4.26174507E+01   2.26580262E+00   2.54622293E+00   4.26174507E+01   4.26174507E+01   2.54622293E+00   2.26580262E+00   4.03516502E+01  -1.58098259E+01   4.02099724E+01   4.20465851E+00   4.06785965E+01   2.54622293E+00   8.62999821E+00
             3416                1   2.52012863E+01   3.74737816E+01   3.74737816E+01   1.08890438E+01   1.39323311E+01   3.74737816E+01   3.74737816E+01   1.39323311E+01   1.08890438E+01   2.65847359E+01  -2.07650509E+01   2.47828217E+01   1.41797762E+01   3.41830482E+01   1.39323311E+01   8.75524521E+00
             3416                2   2.50790215E+01   3.73964729E+01   3.73964729E+01   1.09663496E+01   1.39323311E+01   3.73964729E+01   3.73964729E+01   1.39323311E+01   1.09663496E+01   2.64301243E+01  -2.07650509E+01   2.46798077E+01   1.41256170E+01   3.42372055E+01   1.39323311E+01   8.57431507E+00
             3416                3   2.54738789E+01   3.76458702E+01   3.76458702E+01   1.07169542E+01   1.39323311E+01   3.76458702E+01   3.76458702E+01   1.39323311E+01   1.07169542E+01   2.69289150E+01  -2.07650509E+01   2.50112228E+01   1.39988213E+01   3.43640022E+01   1.39323311E+01   8.80945396E+00
             3416                4   2.53528938E+01   3.75695343E+01   3.75695343E+01   1.07932882E+01   1.39323311E+01   3.75695343E+01   3.75695343E+01   1.39323311E+01   1.07932882E+01   2.67762470E+01  -2.07650509E+01   2.49100647E+01   1.39447012E+01   3.44181213E+01   1.39323311E+01   8.62853622E+00
             3417                1   3.23976517E+01   4.24128342E+01   4.24128342E+01   9.93169308E+00   1.00993252E+01   4.24128342E+01   4.24128342E+01   1.00993252E+01   9.93169308E+00   3.24811401E+01  -2.08146191E+01   3.23966713E+01   1.05151777E+01   4.18293495E+01   1.00993252E+01   4.31414175E+00
             3417                2   3.24054489E+01   4.24180183E+01   4.24180183E+01   9.92650890E+00   1.00993252E+01   4.24180183E+01   4.24180183E+01   1.00993252E+01   9.92650890E+00   3.24915085E+01  -2.08146191E+01   3.24044075E+01   1.04444275E+01   4.19001007E+01   1.00993252E+01   4.06936312E+00
             3417                3   3.27833214E+01   4.26687965E+01   4.26687965E+01   9.67572975E+00   1.00993252E+01   4.26687965E+01   4.26687965E+01   1.00993252E+01   9.67572975E+00   3.29930687E+01  -2.08146191E+01   3.27771645E+01   1.02696457E+01   4.20748825E+01   1.00993252E+01   4.38661146E+00
             3417                4   3.27913017E+01   4.26740837E+01   4.26740837E+01   9.67044544E+00   1.00993252E+01   4.26740837E+01   4.26740837E+01   1.00993252E+01   9.67044544E+00   3.30036354E+01  -2.08146191E+01   3.27849884E+01   1.01985359E+01   4.21459923E+01   1.00993252E+01   4.14125776E+00
             3418                1   3.61716881E+01   4.17394180E+01   4.17394180E+01   5.25078535E+00   5.89322948E+00   4.17394180E+01   4.17394180E+01   5.89322948E+00   5.25078535E+00   3.64886322E+01  -1.76278114E+01   3.61588478E+01   7.09580278E+00   3.98944016E+01   5.89322948E+00   7.99487686E+00
             3418                2   3.65027885E+01   4.19579239E+01   4.19579239E+01   5.03227854E+00   5.89322948E+00   4.19579239E+01   4.19579239E+01   5.89322948E+00   5.03227854E+00   3.69256477E+01  -1.76278114E+01   3.64799309E+01   6.90541887E+00   4.00847855E+01   5.89322948E+00   8.10297775E+00
             3418                3   3.61556282E+01   4.17288055E+01   4.17288055E+01   5.26140404E+00   5.89322948E+00   4.17288055E+01   4.17288055E+01   5.89322948E+00   5.26140404E+00   3.64673996E+01  -1.76278133E+01   3.61432037E+01   7.20191526E+00   3.97882919E+01   5.89322948E+00   8.18534279E+00
             3418                4   3.64870529E+01   4.19475555E+01   4.19475555E+01   5.04265213E+00   5.89322948E+00   4.19475555E+01   4.19475555E+01   5.89322948E+00   5.04265213E+00   3.69049034E+01  -1.76278133E+01   3.64647331E+01   7.01120329E+00   3.99790039E+01   5.89322948E+00   8.29300976E+00
             3419                1   3.72256927E+01   4.15331688E+01   4.15331688E+01   3.99660158E+00   4.62633705E+00   4.15331688E+01   4.15331688E+01   4.62633705E+00   3.99660158E+00   3.75365677E+01  -1.67187023E+01   3.72137108E+01   5.98663521E+00   3.95431366E+01   4.62633705E+00   8.41063213E+00
             3419                2   3.75272446E+01   4.17322884E+01   4.17322884E+01   3.79748273E+00   4.62633705E+00   4.17322884E+01   4.17322884E+01   4.62633705E+00   3.79748273E+00   3.79348030E+01  -1.67187023E+01   3.75066414E+01   5.81448269E+00   3.97152863E+01   4.62633705E+00   8.51153564E+00
             3419                3   3.72079163E+01   4.15214119E+01   4.15214119E+01   4.00835705E+00   4.62633705E+00   4.15214119E+01   4.15214119E+01   4.62633705E+00   4.00835705E+00   3.75130577E+01  -1.67187023E+01   3.71963692E+01   6.08338261E+00   3.94463882E+01   4.62633705E+00   8.57524300E+00
             3419                4   3.75095139E+01   4.17205925E+01   4.17205925E+01   3.80917716E+00   4.62633705E+00   4.17205925E+01   4.17205925E+01   4.62633705E+00   3.80917716E+00   3.79114151E+01  -1.67187023E+01   3.74894791E+01   5.91175508E+00   3.96180153E+01   4.62633705E+00   8.67703056E+00
             3420                1   3.60497971E+01   4.26163216E+01   4.26163216E+01   3.90783501E+00   1.00020676E+01   4.26163216E+01   4.26163216E+01   1.00020676E+01   3.90783501E+00   3.87084846E+01  -1.88420734E+01   3.48625183E+01   7.06704426E+00   3.94571114E+01   1.00020676E+01   1.05975266E+01
             3420                2   3.69533882E+01   4.31762657E+01   4.31762657E+01   3.34788728E+00   1.00020676E+01   4.31762657E+01   4.31762657E+01   1.00020676E+01   3.34788728E+00   3.98283806E+01  -1.88420734E+01   3.55678291E+01   6.65068388E+00   3.98734703E+01   1.00020676E+01   1.09834690E+01
             3420                3   3.59235992E+01   4.25379448E+01   4.25379448E+01   3.98621154E+00   1.00020676E+01   4.25379448E+01   4.25379448E+01   1.00020676E+01   3.98621154E+00   3.85517311E+01  -1.88420734E+01   3.47631378E+01   7.45856476E+00   3.90655899E+01   1.00020676E+01   1.10366659E+01
             3420                4   3.68269043E+01   4.30980148E+01   4.30980148E+01   3.42614079E+00   1.00020676E+01   4.30980148E+01   4.30980148E+01   1.00020676E+01   3.42614079E+00   3.96718712E+01  -1.88420734E+01   3.54697456E+01   7.03954649E+00   3.94846077E+01   1.00020676E+01   1.14146347E+01
             3421                1   6.43878403E+01   6.64721069E+01   6.64721069E+01   1.39871526E+00   2.79244828E+00   6.64721069E+01   6.64721069E+01   2.79244828E+00   1.39871526E+00   6.50733871E+01  -2.35544224E+01   6.43538895E+01   3.09660187E+01   3.69048042E+01   2.79244828E+00   3.24009132E+01
             3421                2   6.38225365E+01   6.60987015E+01   6.60987015E+01   1.77211642E+00   2.79244828E+00   6.60987015E+01   6.60987015E+01   2.79244828E+00   1.77211642E+00   6.43265839E+01  -2.35544224E+01   6.38041840E+01   3.19585857E+01   3.59122353E+01   2.79244828E+00   3.21024857E+01
             3421                3   6.32232246E+01   6.57016983E+01   6.57016983E+01   2.16911769E+00   2.79244828E+00   6.57016983E+01   6.57016983E+01   2.79244828E+00   2.16911769E+00   6.35325851E+01  -2.35544224E+01   6.32163086E+01   3.04416676E+01   3.74291534E+01   2.79244828E+00   3.15735817E+01
             3421                4   6.28073769E+01   6.54255295E+01   6.54255295E+01   2.44529152E+00   2.79244828E+00   6.54255295E+01   6.54255295E+01   2.79244828E+00   2.44529152E+00   6.29802361E+01  -2.35544224E+01   6.28052177E+01   3.15091228E+01   3.63616982E+01   2.79244828E+00   3.13965073E+01
             3422                1   2.83795853E+01   4.02479324E+01   4.02479324E+01   1.13962469E+01   1.23652744E+01   4.02479324E+01   4.02479324E+01   1.23652744E+01   1.13962469E+01   2.88516865E+01  -2.13364849E+01   2.83423290E+01   1.24845486E+01   3.91596336E+01   1.23652744E+01   5.49681044E+00
             3422                2   2.84172344E+01   4.02726173E+01   4.02726173E+01   1.13715620E+01   1.23652744E+01   4.02726173E+01   4.02726173E+01   1.23652744E+01   1.13715620E+01   2.89010563E+01  -2.13364849E+01   2.83781052E+01   1.25588198E+01   3.90853615E+01   1.23652744E+01   5.73614883E+00
             3422                3   2.79979935E+01   3.99972076E+01   3.99972076E+01   1.16469746E+01   1.23652744E+01   3.99972076E+01   3.99972076E+01   1.23652744E+01   1.16469746E+01   2.83502312E+01  -2.13364849E+01   2.79772511E+01   1.27249174E+01   3.89192619E+01   1.23652744E+01   5.42199230E+00
             3422                4   2.80361290E+01   4.00223083E+01   4.00223083E+01   1.16218719E+01   1.23652744E+01   4.00223083E+01   4.00223083E+01   1.23652744E+01   1.16218719E+01   2.84004364E+01  -2.13364849E+01   2.80139408E+01   1.27993164E+01   3.88448639E+01   1.23652744E+01   5.66158676E+00
             3423                1   3.42450256E+01   4.04995499E+01   4.04995499E+01   5.71330500E+00   6.82270908E+00   4.04995499E+01   4.04995499E+01   6.82270908E+00   5.71330500E+00   3.47862473E+01  -1.76785221E+01   3.42045593E+01   7.94059324E+00   3.82722626E+01   6.82270908E+00   8.51576138E+00
             3423                2   3.45599518E+01   4.07059631E+01   4.07059631E+01   5.50689459E+00   6.82270908E+00   4.07059631E+01   4.07059631E+01   6.82270908E+00   5.50689459E+00   3.51990662E+01  -1.76785221E+01   3.45035248E+01   7.74814081E+00   3.84647141E+01   6.82270908E+00   8.59456825E+00
             3423                3   3.42834167E+01   4.05247421E+01   4.05247421E+01   5.68811274E+00   6.82270908E+00   4.05247421E+01   4.05247421E+01   6.82270908E+00   5.68811274E+00   3.48366318E+01  -1.76785221E+01   3.42411385E+01   8.01780415E+00   3.81950531E+01   6.82270908E+00   8.70236206E+00
             3423                4   3.45983124E+01   4.07310677E+01   4.07310677E+01   5.48178911E+00   6.82270908E+00   4.07310677E+01   4.07310677E+01   6.82270908E+00   5.48178911E+00   3.52492790E+01  -1.76785221E+01   3.45397758E+01   7.82607937E+00   3.83867760E+01   6.82270908E+00   8.78287411E+00
             3424                1   2.53804016E+01   3.74063339E+01   3.74063339E+01   1.05497818E+01   1.38188744E+01   3.74063339E+01   3.74063339E+01   1.38188744E+01   1.05497818E+01   2.68565521E+01  -2.05916634E+01   2.49001274E+01   1.40646725E+01   3.38914413E+01   1.38188744E+01   9.05778217E+00
             3424                2   2.52518959E+01   3.73253326E+01   3.73253326E+01   1.06307812E+01   1.38188744E+01   3.73253326E+01   3.73253326E+01   1.38188744E+01   1.06307812E+01   2.66945496E+01  -2.05916615E+01   2.47930565E+01   1.40162821E+01   3.39398308E+01   1.38188744E+01   8.88328743E+00
             3424                3   2.56378651E+01   3.75683861E+01   3.75683861E+01   1.03877258E+01   1.38188744E+01   3.75683861E+01   3.75683861E+01   1.38188744E+01   1.03877258E+01   2.71806602E+01  -2.05916615E+01   2.51135216E+01   1.38899584E+01   3.40661545E+01   1.38188744E+01   9.10644436E+00
             3424                4   2.55106869E+01   3.74883766E+01   3.74883766E+01   1.04677382E+01   1.38188744E+01   3.74883766E+01   3.74883766E+01   1.38188744E+01   1.04677382E+01   2.70206394E+01  -2.05916634E+01   2.50082970E+01   1.38414249E+01   3.41146889E+01   1.38188744E+01   8.93182087E+00
             3425                1   2.84466076E+01   3.93516121E+01   3.93516121E+01   8.65435314E+00   1.38803282E+01   3.93516121E+01   3.93516121E+01   1.38803282E+01   8.65435314E+00   3.06972599E+01  -2.06287651E+01   2.73351173E+01   1.37291775E+01   3.42767868E+01   1.38803282E+01   1.14030428E+01
             3425                2   2.83192577E+01   3.92729111E+01   3.92729111E+01   8.73305130E+00   1.38803282E+01   3.92729111E+01   3.92729111E+01   1.38803282E+01   8.73305130E+00   3.05398598E+01  -2.06287632E+01   2.72368336E+01   1.39557581E+01   3.40502052E+01   1.38803282E+01   1.14988718E+01
             3425                3   2.80714283E+01   3.91196060E+01   3.91196060E+01   8.88635921E+00   1.38803282E+01   3.91196060E+01   3.91196060E+01   1.38803282E+01   8.88635921E+00   3.02332478E+01  -2.06287651E+01   2.70447826E+01   1.38249264E+01   3.41810379E+01   1.38803282E+01   1.11767387E+01
             3425                4   2.79426765E+01   3.90398827E+01   3.90398827E+01   8.96608162E+00   1.38803282E+01   3.90398827E+01   3.90398827E+01   1.38803282E+01   8.96608162E+00   3.00737991E+01  -2.06287632E+01   2.69446049E+01   1.40516443E+01   3.39543190E+01   1.38803282E+01   1.12729425E+01
             3426                1   3.59574280E+01   4.30570564E+01   4.30570564E+01   6.80698013E+00   7.39960003E+00   4.30570564E+01   4.30570564E+01   7.39960003E+00   6.80698013E+00   3.62500763E+01  -1.90878792E+01   3.59464378E+01   7.97476196E+00   4.18892746E+01   7.39960003E+00   6.40066147E+00
             3426                2   3.59245262E+01   4.30352936E+01   4.30352936E+01   6.82874203E+00   7.39960003E+00   4.30352936E+01   4.30352936E+01   7.39960003E+00   6.82874203E+00   3.62065506E+01  -1.90878792E+01   3.59143181E+01   8.08106804E+00   4.17829704E+01   7.39960003E+00   6.61619377E+00
             3426                3   3.55952492E+01   4.28171730E+01   4.28171730E+01   7.04686880E+00   7.39960003E+00   4.28171730E+01   4.28171730E+01   7.39960003E+00   7.04686880E+00   3.57703018E+01  -1.90878811E+01   3.55913124E+01   8.18995571E+00   4.16740837E+01   7.39960003E+00   6.29141855E+00
             3426                4   3.55613976E+01   4.27947121E+01   4.27947121E+01   7.06932545E+00   7.39960003E+00   4.27947121E+01   4.27947121E+01   7.39960003E+00   7.06932545E+00   3.57253876E+01  -1.90878792E+01   3.55579491E+01   8.29670525E+00   4.15673332E+01   7.39960003E+00   6.50708055E+00
             3427                1   1.78072617E+02   1.87522461E+02   1.87522461E+02   4.45200872E+00   1.49085007E+01   1.87522461E+02   1.87522461E+02   1.49085007E+01   4.45200872E+00   1.83070450E+02  -6.89609909E+01   1.77379913E+02   4.74948263E+00   1.87224991E+02   1.49085007E+01   7.37359428E+00
             3427                2   1.77228836E+02   1.87025177E+02   1.87025177E+02   5.97206211E+00   1.38857241E+01   1.87025177E+02   1.87025177E+02   1.38857241E+01   5.97206211E+00   1.81053116E+02  -6.89609909E+01   1.76830658E+02   6.60773087E+00   1.86389511E+02   1.38857241E+01   1.07091093E+01
             3427                3   1.76710480E+02   1.86697266E+02   1.86697266E+02   6.55846024E+00   1.36272535E+01   1.86697266E+02   1.86697266E+02   1.36272535E+01   6.55846024E+00   1.80138794E+02  -6.89609909E+01   1.76391937E+02   6.67469263E+00   1.86581024E+02   1.36272535E+01   4.57442617E+00
             3427                4   1.75875031E+02   1.86182114E+02   1.86182114E+02   8.09626484E+00   1.26045914E+01   1.86182114E+02   1.86182114E+02   1.26045914E+01   8.09626484E+00   1.78085846E+02  -6.89609909E+01   1.75744949E+02   8.44571972E+00   1.85832657E+02   1.26045914E+01   7.88109398E+00
             3428                1   1.04126930E+02   1.06096375E+02   1.06096375E+02   1.76968718E+00   2.17035294E+00   1.06096375E+02   1.06096375E+02   2.17035294E+00   1.76968718E+00   1.04326683E+02  -3.66788025E+01   1.04125198E+02   2.74542761E+00   1.05120628E+02   2.17035294E+00   1.00421085E+01
             3428                2   1.04165672E+02   1.06122147E+02   1.06122147E+02   1.74390936E+00   2.17035294E+00   1.06122147E+02   1.06122147E+02   2.17035294E+00   1.74390936E+00   1.04378242E+02  -3.66788025E+01   1.04163712E+02   2.76344752E+00   1.05102608E+02   2.17035294E+00   1.02654009E+01
             3428                3   1.03795387E+02   1.05875648E+02   1.05875648E+02   1.99040937E+00   2.17035294E+00   1.05875648E+02   1.05875648E+02   2.17035294E+00   1.99040937E+00   1.03885239E+02  -3.66788025E+01   1.03795036E+02   2.96559930E+00   1.04900459E+02   2.17035294E+00   1.00178251E+01
             3428                4   1.03833992E+02   1.05901360E+02   1.05901360E+02   1.96469545E+00   2.17035294E+00   1.05901360E+02   1.05901360E+02   2.17035294E+00   1.96469545E+00   1.03936668E+02  -3.66788025E+01   1.03833534E+02   2.98353362E+00   1.04882523E+02   2.17035294E+00   1.02399626E+01
             3429                1   2.39823647E+01   3.92535477E+01   3.92535477E+01   1.49612112E+01   1.55936661E+01   3.92535477E+01   3.92535477E+01   1.55936661E+01   1.49612112E+01   2.42923374E+01  -2.32694759E+01   2.39635887E+01   1.54908047E+01   3.87239532E+01   1.55936661E+01   3.54748034E+00
             3429                2   2.35515728E+01   3.89692345E+01   3.89692345E+01   1.52455206E+01   1.55936661E+01   3.89692345E+01   3.89692345E+01   1.55936661E+01   1.52455206E+01   2.37237148E+01  -2.32694759E+01   2.35457783E+01   1.57763405E+01   3.84384155E+01   1.55936661E+01   3.50874043E+00
             3429                3   2.39170799E+01   3.92105637E+01   3.92105637E+01   1.50041971E+01   1.55936661E+01   3.92105637E+01   3.92105637E+01   1.55936661E+01   1.50041971E+01   2.42063656E+01  -2.32694759E+01   2.39007263E+01   1.54520941E+01   3.87626648E+01   1.55936661E+01   3.26211166E+00
             3429                4   2.34848137E+01   3.89250336E+01   3.89250336E+01   1.52897253E+01   1.55936661E+01   3.89250336E+01   3.89250336E+01   1.55936661E+01   1.52897253E+01   2.36353092E+01  -2.32694759E+01   2.34803867E+01   1.57378750E+01   3.84768829E+01   1.55936661E+01   3.22356129E+00
             3430                1   2.54814892E+01   1.76724377E+01   1.76724377E+01  -6.05222762E-01  -1.14351587E+01   1.76724377E+01   1.76724377E+01  -6.05222762E-01  -1.14351587E+01   2.91075974E+01  -1.87735212E+00   1.91722317E+01   4.57410240E+00   1.24931116E+01  -1.14351587E+01   8.23653698E+00
             3430                2   2.54374027E+01   1.76314068E+01   1.76314068E+01  -5.64191937E-01  -1.14351587E+01   1.76314068E+01   1.76314068E+01  -5.64191937E-01  -1.14351587E+01   2.90665665E+01  -1.87735212E+00   1.90494976E+01   4.84940720E+00   1.22178068E+01  -1.14351587E+01   8.31845093E+00
             3430                3   2.51889610E+01   1.73979950E+01   1.73979950E+01  -3.30781966E-01  -1.14351587E+01   1.73979950E+01   1.73979950E+01  -3.30781966E-01  -1.14351587E+01   2.88331547E+01  -1.87735140E+00   1.83305836E+01   4.58521223E+00   1.24820013E+01  -1.14351587E+01   7.93647051E+00
             3430                4   2.51412735E+01   1.73527527E+01   1.73527527E+01  -2.85538673E-01  -1.14351587E+01   1.73527527E+01   1.73527527E+01  -2.85538673E-01  -1.14351587E+01   2.87879124E+01  -1.87735212E+00   1.81868172E+01   4.85743141E+00   1.22097826E+01  -1.14351587E+01   8.01642513E+00
             3431                1   2.38523617E+01   3.92911720E+01   3.92911720E+01   1.52089443E+01   1.56755247E+01   3.92911720E+01   3.92911720E+01   1.56755247E+01   1.52089443E+01   2.40822296E+01  -2.33918819E+01   2.38420906E+01   1.55280428E+01   3.89720764E+01   1.56755247E+01   2.75367928E+00
             3431                2   2.39095669E+01   3.93289337E+01   3.93289337E+01   1.51711884E+01   1.56755247E+01   3.93289337E+01   3.93289337E+01   1.56755247E+01   1.51711884E+01   2.41577454E+01  -2.33918819E+01   2.38975945E+01   1.55611248E+01   3.89389954E+01   1.56755247E+01   3.04433250E+00
             3431                3   2.34131947E+01   3.90003510E+01   3.90003510E+01   1.54997730E+01   1.56755247E+01   3.90003510E+01   3.90003510E+01   1.56755247E+01   1.54997730E+01   2.35005760E+01  -2.33918819E+01   2.34117107E+01   1.58192425E+01   3.86808777E+01   1.56755247E+01   2.72133851E+00
             3431                4   2.34708233E+01   3.90386086E+01   3.90386086E+01   1.54615088E+01   1.56755247E+01   3.90386086E+01   3.90386086E+01   1.56755247E+01   1.54615088E+01   2.35771008E+01  -2.33918819E+01   2.34686279E+01   1.58525400E+01   3.86475792E+01   1.56755247E+01   3.01105404E+00
             3432                1   2.62708969E+01   4.00456543E+01   4.00456543E+01   1.34777508E+01   1.40821972E+01   4.00456543E+01   4.00456543E+01   1.40821972E+01   1.34777508E+01   2.65679054E+01  -2.25352020E+01   2.62552452E+01   1.40024242E+01   3.95209846E+01   1.40821972E+01   3.69650626E+00
             3432                2   2.63174515E+01   4.00763359E+01   4.00763359E+01   1.34470701E+01   1.40821972E+01   4.00763359E+01   4.00763359E+01   1.40821972E+01   1.34470701E+01   2.66292667E+01  -2.25352020E+01   2.63001957E+01   1.40517178E+01   3.94716873E+01   1.40821972E+01   3.96683049E+00
             3432                3   2.58558731E+01   3.97713966E+01   3.97713966E+01   1.37520113E+01   1.40821972E+01   3.97713966E+01   3.97713966E+01   1.40821972E+01   1.37520113E+01   2.60193844E+01  -2.25352020E+01   2.58511276E+01   1.42734575E+01   3.92499504E+01   1.40821972E+01   3.64633775E+00
             3432                4   2.59032230E+01   3.98027534E+01   3.98027534E+01   1.37206516E+01   1.40821972E+01   3.98027534E+01   3.98027534E+01   1.40821972E+01   1.37206516E+01   2.60821037E+01  -2.25352020E+01   2.58975410E+01   1.43226986E+01   3.92007065E+01   1.40821972E+01   3.91665840E+00
             3433                1   1.97582886E+02   1.98193329E+02   1.98193329E+02  -3.92910123E-01   1.62930739E+00   1.98193329E+02   1.98193329E+02   1.62930739E+00  -3.92910123E-01   1.98586243E+02  -6.64765701E+01   1.97559601E+02  -3.66807580E-01   1.98167221E+02   1.62930739E+00   2.27667093E+00
             3433                2   1.98586029E+02   1.98858185E+02   1.98858185E+02  -1.05715370E+00   1.62870824E+00   1.98858185E+02   1.98858185E+02   1.62870824E+00  -1.05715370E+00   1.99915329E+02  -6.64765778E+01   1.98545151E+02  -1.03421116E+00   1.98835236E+02   1.62870824E+00   2.14154935E+00
             3433                3   1.97787064E+02   1.98328735E+02   1.98328735E+02  -5.28112233E-01   1.62910008E+00   1.98328735E+02   1.98328735E+02   1.62910008E+00  -5.28112233E-01   1.98856857E+02  -6.64765778E+01   1.97760590E+02  -4.83167708E-01   1.98283798E+02   1.62910008E+00   2.98917127E+00
             3433                4   1.98795441E+02   1.98996841E+02   1.98996841E+02  -1.19560206E+00   1.62849653E+00   1.98996841E+02   1.98996841E+02   1.62849653E+00  -1.19560206E+00   2.00192444E+02  -6.64765778E+01   1.98750305E+02  -1.15477157E+00   1.98956009E+02   1.62849653E+00   2.85878205E+00
             3434                1   3.50619316E+01   4.16594467E+01   4.16594467E+01   6.13303661E+00   7.08123446E+00   4.16594467E+01   4.16594467E+01   7.08123446E+00   6.13303661E+00   3.55264091E+01  -1.82912388E+01   3.50330658E+01   7.93731451E+00   3.98551712E+01   7.08123446E+00   7.80026150E+00
             3434                2   3.50577087E+01   4.16566734E+01   4.16566734E+01   6.13581610E+00   7.08123446E+00   4.16566734E+01   4.16566734E+01   7.08123446E+00   6.13581610E+00   3.55208549E+01  -1.82912407E+01   3.50290070E+01   8.03985023E+00   3.97526360E+01   7.08123446E+00   8.00047588E+00
             3434                3   3.47192154E+01   4.14336243E+01   4.14336243E+01   6.35886192E+00   7.08123446E+00   4.14336243E+01   4.14336243E+01   7.08123446E+00   6.35886192E+00   3.50747643E+01  -1.82912407E+01   3.47023010E+01   8.13706875E+00   3.96554184E+01   7.08123446E+00   7.69468594E+00
             3434                4   3.47148743E+01   4.14307632E+01   4.14307632E+01   6.36172295E+00   7.08123446E+00   4.14307632E+01   4.14307632E+01   7.08123446E+00   6.36172295E+00   3.50690384E+01  -1.82912388E+01   3.46980934E+01   8.23970032E+00   3.95527840E+01   7.08123446E+00   7.89506578E+00
             3435                1   3.18649693E+01   4.08396568E+01   4.08396568E+01   8.44110584E+00   9.53651714E+00   4.08396568E+01   4.08396568E+01   9.53651714E+00   8.44110584E+00   3.23985481E+01  -1.96057606E+01   3.18225632E+01   1.00707397E+01   3.92100220E+01   9.53651714E+00   7.08110619E+00
             3435                2   3.18814392E+01   4.08504562E+01   4.08504562E+01   8.43030739E+00   9.53651714E+00   4.08504562E+01   4.08504562E+01   9.53651714E+00   8.43030739E+00   3.24201469E+01  -1.96057606E+01   3.18382149E+01   1.01644669E+01   3.91162949E+01   9.53651714E+00   7.29482031E+00
             3435                3   3.15086994E+01   4.06056709E+01   4.06056709E+01   8.67509079E+00   9.53651714E+00   4.06056709E+01   4.06056709E+01   9.53651714E+00   8.67509079E+00   3.19305801E+01  -1.96057606E+01   3.14821892E+01   1.02841997E+01   3.89965630E+01   9.53651714E+00   6.98502111E+00
             3435                4   3.15252838E+01   4.06165810E+01   4.06165810E+01   8.66418171E+00   9.53651714E+00   4.06165810E+01   4.06165810E+01   9.53651714E+00   8.66418171E+00   3.19523983E+01  -1.96057606E+01   3.14981098E+01   1.03779831E+01   3.89027786E+01   9.53651714E+00   7.19881487E+00
             3436                1   3.00895596E+01   3.98950081E+01   3.98950081E+01   7.58984804E+00   1.26670456E+01   3.98950081E+01   3.98950081E+01   1.26670456E+01   7.58984804E+00   3.23051605E+01  -2.00506344E+01   2.91023445E+01   1.23904133E+01   3.50944405E+01   1.26670456E+01   1.14907627E+01
             3436                2   2.99018517E+01   3.97783928E+01   3.97783928E+01   7.70645952E+00   1.26670456E+01   3.97783928E+01   3.97783928E+01   1.26670456E+01   7.70645952E+00   3.20719337E+01  -2.00506325E+01   2.89543400E+01   1.26813784E+01   3.48034744E+01   1.26670456E+01   1.16105738E+01
             3436                3   2.96241398E+01   3.96056519E+01   3.96056519E+01   7.87920427E+00   1.26670456E+01   3.96056519E+01   3.96056519E+01   1.26670456E+01   7.87920427E+00   3.17264462E+01  -2.00506344E+01   2.87342796E+01   1.25108595E+01   3.49739952E+01   1.26670456E+01   1.12023993E+01
             3436                4   2.94336529E+01   3.94870110E+01   3.94870110E+01   7.99784136E+00   1.26670456E+01   3.94870110E+01   3.94870110E+01   1.26670456E+01   7.99784136E+00   3.14891701E+01  -2.00506325E+01   2.85825768E+01   1.28017426E+01   3.46831093E+01   1.26670456E+01   1.13222523E+01
             3437                1   3.38213005E+01   4.10126953E+01   4.10126953E+01   4.94140530E+00   1.00145340E+01   4.10126953E+01   4.10126953E+01   1.00145340E+01   4.94140530E+00   3.60712929E+01  -1.86562119E+01   3.29489555E+01   8.97184658E+00   3.69822540E+01   1.00145340E+01   1.13639250E+01
             3437                2   3.31971855E+01   4.06219406E+01   4.06219406E+01   5.33216238E+00   1.00145340E+01   4.06219406E+01   4.06219406E+01   1.00145340E+01   5.33216238E+00   3.52897758E+01  -1.86562119E+01   3.24417686E+01   9.20064831E+00   3.67534523E+01   1.00145340E+01   1.10251007E+01
             3437                3   3.40214043E+01   4.11377144E+01   4.11377144E+01   4.81638813E+00   1.00145340E+01   4.11377144E+01   4.11377144E+01   1.00145340E+01   4.81638813E+00   3.63213272E+01  -1.86562119E+01   3.31102600E+01   8.62987614E+00   3.73242264E+01   1.00145340E+01   1.11341019E+01
             3437                4   3.34011154E+01   4.07497597E+01   4.07497597E+01   5.20434093E+00   1.00145340E+01   4.07497597E+01   4.07497597E+01   1.00145340E+01   5.20434093E+00   3.55454216E+01  -1.86562119E+01   3.26081886E+01   8.85862255E+00   3.70954781E+01   1.00145340E+01   1.07953339E+01
             3438                1   4.53193703E+01   4.74501419E+01   4.74501419E+01   2.07516527E+00   2.18658400E+00   4.74501419E+01   4.74501419E+01   2.18658400E+00   2.07516527E+00   4.53749771E+01  -1.72372971E+01   4.53190613E+01   3.16664553E+00   4.63586617E+01   2.18658400E+00   6.95230436E+00
             3438                2   4.51982117E+01   4.73694344E+01   4.73694344E+01   2.15587330E+00   2.18658400E+00   4.73694344E+01   4.73694344E+01   2.18658400E+00   2.15587330E+00   4.52135620E+01  -1.72372971E+01   4.51981888E+01   3.31264424E+00   4.62126617E+01   2.18658400E+00   7.13888264E+00
             3438                3   4.49641418E+01   4.72133026E+01   4.72133026E+01   2.31200027E+00   2.18658400E+00   4.72133026E+01   4.72133026E+01   2.31200027E+00   2.18658400E+00   4.50267181E+01  -1.72372952E+01   4.49637489E+01   3.36515188E+00   4.61601524E+01   2.18658400E+00   6.79549074E+00
             3438                4   4.48367920E+01   4.71282425E+01   4.71282425E+01   2.39706349E+00   2.18658400E+00   4.71282425E+01   4.71282425E+01   2.39706349E+00   2.18658400E+00   4.49416580E+01  -1.72372971E+01   4.48356781E+01   3.51147413E+00   4.60138321E+01   2.18658400E+00   6.97187328E+00
             3439                1   4.25936394E+01   4.54982071E+01   4.54982071E+01   2.79157305E+00   3.01847100E+00   4.54982071E+01   4.54982071E+01   3.01847100E+00   2.79157305E+00   4.27066345E+01  -1.71027508E+01   4.25922775E+01   4.14408875E+00   4.41456909E+01   3.01847100E+00   7.47877598E+00
             3439                2   4.24874535E+01   4.54275742E+01   4.54275742E+01   2.86220455E+00   3.01847100E+00   4.54275742E+01   4.54275742E+01   3.01847100E+00   2.86220455E+00   4.25653725E+01  -1.71027508E+01   4.24868050E+01   4.28913450E+00   4.40006447E+01   3.01847100E+00   7.66170311E+00
             3439                3   4.22589951E+01   4.52754135E+01   4.52754135E+01   3.01436663E+00   3.01847100E+00   4.52754135E+01   4.52754135E+01   3.01847100E+00   3.01436663E+00   4.22610474E+01  -1.71027508E+01   4.22589951E+01   4.32614613E+00   4.39636345E+01   3.01847100E+00   7.32914543E+00
             3439                4   4.21515732E+01   4.52037735E+01   4.52037735E+01   3.08600736E+00   3.01847100E+00   4.52037735E+01   4.52037735E+01   3.08600736E+00   3.01847100E+00   4.21853027E+01  -1.71027508E+01   4.21514511E+01   4.47152615E+00   4.38182526E+01   3.01847100E+00   7.51234484E+00
             3440                1   3.02660351E+01   4.14857483E+01   4.14857483E+01   1.10935011E+01   1.13475275E+01   4.14857483E+01   4.14857483E+01   1.13475275E+01   1.10935011E+01   3.03922482E+01  -2.13089256E+01   3.02636375E+01   1.17181749E+01   4.08610764E+01   1.13475275E+01   4.31219244E+00
             3440                2   3.02580872E+01   4.14804726E+01   4.14804726E+01   1.10987778E+01   1.13475275E+01   4.14804726E+01   4.14804726E+01   1.13475275E+01   1.10987778E+01   3.03816948E+01  -2.13089256E+01   3.02557869E+01   1.16516294E+01   4.09276199E+01   1.13475275E+01   4.06090593E+00
             3440                3   3.06583900E+01   4.17456970E+01   4.17456970E+01   1.08335514E+01   1.13475275E+01   4.17456970E+01   4.17456970E+01   1.13475275E+01   1.08335514E+01   3.09121475E+01  -2.13089256E+01   3.06486950E+01   1.14669571E+01   4.11122932E+01   1.13475275E+01   4.37935162E+00
             3440                4   3.06504745E+01   4.17404633E+01   4.17404633E+01   1.08387861E+01   1.13475275E+01   4.17404633E+01   4.17404633E+01   1.13475275E+01   1.08387861E+01   3.09016781E+01  -2.13089256E+01   3.06409721E+01   1.14005232E+01   4.11787262E+01   1.13475275E+01   4.12832737E+00
             3441                1   1.97531281E+02   2.13135727E+02   2.13135727E+02   3.17771029E+00   3.09761810E+01   2.13135727E+02   2.13135727E+02   3.09761810E+01   3.17771029E+00   2.09958008E+02  -8.24298706E+01   1.93056961E+02   3.52814078E+00   2.12785294E+02   3.09761810E+01   8.57042122E+00
             3441                2   1.96391083E+02   2.12517960E+02   2.12517960E+02   4.56780910E+00   3.02038479E+01   2.12517960E+02   2.12517960E+02   3.02038479E+01   4.56780910E+00   2.07950150E+02  -8.24298706E+01   1.92572708E+02   5.37894917E+00   2.11706818E+02   3.02038479E+01   1.29622278E+01
             3441                3   1.95609116E+02   2.12089249E+02   2.12089249E+02   5.53182077E+00   2.96685543E+01   2.12089249E+02   2.12089249E+02   2.96685543E+01   5.53182077E+00   2.06557419E+02  -8.24298706E+01   1.92216019E+02   5.67725039E+00   2.11943817E+02   2.96685543E+01   5.47882748E+00
             3441                4   1.94277237E+02   2.11339981E+02   2.11339981E+02   7.11889124E+00   2.88307266E+01   2.11339981E+02   2.11339981E+02   2.88307266E+01   7.11889124E+00   2.04221100E+02  -8.24298706E+01   1.91519180E+02   7.61646080E+00   2.10842422E+02   2.88307266E+01   1.00680437E+01
             3442                1   3.02180233E+01   4.06014862E+01   4.06014862E+01   9.87649632E+00   1.09173222E+01   4.06014862E+01   4.06014862E+01   1.09173222E+01   9.87649632E+00   3.07249889E+01  -2.04651012E+01   3.01776581E+01   1.12320499E+01   3.92459335E+01   1.09173222E+01   6.30966139E+00
             3442                2   3.02419529E+01   4.06171722E+01   4.06171722E+01   9.86080837E+00   1.09173222E+01   4.06171722E+01   4.06171722E+01   1.09173222E+01   9.86080837E+00   3.07563648E+01  -2.04651012E+01   3.02003918E+01   1.13181286E+01   3.91598549E+01   1.09173222E+01   6.53437519E+00
             3442                3   2.98501472E+01   4.03598518E+01   4.03598518E+01   1.01181345E+01   1.09173222E+01   4.03598518E+01   4.03598518E+01   1.09173222E+01   1.01181345E+01   3.02417164E+01  -2.04651031E+01   2.98260593E+01   1.14571218E+01   3.90208626E+01   1.09173222E+01   6.22096586E+00
             3442                4   2.98743496E+01   4.03757744E+01   4.03757744E+01   1.01022091E+01   1.09173222E+01   4.03757744E+01   4.03757744E+01   1.09173222E+01   1.01022091E+01   3.02735634E+01  -2.04651012E+01   2.98493176E+01   1.15432796E+01   3.89347038E+01   1.09173222E+01   6.44590139E+00
             3443                1   5.56054878E+01   4.86258087E+01   4.86258087E+01  -5.02329016E+00  -8.74871349E+00   4.86258087E+01   4.86258087E+01  -5.02329016E+00  -8.74871349E+00   5.73745232E+01  -1.16179352E+01   5.53236656E+01  -3.14512312E-01   4.39170341E+01  -8.74871349E+00   1.51805477E+01
             3443                2   5.48030052E+01   4.80695457E+01   4.80695457E+01  -4.46702623E+00  -8.74871349E+00   4.80695457E+01   4.80695457E+01  -4.46702623E+00  -8.74871349E+00   5.68182602E+01  -1.16179352E+01   5.44247818E+01   3.20370317E-01   4.32821503E+01  -8.74871349E+00   1.51193323E+01
             3443                3   5.51901512E+01   4.83383522E+01   4.83383522E+01  -4.73583317E+00  -8.74871349E+00   4.83383522E+01   4.83383522E+01  -4.73583317E+00  -8.74871349E+00   5.70870667E+01  -1.16179352E+01   5.48604813E+01  -4.00340915E-01   4.40028610E+01  -8.74871349E+00   1.45363760E+01
             3443                4   5.43930092E+01   4.77839394E+01   4.77839394E+01  -4.18141794E+00  -8.74871349E+00   4.77839394E+01   4.77839394E+01  -4.18141794E+00  -8.74871349E+00   5.65326500E+01  -1.16179352E+01   5.39590645E+01   2.50740767E-01   4.33517799E+01  -8.74871349E+00   1.45146351E+01
             3444                1   1.10224800E+02   1.19340828E+02   1.19340828E+02   8.58763409E+00   9.65213394E+00   1.19340828E+02   1.19340828E+02   9.65213394E+00   8.58763409E+00   1.10753189E+02  -4.58601990E+01   1.10213226E+02   1.06666861E+01   1.17261772E+02   9.65213394E+00   1.50312777E+01
             3444                2   1.10186516E+02   1.19315422E+02   1.19315422E+02   8.61302662E+00   9.65213394E+00   1.19315422E+02   1.19315422E+02   9.65213394E+00   8.61302662E+00   1.10702400E+02  -4.58601952E+01   1.10175499E+02   1.06269484E+01   1.17301506E+02   9.65213394E+00   1.47949247E+01
             3444                3   1.10578468E+02   1.19575363E+02   1.19575363E+02   8.35309792E+00   9.65213394E+00   1.19575363E+02   1.19575363E+02   9.65213394E+00   8.35309792E+00   1.11222267E+02  -4.58601990E+01   1.10561295E+02   1.04344149E+01   1.17494041E+02   9.65213394E+00   1.50717363E+01
             3444                4   1.10534172E+02   1.19545998E+02   1.19545998E+02   8.38245296E+00   9.65213394E+00   1.19545998E+02   1.19545998E+02   9.65213394E+00   8.38245296E+00   1.11163544E+02  -4.58601952E+01   1.10517769E+02   1.03990889E+01   1.17529366E+02   9.65213394E+00   1.48360796E+01
             3445                1   2.60549927E+01   3.74438248E+01   3.74438248E+01   9.64388180E+00   1.35821800E+01   3.74438248E+01   3.74438248E+01   1.35821800E+01   9.64388180E+00   2.77999439E+01  -2.02232952E+01   2.53723660E+01   1.38073721E+01   3.32803345E+01   1.35821800E+01   9.92018986E+00
             3445                2   2.58905277E+01   3.73410110E+01   3.73410110E+01   9.74669743E+00   1.35821800E+01   3.73410110E+01   3.73410110E+01   1.35821800E+01   9.74669743E+00   2.75943127E+01  -2.02232952E+01   2.52394753E+01   1.37864046E+01   3.33013039E+01   1.35821800E+01   9.75467491E+00
             3445                3   2.62655106E+01   3.75752716E+01   3.75752716E+01   9.51243496E+00   1.35821800E+01   3.75752716E+01   3.75752716E+01   1.35821800E+01   9.51243496E+00   2.80628376E+01  -2.02232952E+01   2.55416756E+01   1.36417551E+01   3.34459534E+01   1.35821800E+01   9.94128418E+00
             3445                4   2.61023579E+01   3.74734154E+01   3.74734154E+01   9.61429119E+00   1.35821800E+01   3.74734154E+01   3.74734154E+01   1.35821800E+01   9.61429119E+00   2.78591251E+01  -2.02232952E+01   2.54105377E+01   1.36207914E+01   3.34669151E+01   1.35821800E+01   9.77576447E+00
             3446                1   2.87981720E+01   3.99679375E+01   3.99679375E+01   8.91425705E+00   1.41412706E+01   3.99679375E+01   3.99679375E+01   1.41412706E+01   8.91425705E+00   3.10536804E+01  -2.10078220E+01   2.77006073E+01   1.40242586E+01   3.48579369E+01   1.41412706E+01   1.15140009E+01
             3446                2   2.92762699E+01   4.02631645E+01   4.02631645E+01   8.61902905E+00   1.41412706E+01   4.02631645E+01   4.02631645E+01   1.41412706E+01   8.61902905E+00   3.16441364E+01  -2.10078220E+01   2.80683975E+01   1.38778400E+01   3.50043564E+01   1.41412706E+01   1.17794495E+01
             3446                3   2.86893291E+01   3.99006271E+01   3.99006271E+01   8.98156738E+00   1.41412706E+01   3.99006271E+01   3.99006271E+01   1.41412706E+01   8.98156738E+00   3.09190598E+01  -2.10078220E+01   2.76163597E+01   1.42903452E+01   3.45918503E+01   1.41412706E+01   1.16601572E+01
             3446                4   2.91699162E+01   4.01975517E+01   4.01975517E+01   8.68464279E+00   1.41412706E+01   4.01975517E+01   4.01975517E+01   1.41412706E+01   8.68464279E+00   3.15129089E+01  -2.10078220E+01   2.79868946E+01   1.41437492E+01   3.47384453E+01   1.41412706E+01   1.19260426E+01
             3447                1   3.01797924E+01   4.12783699E+01   4.12783699E+01   1.09291592E+01   1.12709007E+01   4.12783699E+01   4.12783699E+01   1.12709007E+01   1.09291592E+01   3.03492126E+01  -2.11594772E+01   3.01754398E+01   1.16182718E+01   4.05892601E+01   1.12709007E+01   4.52096367E+00
             3447                2   3.05683708E+01   4.15354576E+01   4.15354576E+01   1.06720753E+01   1.12709007E+01   4.15354576E+01   4.15354576E+01   1.12709007E+01   1.06720753E+01   3.08633842E+01  -2.11594791E+01   3.05551682E+01   1.13715734E+01   4.08359604E+01   1.12709007E+01   4.59343004E+00
             3447                3   3.01902504E+01   4.12853050E+01   4.12853050E+01   1.09222288E+01   1.12709007E+01   4.12853050E+01   4.12853050E+01   1.12709007E+01   1.09222288E+01   3.03630772E+01  -2.11594791E+01   3.01857185E+01   1.16900654E+01   4.05174675E+01   1.12709007E+01   4.76700497E+00
             3447                4   3.05784817E+01   4.15421371E+01   4.15421371E+01   1.06653996E+01   1.12709007E+01   4.15421371E+01   4.15421371E+01   1.12709007E+01   1.06653996E+01   3.08767357E+01  -2.11594791E+01   3.05649872E+01   1.14435863E+01   4.07639465E+01   1.12709007E+01   4.83966160E+00
             3448                1   3.29140015E+01   4.28878975E+01   4.28878975E+01   9.79263020E+00   1.01582069E+01   4.28878975E+01   4.28878975E+01   1.01582069E+01   9.79263020E+00   3.30952644E+01  -2.09462452E+01   3.29094315E+01   1.02046900E+01   4.24758377E+01   1.01582069E+01   3.66979599E+00
             3448                2   3.29055099E+01   4.28822670E+01   4.28822670E+01   9.79825974E+00   1.01582069E+01   4.28822670E+01   4.28822670E+01   1.01582069E+01   9.79825974E+00   3.30840073E+01  -2.09462452E+01   3.29010811E+01   1.02686348E+01   4.24118919E+01   1.01582069E+01   3.91671085E+00
             3448                3   3.25236664E+01   4.26286011E+01   4.26286011E+01   1.00519257E+01   1.01582069E+01   4.26286011E+01   4.26286011E+01   1.01582069E+01   1.00519257E+01   3.25766754E+01  -2.09462452E+01   3.25232773E+01   1.04556675E+01   4.22248611E+01   1.01582069E+01   3.60409856E+00
             3448                4   3.25127487E+01   4.26213341E+01   4.26213341E+01   1.00591917E+01   1.01582069E+01   4.26213341E+01   4.26213341E+01   1.01582069E+01   1.00591917E+01   3.25621414E+01  -2.09462452E+01   3.25124092E+01   1.05205765E+01   4.21599503E+01   1.01582069E+01   3.84847879E+00
             3449                1   3.03825016E+01   4.15290985E+01   4.15290985E+01   8.63384151E+00   1.45210266E+01   4.15290985E+01   4.15290985E+01   1.45210266E+01   8.63384151E+00   3.28952599E+01  -2.15613232E+01   2.90573540E+01   1.40883999E+01   3.60745392E+01   1.45210266E+01   1.22342520E+01
             3449                2   3.02890759E+01   4.14715614E+01   4.14715614E+01   8.69138050E+00   1.45210266E+01   4.14715614E+01   4.14715614E+01   1.45210266E+01   8.69138050E+00   3.27801819E+01  -2.15613232E+01   2.89862862E+01   1.44179029E+01   3.57450371E+01   1.45210266E+01   1.24468231E+01
             3449                3   2.97564697E+01   4.11430664E+01   4.11430664E+01   9.01987553E+00   1.45210266E+01   4.11430664E+01   4.11430664E+01   1.45210266E+01   9.01987553E+00   3.21231918E+01  -2.15613232E+01   2.85786190E+01   1.43007584E+01   3.58621826E+01   1.45210266E+01   1.19059267E+01
             3449                4   2.96622181E+01   4.10848465E+01   4.10848465E+01   9.07809448E+00   1.45210266E+01   4.10848465E+01   4.10848465E+01   1.45210266E+01   9.07809448E+00   3.20067520E+01  -2.15613232E+01   2.85060196E+01   1.46300535E+01   3.55328865E+01   1.45210266E+01   1.21192389E+01
             3450                1   2.62413826E+01   4.02748642E+01   4.02748642E+01   1.38365431E+01   1.42349577E+01   4.02748642E+01   4.02748642E+01   1.42349577E+01   1.38365431E+01   2.64383221E+01  -2.27821217E+01   2.62345772E+01   1.41174746E+01   3.99939346E+01   1.42349577E+01   2.71079588E+00
             3450                2   2.62756310E+01   4.02975197E+01   4.02975197E+01   1.38138838E+01   1.42349577E+01   4.02975197E+01   4.02975197E+01   1.42349577E+01   1.38138838E+01   2.64836369E+01  -2.27821198E+01   2.62680416E+01   1.41556835E+01   3.99557228E+01   1.42349577E+01   2.98918724E+00
             3450                3   2.58142509E+01   3.99914932E+01   3.99914932E+01   1.41199112E+01   1.42349577E+01   3.99914932E+01   3.99914932E+01   1.42349577E+01   1.41199112E+01   2.58715820E+01  -2.27821198E+01   2.58136787E+01   1.43993893E+01   3.97120171E+01   1.42349577E+01   2.67439675E+00
             3450                4   2.58483696E+01   4.00141830E+01   4.00141830E+01   1.40972233E+01   1.42349577E+01   4.00141830E+01   4.00141830E+01   1.42349577E+01   1.40972233E+01   2.59169617E+01  -2.27821217E+01   2.58475418E+01   1.44376440E+01   3.96737633E+01   1.42349577E+01   2.95072865E+00
             3451                1   3.43181076E+01   3.98794479E+01   3.98794479E+01   4.00116205E+00   7.37000227E+00   3.98794479E+01   3.98794479E+01   7.37000227E+00   4.00116205E+00   3.58782883E+01  -1.70835381E+01   3.39431038E+01   6.93839216E+00   3.69422188E+01   7.37000227E+00   9.83643627E+00
             3451                2   3.41096497E+01   3.97464333E+01   3.97464333E+01   4.13417912E+00   7.37000227E+00   3.97464333E+01   3.97464333E+01   7.37000227E+00   4.13417912E+00   3.56122513E+01  -1.70835381E+01   3.37617455E+01   7.15631485E+00   3.67242966E+01   7.37000227E+00   9.92430115E+00
             3451                3   3.40144806E+01   3.96856422E+01   3.96856422E+01   4.19496393E+00   7.37000227E+00   3.96856422E+01   3.96856422E+01   7.37000227E+00   4.19496393E+00   3.54906807E+01  -1.70835361E+01   3.36786728E+01   7.02917290E+00   3.68514366E+01   7.37000227E+00   9.62056351E+00
             3451                4   3.38050728E+01   3.95517540E+01   3.95517540E+01   4.32885885E+00   7.37000227E+00   3.95517540E+01   3.95517540E+01   7.37000227E+00   4.32885885E+00   3.52228928E+01  -1.70835381E+01   3.34952354E+01   7.24659204E+00   3.66340179E+01   7.37000227E+00   9.70864868E+00
             3452                1   2.91148376E+01   3.90823364E+01   3.90823364E+01   7.94732237E+00   1.25315742E+01   3.90823364E+01   3.90823364E+01   1.25315742E+01   7.94732237E+00   3.11350136E+01  -1.98537445E+01   2.82857342E+01   1.27064409E+01   3.43232193E+01   1.25315742E+01   1.12038383E+01
             3452                2   2.87438049E+01   3.88507843E+01   3.88507843E+01   8.17887688E+00   1.25315742E+01   3.88507843E+01   3.88507843E+01   1.25315742E+01   8.17887688E+00   3.06719055E+01  -1.98537445E+01   2.79879093E+01   1.27814207E+01   3.42482376E+01   1.25315742E+01   1.09537849E+01
             3452                3   2.93129234E+01   3.92057571E+01   3.92057571E+01   7.82390213E+00   1.25315742E+01   3.92057571E+01   3.92057571E+01   1.25315742E+01   7.82390213E+00   3.13818550E+01  -1.98537445E+01   2.84437313E+01   1.24544916E+01   3.45751686E+01   1.25315742E+01   1.11298742E+01
             3452                4   2.89438057E+01   3.89756622E+01   3.89756622E+01   8.05399799E+00   1.25315742E+01   3.89756622E+01   3.89756622E+01   1.25315742E+01   8.05399799E+00   3.09216633E+01  -1.98537445E+01   2.81487579E+01   1.25293999E+01   3.45002594E+01   1.25315742E+01   1.08792305E+01
             3453                1   2.38483906E+01   3.93913078E+01   3.93913078E+01   1.53481770E+01   1.57425528E+01   3.93913078E+01   3.93913078E+01   1.57425528E+01   1.53481770E+01   2.40431328E+01  -2.34940128E+01   2.38410530E+01   1.56178608E+01   3.91216278E+01   1.57425528E+01   2.53205085E+00
             3453                2   2.34027634E+01   3.90957527E+01   3.90957527E+01   1.56437349E+01   1.57425528E+01   3.90957527E+01   3.90957527E+01   1.57425528E+01   1.56437349E+01   2.34520168E+01  -2.34940128E+01   2.34022942E+01   1.59146013E+01   3.88248863E+01   1.57425528E+01   2.50578809E+00
             3453                3   2.38007412E+01   3.93597908E+01   3.93597908E+01   1.53796968E+01   1.57425528E+01   3.93597908E+01   3.93597908E+01   1.57425528E+01   1.53796968E+01   2.39800930E+01  -2.34940128E+01   2.37945175E+01   1.55902233E+01   3.91492653E+01   1.57425528E+01   2.23698664E+00
             3453                4   2.33548908E+01   3.90638924E+01   3.90638924E+01   1.56755972E+01   1.57425528E+01   3.90638924E+01   3.90638924E+01   1.57425528E+01   1.56755972E+01   2.33882961E+01  -2.34940128E+01   2.33546772E+01   1.58867025E+01   3.88527870E+01   1.57425528E+01   2.21197748E+00
             3454                1   2.37618313E+01   3.94158478E+01   3.94158478E+01   1.55160818E+01   1.57943993E+01   3.94158478E+01   3.94158478E+01   1.57943993E+01   1.55160818E+01   2.38997669E+01  -2.35754452E+01   2.37581577E+01   1.56396503E+01   3.92922783E+01   1.57943993E+01   1.71406507E+00
             3454                2   2.37996273E+01   3.94408951E+01   3.94408951E+01   1.54910364E+01   1.57943993E+01   3.94408951E+01   3.94408951E+01   1.57943993E+01   1.54910364E+01   2.39498577E+01  -2.35754452E+01   2.37952709E+01   1.56613302E+01   3.92705994E+01   1.57943993E+01   2.01234746E+00
             3454                3   2.33109894E+01   3.91160965E+01   3.91160965E+01   1.58158302E+01   1.57943993E+01   3.91160965E+01   3.91160965E+01   1.58158302E+01   1.57943993E+01   2.33216972E+01  -2.35754414E+01   2.33109665E+01   1.59398689E+01   3.89920578E+01   1.57943993E+01   1.69550681E+00
             3454                4   2.33483944E+01   3.91410408E+01   3.91410408E+01   1.57908907E+01   1.57943993E+01   3.91410408E+01   3.91410408E+01   1.57943993E+01   1.57908907E+01   2.33501492E+01  -2.35754452E+01   2.33483887E+01   1.59623089E+01   3.89696198E+01   1.57943993E+01   1.99330854E+00
             3455                1   4.00680237E+01   4.37111740E+01   4.37111740E+01   3.42949820E+00   3.86027074E+00   4.37111740E+01   4.37111740E+01   3.86027074E+00   3.42949820E+00   4.02816734E+01  -1.70003147E+01   4.00628128E+01   5.05949736E+00   4.20811729E+01   3.86027074E+00   7.93739367E+00
             3455                2   3.99934731E+01   4.36617203E+01   4.36617203E+01   3.47895002E+00   3.86027074E+00   4.36617203E+01   4.36617203E+01   3.86027074E+00   3.47895002E+00   4.01827698E+01  -1.70003147E+01   3.99893837E+01   5.19120073E+00   4.19494705E+01   3.86027074E+00   8.11610508E+00
             3455                3   3.97418709E+01   4.34946060E+01   4.34946060E+01   3.64606619E+00   3.86027074E+00   4.34946060E+01   4.34946060E+01   3.86027074E+00   3.64606619E+00   3.98485374E+01  -1.70003147E+01   3.97405701E+01   5.23761559E+00   4.19030533E+01   3.86027074E+00   7.80307388E+00
             3455                4   3.96665840E+01   4.34445343E+01   4.34445343E+01   3.69613695E+00   3.86027074E+00   4.34445343E+01   4.34445343E+01   3.86027074E+00   3.69613695E+00   3.97483978E+01  -1.70003147E+01   3.96658211E+01   5.36945486E+00   4.17712173E+01   3.86027074E+00   7.98195839E+00
             3456                1   4.02165985E+01   4.67619934E+01   4.67619934E+01   6.46684217E+00   6.62441492E+00   4.67619934E+01   4.67619934E+01   6.62441492E+00   6.46684217E+00   4.02951508E+01  -1.99510841E+01   4.02159004E+01   6.54886198E+00   4.66799736E+01   6.62441492E+00   1.81612253E+00
             3456                2   4.01875496E+01   4.67426643E+01   4.67426643E+01   6.48617125E+00   6.62441492E+00   4.67426643E+01   4.67426643E+01   6.62441492E+00   6.48617125E+00   4.02564926E+01  -1.99510841E+01   4.01870117E+01   6.59192991E+00   4.66369057E+01   6.62441492E+00   2.06065512E+00
             3456                3   3.98368301E+01   4.65089111E+01   4.65089111E+01   6.71992016E+00   6.62441492E+00   4.65089111E+01   4.65089111E+01   6.71992016E+00   6.62441492E+00   3.98844986E+01  -1.99510822E+01   3.98365707E+01   6.79883337E+00   4.64300003E+01   6.62441492E+00   1.77019477E+00
             3456                4   3.98100166E+01   4.64910126E+01   4.64910126E+01   6.73781967E+00   6.62441492E+00   4.64910126E+01   4.64910126E+01   6.73781967E+00   6.62441492E+00   3.98665962E+01  -1.99510822E+01   3.98096504E+01   6.84026814E+00   4.63885651E+01   6.62441492E+00   2.01546979E+00
             3457                1   1.90154175E+02   1.91739822E+02   1.91739822E+02   1.32995641E+00   1.84237778E+00   1.91739822E+02   1.91739822E+02   1.84237778E+00   1.32995641E+00   1.90409866E+02  -6.49707184E+01   1.90152618E+02   1.33554506E+00   1.91734238E+02   1.84237778E+00   1.03115249E+00
             3457                2   1.90758163E+02   1.92141739E+02   1.92141739E+02   9.28378761E-01   1.84204185E+00   1.92141739E+02   1.92141739E+02   1.84204185E+00   9.28378761E-01   1.91213364E+02  -6.49707184E+01   1.90753250E+02   9.33076501E-01   1.92137039E+02   1.84204185E+00   9.47604477E-01
             3457                3   1.90275391E+02   1.91820526E+02   1.91820526E+02   1.24937832E+00   1.84226358E+00   1.91820526E+02   1.91820526E+02   1.84226358E+00   1.24937832E+00   1.90571136E+02  -6.49707260E+01   1.90273315E+02   1.26040375E+00   1.91809494E+02   1.84226358E+00   1.44966555E+00
             3457                4   1.90882599E+02   1.92224487E+02   1.92224487E+02   8.45748961E-01   1.84192514E+00   1.92224487E+02   1.92224487E+02   1.84192514E+00   8.45748961E-01   1.91378738E+02  -6.49707184E+01   1.90876755E+02   8.55556011E-01   1.92214676E+02   1.84192514E+00   1.37025023E+00
             3458                1   2.63519917E+01   3.75764465E+01   3.75764465E+01   9.39120197E+00   1.35529900E+01   3.75764465E+01   3.75764465E+01   1.35529900E+01   9.39120197E+00   2.81852436E+01  -2.01735458E+01   2.55969181E+01   1.37638273E+01   3.32038193E+01   1.35529900E+01   1.02041016E+01
             3458                2   2.61663361E+01   3.74606590E+01   3.74606590E+01   9.50699043E+00   1.35529900E+01   3.74606590E+01   3.74606590E+01   1.35529900E+01   9.50699043E+00   2.79536667E+01  -2.01735458E+01   2.54482708E+01   1.37568922E+01   3.32107544E+01   1.35529900E+01   1.00368671E+01
             3458                3   2.65464344E+01   3.76975670E+01   3.76975670E+01   9.27007484E+00   1.35529900E+01   3.76975670E+01   3.76975670E+01   1.35529900E+01   9.27007484E+00   2.84274940E+01  -2.01735439E+01   2.57518768E+01   1.35963850E+01   3.33712578E+01   1.35529900E+01   1.02112293E+01
             3458                4   2.63621349E+01   3.75827675E+01   3.75827675E+01   9.38487720E+00   1.35529900E+01   3.75827675E+01   3.75827675E+01   1.35529900E+01   9.38487720E+00   2.81978893E+01  -2.01735439E+01   2.56050224E+01   1.35893955E+01   3.33782501E+01   1.35529900E+01   1.00439310E+01
             3459                1   3.57416649E+01   4.05715714E+01   4.05715714E+01   4.18508768E+00   5.51166487E+00   4.05715714E+01   4.05715714E+01   5.51166487E+00   4.18508768E+00   3.63864861E+01  -1.67561092E+01   3.56862106E+01   6.47885895E+00   3.82778015E+01   5.51166487E+00   8.84312630E+00
             3459                2   3.57874336E+01   4.06015396E+01   4.06015396E+01   4.15512085E+00   5.51166487E+00   4.06015396E+01   4.06015396E+01   5.51166487E+00   4.15512085E+00   3.64464188E+01  -1.67561092E+01   3.57295189E+01   6.54375458E+00   3.82129059E+01   5.51166487E+00   9.01951027E+00
             3459                3   3.54565468E+01   4.03846474E+01   4.03846474E+01   4.37201357E+00   5.51166487E+00   4.03846474E+01   4.03846474E+01   5.51166487E+00   4.37201357E+00   3.60126343E+01  -1.67561092E+01   3.54153023E+01   6.65403128E+00   3.81026306E+01   5.51166487E+00   8.77347374E+00
             3459                4   3.55027428E+01   4.04149628E+01   4.04149628E+01   4.34169769E+00   5.51166487E+00   4.04149628E+01   4.04149628E+01   5.51166487E+00   4.34169769E+00   3.60732651E+01  -1.67561092E+01   3.54593315E+01   6.71900749E+00   3.80376549E+01   5.51166487E+00   8.95017815E+00
             3460                1   2.80654202E+01   2.07522449E+01   2.07522449E+01  -6.30884051E-01  -1.10281591E+01   2.07522449E+01   2.07522449E+01  -6.30884051E-01  -1.10281591E+01   3.17804031E+01  -3.03106713E+00   2.30940495E+01   5.86993027E+00   1.42514296E+01  -1.10281591E+01   9.83601379E+00
             3460                2   2.81977673E+01   2.08676987E+01   2.08676987E+01  -7.46337950E-01  -1.10281591E+01   2.08676987E+01   2.08676987E+01  -7.46337950E-01  -1.10281591E+01   3.18958588E+01  -3.03106713E+00   2.33848095E+01   5.55898476E+00   1.45623751E+01  -1.10281591E+01   9.82478428E+00
             3460                3   2.84554520E+01   2.10905437E+01   2.10905437E+01  -9.69182968E-01  -1.10281591E+01   2.10905437E+01   2.10905437E+01  -9.69182968E-01  -1.10281591E+01   3.21187019E+01  -3.03106713E+00   2.39347630E+01   5.93693542E+00   1.41844244E+01  -1.10281591E+01   1.02299862E+01
             3460                4   2.85964222E+01   2.12114086E+01   2.12114086E+01  -1.09004772E+00  -1.10281591E+01   2.12114086E+01   2.12114086E+01  -1.09004772E+00  -1.10281591E+01   3.22395668E+01  -3.03106713E+00   2.42272415E+01   5.59452915E+00   1.45268307E+01  -1.10281591E+01   1.02172518E+01
             3461                1   3.53071861E+01   3.06436405E+01   3.06436405E+01  -8.68780911E-01  -7.51397085E+00   3.06436405E+01   3.06436405E+01  -8.68780911E-01  -7.51397085E+00   3.81576118E+01  -7.42029619E+00   3.38570862E+01   5.32690823E-01   2.92421703E+01  -7.51397085E+00   6.49612379E+00
             3461                2   3.58086548E+01   3.10164623E+01   3.10164623E+01  -1.24160016E+00  -7.51397085E+00   3.10164623E+01   3.10164623E+01  -1.24160016E+00  -7.51397085E+00   3.85304337E+01  -7.42029715E+00   3.45401382E+01   1.53473079E-01   2.96213894E+01  -7.51397085E+00   6.56171656E+00
             3461                3   3.54272385E+01   3.07332134E+01   3.07332134E+01  -9.58351851E-01  -7.51397085E+00   3.07332134E+01   3.07332134E+01  -9.58351851E-01  -7.51397085E+00   3.82471848E+01  -7.42029715E+00   3.40222321E+01   6.14102781E-01   2.91607590E+01  -7.51397085E+00   6.88192940E+00
             3461                4   3.59261055E+01   3.11032887E+01   3.11032887E+01  -1.32842660E+00  -7.51397085E+00   3.11032887E+01   3.11032887E+01  -1.32842660E+00  -7.51397085E+00   3.86172600E+01  -7.42029715E+00   3.46976166E+01   2.34631836E-01   2.95402298E+01  -7.51397085E+00   6.94618845E+00
             3462                1   5.43061562E+01   4.76332970E+01   4.76332970E+01  -4.57790375E+00  -8.54972744E+00   4.76332970E+01   4.76332970E+01  -4.57790375E+00  -8.54972744E+00   5.61830254E+01  -1.15018883E+01   5.39779243E+01  -6.34073913E-01   4.36894684E+01  -8.54972744E+00   1.37970371E+01
             3462                2   5.47485046E+01   4.79394836E+01   4.79394836E+01  -4.88408756E+00  -8.54972744E+00   4.79394836E+01   4.79394836E+01  -4.88408756E+00  -8.54972744E+00   5.64892120E+01  -1.15018892E+01   5.44713860E+01  -6.09219909E-01   4.36646156E+01  -8.54972744E+00   1.44062262E+01
             3462                3   5.36008415E+01   4.71427879E+01   4.71427879E+01  -4.08739567E+00  -8.54972744E+00   4.71427879E+01   4.71427879E+01  -4.08739567E+00  -8.54972744E+00   5.56925163E+01  -1.15018883E+01   5.31805305E+01  -5.12581579E-02   4.31066513E+01  -8.54972744E+00   1.38015099E+01
             3462                4   5.40406647E+01   4.74490013E+01   4.74490013E+01  -4.39360762E+00  -8.54972744E+00   4.74490013E+01   4.74490013E+01  -4.39360762E+00  -8.54972744E+00   5.59987297E+01  -1.15018883E+01   5.36793289E+01  -2.28348076E-02   4.30782280E+01  -8.54972744E+00   1.44044647E+01
             3463                1   8.16821518E+01   8.64773407E+01   8.64773407E+01   7.48558819E-01   9.55555534E+00   8.64773407E+01   8.64773407E+01   9.55555534E+00   7.48558819E-01   8.57287827E+01  -3.22604866E+01   8.06035919E+01   4.50281410E+01   4.21977577E+01   9.55555534E+00   4.28410225E+01
             3463                2   8.02018890E+01   8.55352402E+01   8.55352402E+01   1.69065058E+00   9.55555534E+00   8.55352402E+01   8.55352402E+01   9.55555534E+00   1.69065058E+00   8.38445892E+01  -3.22604828E+01   7.93273239E+01   4.56187515E+01   4.16071434E+01   9.55555534E+00   4.18742828E+01
             3463                3   8.06524963E+01   8.58224258E+01   8.58224258E+01   1.40347457E+00   9.55555534E+00   8.58224258E+01   8.58224258E+01   9.55555534E+00   1.40347457E+00   8.44189529E+01  -3.22604866E+01   7.97176819E+01   4.40892754E+01   4.31366234E+01   9.55555534E+00   4.22067871E+01
             3463                4   7.91101685E+01   8.48379974E+01   8.48379974E+01   2.38790369E+00   9.55555534E+00   8.48379974E+01   8.48379974E+01   9.55555534E+00   2.38790369E+00   8.24500885E+01  -3.22604866E+01   7.83746414E+01   4.46909485E+01   4.25349503E+01   9.55555534E+00   4.12109489E+01
             3464                1   2.85179462E+01   4.09838066E+01   4.09838066E+01   1.22156954E+01   1.27227859E+01   4.09838066E+01   4.09838066E+01   1.27227859E+01   1.22156954E+01   2.87681103E+01  -2.19740963E+01   2.85078011E+01   1.26898937E+01   4.05096092E+01   1.27227859E+01   3.66290712E+00
             3464                2   2.85418301E+01   4.09995880E+01   4.09995880E+01   1.21999168E+01   1.27227859E+01   4.09995880E+01   4.09995880E+01   1.27227859E+01   1.21999168E+01   2.87996712E+01  -2.19740963E+01   2.85310535E+01   1.27450552E+01   4.04544487E+01   1.27227859E+01   3.92462206E+00
             3464                3   2.81125393E+01   4.07152824E+01   4.07152824E+01   1.24842186E+01   1.27227859E+01   4.07152824E+01   4.07152824E+01   1.27227859E+01   1.24842186E+01   2.82310638E+01  -2.19740963E+01   2.81102638E+01   1.29527111E+01   4.02467918E+01   1.27227859E+01   3.60645747E+00
             3464                4   2.81364174E+01   4.07311325E+01   4.07311325E+01   1.24683714E+01   1.27227859E+01   4.07311325E+01   4.07311325E+01   1.27227859E+01   1.24683714E+01   2.82627621E+01  -2.19740963E+01   2.81338329E+01   1.30080519E+01   4.01914520E+01   1.27227859E+01   3.86802721E+00
             3465                1   2.81115646E+01   4.05729561E+01   4.05729561E+01   1.22826567E+01   1.26436043E+01   4.05729561E+01   4.05729561E+01   1.26436043E+01   1.22826567E+01   2.82903004E+01  -2.18330746E+01   2.81063461E+01   1.29632187E+01   3.98923950E+01   1.26436043E+01   4.33475876E+00
             3465                2   2.80832176E+01   4.05541763E+01   4.05541763E+01   1.23014383E+01   1.26436043E+01   4.05541763E+01   4.05541763E+01   1.26436043E+01   1.23014383E+01   2.82527370E+01  -2.18330746E+01   2.80785236E+01   1.29026365E+01   3.99529762E+01   1.26436043E+01   4.07726479E+00
             3465                3   2.85111599E+01   4.08370857E+01   4.08370857E+01   1.20185242E+01   1.26436043E+01   4.08370857E+01   4.08370857E+01   1.26436043E+01   1.20185242E+01   2.88185616E+01  -2.18330708E+01   2.84957371E+01   1.27054415E+01   4.01501694E+01   1.26436043E+01   4.39591599E+00
             3465                4   2.84832172E+01   4.08186531E+01   4.08186531E+01   1.20369596E+01   1.26436043E+01   4.08186531E+01   4.08186531E+01   1.26436043E+01   1.20369596E+01   2.87816944E+01  -2.18330746E+01   2.84686699E+01   1.26449413E+01   4.02106705E+01   1.26436043E+01   4.13873482E+00
             3466                1   3.50411797E+01   4.32895317E+01   4.32895317E+01   5.51739836E+00   1.18402739E+01   4.32895317E+01   4.32895317E+01   1.18402739E+01   5.51739836E+00   3.77721329E+01  -2.02157345E+01   3.37217369E+01   9.58961582E+00   3.92173157E+01   1.18402739E+01   1.17146645E+01
             3466                2   3.62027016E+01   4.40062027E+01   4.40062027E+01   4.80072927E+00   1.18402739E+01   4.40062027E+01   4.40062027E+01   1.18402739E+01   4.80072927E+00   3.92054710E+01  -2.02157345E+01   3.46122398E+01   9.10190201E+00   3.97050285E+01   1.18402739E+01   1.22527313E+01
             3466                3   3.48665619E+01   4.31814957E+01   4.31814957E+01   5.62543297E+00   1.18402739E+01   4.31814957E+01   4.31814957E+01   1.18402739E+01   5.62543297E+00   3.75560646E+01  -2.02157345E+01   3.35863266E+01   1.01366234E+01   3.86703072E+01   1.18402739E+01   1.22094927E+01
             3466                4   3.60332146E+01   4.39018326E+01   4.39018326E+01   4.90509939E+00   1.18402739E+01   4.39018326E+01   4.39018326E+01   1.18402739E+01   4.90509939E+00   3.89967308E+01  -2.02157345E+01   3.44833717E+01   9.64727879E+00   3.91596527E+01   1.18402739E+01   1.27452421E+01
             3467                1   2.59346104E+01   3.96754913E+01   3.96754913E+01   1.34968548E+01   1.39920034E+01   3.96754913E+01   3.96754913E+01   1.39920034E+01   1.34968548E+01   2.61786385E+01  -2.23881168E+01   2.59239731E+01   1.42538433E+01   3.89185066E+01   1.39920034E+01   4.38678360E+00
             3467                2   2.58828716E+01   3.96413155E+01   3.96413155E+01   1.35310373E+01   1.39920034E+01   3.96413155E+01   3.96413155E+01   1.39920034E+01   1.35310373E+01   2.61102772E+01  -2.23881168E+01   2.58736362E+01   1.41989670E+01   3.89733849E+01   1.39920034E+01   4.12234020E+00
             3467                3   2.63416729E+01   3.99437027E+01   3.99437027E+01   1.32286463E+01   1.39920034E+01   3.99437027E+01   3.99437027E+01   1.39920034E+01   1.32286463E+01   2.67150555E+01  -2.23881168E+01   2.63167706E+01   1.39889011E+01   3.91834488E+01   1.39920034E+01   4.44209719E+00
             3467                4   2.62906723E+01   3.99101677E+01   3.99101677E+01   1.32621813E+01   1.39920034E+01   3.99101677E+01   3.99101677E+01   1.39920034E+01   1.32621813E+01   2.66479855E+01  -2.23881168E+01   2.62678680E+01   1.39341412E+01   3.92382088E+01   1.39920034E+01   4.17789650E+00
             3468                1   3.72977829E+01   4.31315918E+01   4.31315918E+01   5.53270578E+00   6.14238977E+00   4.31315918E+01   4.31315918E+01   6.14238977E+00   5.53270578E+00   3.75988884E+01  -1.82688961E+01   3.72865677E+01   6.96716499E+00   4.16971359E+01   6.14238977E+00   7.20252275E+00
             3468                2   3.72559242E+01   4.31039047E+01   4.31039047E+01   5.56039715E+00   6.14238977E+00   4.31039047E+01   4.31039047E+01   6.14238977E+00   5.56039715E+00   3.75435104E+01  -1.82688980E+01   3.72456894E+01   7.08286142E+00   4.15814400E+01   6.14238977E+00   7.40545797E+00
             3468                3   3.69469490E+01   4.28992348E+01   4.28992348E+01   5.76506567E+00   6.14238977E+00   4.28992348E+01   4.28992348E+01   6.14238977E+00   5.76506567E+00   3.71341667E+01  -1.82688961E+01   3.69426155E+01   7.16923285E+00   4.14950676E+01   6.14238977E+00   7.08313751E+00
             3468                4   3.69046974E+01   4.28712006E+01   4.28712006E+01   5.79310083E+00   6.14238977E+00   4.28712006E+01   4.28712006E+01   6.14238977E+00   5.79310083E+00   3.70781021E+01  -1.82688980E+01   3.69009743E+01   7.28484201E+00   4.13794594E+01   6.14238977E+00   7.28599310E+00
             3469                1   1.14106262E+02   1.27668167E+02   1.27668167E+02   1.29193449E+01   1.42154884E+01   1.27668167E+02   1.27668167E+02   1.42154884E+01   1.29193449E+01   1.14748817E+02  -5.16009979E+01   1.14089699E+02   1.44748774E+01   1.26112625E+02   1.42154884E+01   1.32693672E+01
             3469                2   1.14110817E+02   1.27671181E+02   1.27671181E+02   1.29163294E+01   1.42154884E+01   1.27671181E+02   1.27671181E+02   1.42154884E+01   1.29163294E+01   1.14754852E+02  -5.16009979E+01   1.14094177E+02   1.44490099E+01   1.26138496E+02   1.42154884E+01   1.31732216E+01
             3469                3   1.14249237E+02   1.27762924E+02   1.27762924E+02   1.28245859E+01   1.42154884E+01   1.27762924E+02   1.27762924E+02   1.42154884E+01   1.28245859E+01   1.14938339E+02  -5.16009979E+01   1.14230186E+02   1.43846865E+01   1.26202820E+02   1.42154884E+01   1.32996912E+01
             3469                4   1.14255692E+02   1.27767197E+02   1.27767197E+02   1.28203106E+01   1.42154884E+01   1.27767197E+02   1.27767197E+02   1.42154884E+01   1.28203106E+01   1.14946892E+02  -5.16009979E+01   1.14236526E+02   1.43574667E+01   1.26230042E+02   1.42154884E+01   1.32033548E+01
             3470                1   3.07278156E+01   4.19278641E+01   4.19278641E+01   1.09883175E+01   1.14162474E+01   4.19278641E+01   4.19278641E+01   1.14162474E+01   1.09883175E+01   3.09395447E+01  -2.14441433E+01   3.07211075E+01   1.14258871E+01   4.14902916E+01   1.14162474E+01   3.65332437E+00
             3470                2   3.07355804E+01   4.19330025E+01   4.19330025E+01   1.09831734E+01   1.14162474E+01   4.19330025E+01   4.19330025E+01   1.14162474E+01   1.09831734E+01   3.09498291E+01  -2.14441395E+01   3.07287178E+01   1.14846964E+01   4.14314804E+01   1.14162474E+01   3.90774775E+00
             3470                3   3.03312569E+01   4.16647568E+01   4.16647568E+01   1.12514210E+01   1.14162474E+01   4.16647568E+01   4.16647568E+01   1.14162474E+01   1.12514210E+01   3.04133339E+01  -2.14441395E+01   3.03302536E+01   1.16820545E+01   4.12341232E+01   1.14162474E+01   3.59326196E+00
             3470                4   3.03385029E+01   4.16695747E+01   4.16695747E+01   1.12466059E+01   1.14162474E+01   4.16695747E+01   4.16695747E+01   1.14162474E+01   1.12466059E+01   3.04229679E+01  -2.14441433E+01   3.03374348E+01   1.17410736E+01   4.11751060E+01   1.14162474E+01   3.84690523E+00
             3471                1   2.38464928E+01   3.86942558E+01   3.86942558E+01   1.44350481E+01   1.52831011E+01   3.86942558E+01   3.86942558E+01   1.52831011E+01   1.44350481E+01   2.42592068E+01  -2.28041363E+01   2.38125229E+01   1.54853611E+01   3.76439400E+01   1.52831011E+01   4.93726873E+00
             3471                2   2.37588043E+01   3.86367569E+01   3.86367569E+01   1.44925404E+01   1.52831011E+01   3.86367569E+01   3.86367569E+01   1.52831011E+01   1.44925404E+01   2.41442184E+01  -2.28041325E+01   2.37291851E+01   1.54331179E+01   3.76961823E+01   1.52831011E+01   4.67170143E+00
             3471                3   2.42503586E+01   3.89582863E+01   3.89582863E+01   1.41710148E+01   1.52831011E+01   3.89582863E+01   3.89582863E+01   1.52831011E+01   1.41710148E+01   2.47872696E+01  -2.28041325E+01   2.41928883E+01   1.52196922E+01   3.79096069E+01   1.52831011E+01   4.98940182E+00
             3471                4   2.41643391E+01   3.89021530E+01   3.89021530E+01   1.42271490E+01   1.52831011E+01   3.89021530E+01   3.89021530E+01   1.52831011E+01   1.42271490E+01   2.46750050E+01  -2.28041363E+01   2.41123428E+01   1.51673727E+01   3.79619293E+01   1.52831011E+01   4.72398472E+00
             3472                1   3.24845009E+01   3.94645538E+01   3.94645538E+01   5.48187113E+00   8.72091198E+00   3.94645538E+01   3.94645538E+01   8.72091198E+00   5.48187113E+00   3.39826851E+01  -1.78891125E+01   3.21181793E+01   8.72842216E+00   3.62180023E+01   8.72091198E+00   9.98931694E+00
             3472                2   3.27842331E+01   3.96553764E+01   3.96553764E+01   5.29104757E+00   8.72091198E+00   3.96553764E+01   3.96553764E+01   8.72091198E+00   5.29104757E+00   3.43643265E+01  -1.78891125E+01   3.23768921E+01   8.66654968E+00   3.62798729E+01   8.72091198E+00   1.02275534E+01
             3472                3   3.22348671E+01   3.93053322E+01   3.93053322E+01   5.64108944E+00   8.72091198E+00   3.93053322E+01   3.93053322E+01   8.72091198E+00   5.64108944E+00   3.36642418E+01  -1.78891125E+01   3.19013367E+01   8.96932316E+00   3.59771004E+01   8.72091198E+00   1.00481491E+01
             3472                4   3.25368195E+01   3.94978867E+01   3.94978867E+01   5.44853497E+00   8.72091198E+00   3.94978867E+01   3.94978867E+01   8.72091198E+00   5.44853497E+00   3.40493507E+01  -1.78891125E+01   3.21634636E+01   8.90742493E+00   3.60389977E+01   8.72091198E+00   1.02863522E+01
             3473                1   2.37400055E+01   3.87964745E+01   3.87964745E+01   1.47301474E+01   1.53968344E+01   3.87964745E+01   3.87964745E+01   1.53968344E+01   1.47301474E+01   2.40663280E+01  -2.29744854E+01   2.37189331E+01   1.55924501E+01   3.79341736E+01   1.53968344E+01   4.47312832E+00
             3473                2   2.36585522E+01   3.87428818E+01   3.87428818E+01   1.47837410E+01   1.53968344E+01   3.87428818E+01   3.87428818E+01   1.53968344E+01   1.47837410E+01   2.39591408E+01  -2.29744854E+01   2.36406727E+01   1.55442696E+01   3.79823532E+01   1.53968344E+01   4.20038176E+00
             3473                3   2.41537819E+01   3.90678978E+01   3.90678978E+01   1.44587288E+01   1.53968344E+01   3.90678978E+01   3.90678978E+01   1.53968344E+01   1.44587288E+01   2.46091690E+01  -2.29744873E+01   2.41127396E+01   1.53195667E+01   3.82070580E+01   1.53968344E+01   4.52144670E+00
             3473                4   2.40737400E+01   3.90154953E+01   3.90154953E+01   1.45111256E+01   1.53968344E+01   3.90154953E+01   3.90154953E+01   1.53968344E+01   1.45111256E+01   2.45043716E+01  -2.29744854E+01   2.40370426E+01   1.52713928E+01   3.82552299E+01   1.53968344E+01   4.24874783E+00
             3474                1   3.52424774E+01   4.40709991E+01   4.40709991E+01   8.69979763E+00   8.95867634E+00   4.40709991E+01   4.40709991E+01   8.95867634E+00   8.69979763E+00   3.53712044E+01  -2.05764904E+01   3.52403374E+01   9.04539204E+00   4.37254066E+01   8.95867634E+00   3.47917080E+00
             3474                2   3.48458366E+01   4.38070488E+01   4.38070488E+01   8.96374989E+00   8.95867634E+00   4.38070488E+01   4.38070488E+01   8.96374989E+00   8.95867634E+00   3.48483696E+01  -2.05764904E+01   3.48458328E+01   9.30213070E+00   4.34686661E+01   8.95867634E+00   3.41699076E+00
             3474                3   3.52643242E+01   4.40855103E+01   4.40855103E+01   8.68528748E+00   8.95867634E+00   4.40855103E+01   4.40855103E+01   8.95867634E+00   8.68528748E+00   3.54002228E+01  -2.05764904E+01   3.52619400E+01   8.98465729E+00   4.37861404E+01   8.95867634E+00   3.24162412E+00
             3474                4   3.48684616E+01   4.38221321E+01   4.38221321E+01   8.94866657E+00   8.95867634E+00   4.38221321E+01   4.38221321E+01   8.95867634E+00   8.94866657E+00   3.48734627E+01  -2.05764904E+01   3.48684578E+01   9.24108601E+00   4.35297127E+01   8.95867634E+00   3.17995644E+00
             3475                1   2.11094696E+02   2.14690887E+02   2.14690887E+02  -8.83234978E+00   1.87331219E+01   2.14690887E+02   2.14690887E+02   1.87331219E+01  -8.83234978E+00   2.23523239E+02  -7.48638840E+01   2.06987396E+02  -8.75353718E+00   2.14612076E+02   1.87331219E+01  -4.19637918E+00
             3475                2   2.10720810E+02   2.14522446E+02   2.14522446E+02  -8.10701084E+00   1.81762218E+01   2.14522446E+02   2.14522446E+02   1.81762218E+01  -8.10701084E+00   2.22629456E+02  -7.48638840E+01   2.06984848E+02  -8.10281563E+00   2.14518250E+02   1.81762218E+01  -9.66654480E-01
             3475                3   2.10191162E+02   2.14264877E+02   2.14264877E+02  -7.17753172E+00   1.75043068E+01   2.14264877E+02   2.14264877E+02   1.75043068E+01  -7.17753172E+00   2.21442398E+02  -7.48638840E+01   2.06893219E+02  -7.01923513E+00   2.14106583E+02   1.75043068E+01  -5.91837740E+00
             3475                4   2.10006882E+02   2.14181595E+02   2.14181595E+02  -6.79057980E+00   1.72006397E+01   2.14181595E+02   2.14181595E+02   1.72006397E+01  -6.79057980E+00   2.20972183E+02  -7.48638840E+01   2.06890106E+02  -6.76839256E+00   2.14159409E+02   1.72006397E+01  -2.21439099E+00
             3476                1   8.41284637E+01   8.19309235E+01   8.19309235E+01  -1.65239298E+00  -2.73227644E+00   8.19309235E+01   8.19309235E+01  -1.65239298E+00  -2.73227644E+00   8.46632004E+01  -2.58487530E+01   8.41128616E+01   5.52726603E+00   7.47512665E+01  -2.73227644E+00   2.34211941E+01
             3476                2   8.54021988E+01   8.27834015E+01   8.27834015E+01  -2.50486469E+00  -2.73227644E+00   8.27834015E+01   8.27834015E+01  -2.50486469E+00  -2.73227644E+00   8.55156784E+01  -2.58487530E+01   8.54015121E+01   4.39819193E+00   7.58803406E+01  -2.73227644E+00   2.32615051E+01
             3476                3   8.51014938E+01   8.25825424E+01   8.25825424E+01  -2.30400944E+00  -2.73227644E+00   8.25825424E+01   8.25825424E+01  -2.30400944E+00  -2.73227644E+00   8.53148193E+01  -2.58487530E+01   8.50990677E+01   5.51813269E+00   7.47603989E+01  -2.73227644E+00   2.45521679E+01
             3476                4   8.63579712E+01   8.34202499E+01   8.34202499E+01  -3.14171529E+00  -2.73227644E+00   8.34202499E+01   8.34202499E+01  -2.73227644E+00  -3.14171529E+00   8.65619659E+01  -2.58487530E+01   8.63557892E+01   4.38662148E+00   7.58919144E+01  -2.73227644E+00   2.43924503E+01
             3477                1   2.62624817E+01   4.03842735E+01   4.03842735E+01   1.39567137E+01   1.42900448E+01   4.03842735E+01   4.03842735E+01   1.42900448E+01   1.39567137E+01   2.64275608E+01  -2.28770123E+01   2.62577190E+01   1.41929045E+01   4.01480827E+01   1.42900448E+01   2.48720336E+00
             3477                2   2.58339863E+01   4.00996437E+01   4.00996437E+01   1.42413397E+01   1.42900448E+01   4.00996437E+01   4.00996437E+01   1.42900448E+01   1.42413397E+01   2.58583050E+01  -2.28770084E+01   2.58338852E+01   1.44773378E+01   3.98636475E+01   1.42900448E+01   2.45902276E+00
             3477                3   2.62341366E+01   4.03654938E+01   4.03654938E+01   1.39754953E+01   1.42900448E+01   4.03654938E+01   4.03654938E+01   1.42900448E+01   1.39754953E+01   2.63899975E+01  -2.28770123E+01   2.62298889E+01   1.41613216E+01   4.01796646E+01   1.42900448E+01   2.20668197E+00
             3477                4   2.58048954E+01   4.00802650E+01   4.00802650E+01   1.42607183E+01   1.42900448E+01   4.00802650E+01   4.00802650E+01   1.42900448E+01   1.42607183E+01   2.58195477E+01  -2.28770084E+01   2.58048611E+01   1.44459620E+01   3.98950233E+01   1.42900448E+01   2.17911983E+00
             3478                1   3.31411285E+01   4.32481308E+01   4.32481308E+01   9.97617149E+00   1.02394066E+01   4.32481308E+01   4.32481308E+01   1.02394066E+01   9.97617149E+00   3.32719612E+01  -2.11545696E+01   3.31387749E+01   1.01994867E+01   4.30248184E+01   1.02394066E+01   2.71665692E+00
             3478                2   3.31301537E+01   4.32408447E+01   4.32408447E+01   9.98345947E+00   1.02394066E+01   4.32408447E+01   4.32408447E+01   1.02394066E+01   9.98345947E+00   3.32573853E+01  -2.11545696E+01   3.31279297E+01   1.02500286E+01   4.29742775E+01   1.02394066E+01   2.96551538E+00
             3478                3   3.27418404E+01   4.29824638E+01   4.29824638E+01   1.02418404E+01   1.02394066E+01   4.29824638E+01   4.29824638E+01   1.02418404E+01   1.02394066E+01   3.27430573E+01  -2.11545696E+01   3.27418404E+01   1.04601231E+01   4.27641830E+01   1.02394066E+01   2.66439605E+00
             3478                4   3.27293015E+01   4.29741020E+01   4.29741020E+01   1.02502012E+01   1.02394066E+01   4.29741020E+01   4.29741020E+01   1.02502012E+01   1.02394066E+01   3.27346954E+01  -2.11545696E+01   3.27292976E+01   1.05118589E+01   4.27124443E+01   1.02394066E+01   2.91445303E+00
             3479                1   5.04022255E+01   4.83102875E+01   4.83102875E+01  -1.70281053E+00  -2.47225904E+00   4.83102875E+01   4.83102875E+01  -1.70281053E+00  -2.47225904E+00   5.07825432E+01  -1.47117386E+01   5.03890076E+01   3.28583755E-02   4.65746155E+01  -2.47225904E+00   9.15388966E+00
             3479                2   5.01580391E+01   4.81460838E+01   4.81460838E+01  -1.53860974E+00  -2.47225904E+00   4.81460838E+01   4.81460838E+01  -1.53860974E+00  -2.47225904E+00   5.06183434E+01  -1.47117386E+01   5.01384811E+01   2.44300053E-01   4.63631744E+01  -2.47225904E+00   9.24146080E+00
             3479                3   5.00991020E+01   4.81064148E+01   4.81064148E+01  -1.49893820E+00  -2.47225904E+00   4.81064148E+01   4.81064148E+01  -1.49893820E+00  -2.47225904E+00   5.05786743E+01  -1.47117386E+01   5.00778236E+01   1.55933157E-01   4.64515419E+01  -2.47225904E+00   8.90796757E+00
             3479                4   4.98472061E+01   4.79366570E+01   4.79366570E+01  -1.32918119E+00  -2.47225904E+00   4.79366570E+01   4.79366570E+01  -1.32918119E+00  -2.47225904E+00   5.04089165E+01  -1.47117386E+01   4.98177071E+01   3.72227520E-01   4.62352486E+01  -2.47225904E+00   8.99591541E+00
             3480                1   2.76584053E+01   3.86068573E+01   3.86068573E+01   8.83522320E+00   1.37098141E+01   3.86068573E+01   3.86068573E+01   1.37098141E+01   8.83522320E+00   2.97716351E+01  -2.03839645E+01   2.66661682E+01   1.38364172E+01   3.36056633E+01   1.37098141E+01   1.11302204E+01
             3480                2   2.73535919E+01   3.84179153E+01   3.84179153E+01   9.02416325E+00   1.37098141E+01   3.84179153E+01   3.84179153E+01   1.37098141E+01   9.02416325E+00   2.93937511E+01  -2.03839645E+01   2.64279671E+01   1.38962793E+01   3.35457993E+01   1.37098141E+01   1.09303350E+01
             3480                3   2.78025379E+01   3.86960907E+01   3.86960907E+01   8.74598980E+00   1.37098141E+01   3.86960907E+01   3.86960907E+01   1.37098141E+01   8.74598980E+00   2.99501019E+01  -2.03839645E+01   2.67782402E+01   1.36364746E+01   3.38056068E+01   1.37098141E+01   1.10703964E+01
             3480                4   2.74993877E+01   3.85083275E+01   3.85083275E+01   8.93375206E+00   1.37098141E+01   3.85083275E+01   3.85083275E+01   1.37098141E+01   8.93375206E+00   2.95745773E+01  -2.03839645E+01   2.65421085E+01   1.36963692E+01   3.37457123E+01   1.37098141E+01   1.08705959E+01
             3481                1   7.18654404E+01   6.66675034E+01   6.66675034E+01  -4.02084446E+00  -6.31986380E+00   6.66675034E+01   6.66675034E+01  -4.02084446E+00  -6.31986380E+00   7.29873657E+01  -1.87755985E+01   7.17826309E+01   3.73701406E+00   5.89096413E+01  -6.31986380E+00   2.20953808E+01
             3481                2   7.23409500E+01   6.69893875E+01   6.69893875E+01  -4.34273195E+00  -6.31986380E+00   6.69893875E+01   6.69893875E+01  -4.34273195E+00  -6.31986380E+00   7.33092499E+01  -1.87755966E+01   7.22801208E+01   3.14187050E+00   5.95047836E+01  -6.31986380E+00   2.18603096E+01
             3481                3   7.23926315E+01   6.70243225E+01   6.70243225E+01  -4.37766886E+00  -6.31986380E+00   6.70243225E+01   6.70243225E+01  -4.37766886E+00  -6.31986380E+00   7.33441925E+01  -1.87755985E+01   7.23339767E+01   3.64145327E+00   5.90052032E+01  -6.31986380E+00   2.25449543E+01
             3481                4   7.28994827E+01   6.73664703E+01   6.73664703E+01  -4.71981382E+00  -6.31986380E+00   6.73664703E+01   6.73664703E+01  -4.71981382E+00  -6.31986380E+00   7.36863327E+01  -1.87755985E+01   7.28599548E+01   3.10896993E+00   5.95376854E+01  -6.31986380E+00   2.24289570E+01
             3482                1   2.09266129E+02   2.11365509E+02   2.11365509E+02  -3.69254559E-01   4.65863752E+00   2.11365509E+02   2.11365509E+02   4.65863752E+00  -3.69254559E-01   2.11734772E+02  -7.18849640E+01   2.09130173E+02  -3.54037583E-01   2.11350296E+02   4.65863752E+00   1.79510367E+00
             3482                2   2.09198395E+02   2.11322021E+02   2.11322021E+02  -2.76540875E-01   4.60939312E+00   2.11322021E+02   2.11322021E+02   4.60939312E+00  -2.76540875E-01   2.11598572E+02  -7.18849564E+01   2.09069977E+02  -2.72912771E-01   2.11318405E+02   4.60939312E+00   8.75463724E-01
             3482                3   2.09918915E+02   2.11789124E+02   2.11789124E+02  -1.02856529E+00   4.89433289E+00   2.11789124E+02   2.11789124E+02   4.89433289E+00  -1.02856529E+00   2.12817688E+02  -7.18849640E+01   2.09730789E+02  -1.01534820E+00   2.11775909E+02   4.89433289E+00   1.67696083E+00
             3482                4   2.09865616E+02   2.11755600E+02   2.11755600E+02  -9.39558923E-01   4.83885956E+00   2.11755600E+02   2.11755600E+02   4.83885956E+00  -9.39558923E-01   2.12695160E+02  -7.18849716E+01   2.09686508E+02  -9.36833739E-01   2.11752869E+02   4.83885956E+00   7.62044787E-01
             3483                1   4.89491425E+01   4.64001503E+01   4.64001503E+01  -1.83276725E+00  -3.23507929E+00   4.64001503E+01   4.64001503E+01  -1.83276725E+00  -3.23507929E+00   4.96352310E+01  -1.37774343E+01   4.89039154E+01   4.62327860E-02   4.45211487E+01  -3.23507929E+00   9.33268833E+00
             3483                2   4.91054153E+01   4.65058174E+01   4.65058174E+01  -1.93843412E+00  -3.23507929E+00   4.65058174E+01   4.65058174E+01  -1.93843412E+00  -3.23507929E+00   4.97408943E+01  -1.37774343E+01   4.90668755E+01  -2.76870113E-02   4.45950699E+01  -3.23507929E+00   9.42940903E+00
             3483                3   4.87657127E+01   4.62759628E+01   4.62759628E+01  -1.70857894E+00  -3.23507929E+00   4.62759628E+01   4.62759628E+01  -1.70857894E+00  -3.23507929E+00   4.95110397E+01  -1.37774343E+01   4.87119141E+01   1.93210527E-01   4.43741722E+01  -3.23507929E+00   9.36160755E+00
             3483                4   4.89644661E+01   4.64105186E+01   4.64105186E+01  -1.84313798E+00  -3.23507929E+00   4.64105186E+01   4.64105186E+01  -1.84313798E+00  -3.23507929E+00   4.96455956E+01  -1.37774324E+01   4.89199219E+01   8.97992104E-02   4.44775810E+01  -3.23507929E+00   9.46229267E+00
             3484                1   3.53623810E+01   4.20952950E+01   4.20952950E+01   4.16452265E+00   1.00363903E+01   4.20952950E+01   4.20952950E+01   1.00363903E+01   4.16452265E+00   3.79307747E+01  -1.87654037E+01   3.42397232E+01   7.81118536E+00   3.84486351E+01   1.00363903E+01   1.11813498E+01
             3484                2   3.52024956E+01   4.19958878E+01   4.19958878E+01   4.26393127E+00   1.00363903E+01   4.19958878E+01   4.19958878E+01   1.00363903E+01   4.26393127E+00   3.77319565E+01  -1.87654037E+01   3.41132507E+01   8.18737984E+00   3.80724411E+01   1.00363903E+01   1.15172005E+01
             3484                3   3.45783234E+01   4.16071053E+01   4.16071053E+01   4.65271473E+00   1.00363903E+01   4.16071053E+01   4.16071053E+01   1.00363903E+01   4.65271473E+00   3.69543915E+01  -1.87654037E+01   3.36159744E+01   8.14156914E+00   3.81182518E+01   1.00363903E+01   1.08053856E+01
             3484                4   3.44134674E+01   4.15042267E+01   4.15042267E+01   4.75559664E+00   1.00363903E+01   4.15042267E+01   4.15042267E+01   1.00363903E+01   4.75559664E+00   3.67486305E+01  -1.87654037E+01   3.34836693E+01   8.51919937E+00   3.77406235E+01   1.00363903E+01   1.11419268E+01
             3485                1   4.37268715E+01   4.89264183E+01   4.89264183E+01   8.61399770E-01   1.15015717E+01   4.89264183E+01   4.89264183E+01   1.15015717E+01   8.61399770E-01   4.80650177E+01  -2.04297962E+01   4.06582947E+01   2.18430519E+00   4.76035118E+01   1.15015717E+01   7.86355400E+00
             3485                2   4.47853088E+01   4.95675735E+01   4.95675735E+01   2.20243827E-01   1.15015717E+01   4.95675735E+01   4.95675735E+01   1.15015717E+01   2.20243827E-01   4.93473320E+01  -2.04297962E+01   4.14035301E+01   1.71518004E+00   4.80726395E+01   1.15015717E+01   8.45791054E+00
             3485                3   4.30624237E+01   4.85231094E+01   4.85231094E+01   1.26470840E+00   1.15015717E+01   4.85231094E+01   4.85231094E+01   1.15015717E+01   1.26470840E+00   4.72584038E+01  -2.04297962E+01   4.01856384E+01   2.77768254E+00   4.70101357E+01   1.15015717E+01   8.31935596E+00
             3485                4   4.41350746E+01   4.91738739E+01   4.91738739E+01   6.13944173E-01   1.15015717E+01   4.91738739E+01   4.91738739E+01   1.15015717E+01   6.13944173E-01   4.85599289E+01  -2.04297962E+01   4.09468040E+01   2.30959368E+00   4.74782257E+01   1.15015717E+01   8.91433525E+00
             3486                1   6.95413742E+01   6.35317917E+01   6.35317917E+01  -4.76759863E+00  -7.18834877E+00   6.35317917E+01   6.35317917E+01  -4.76759863E+00  -7.18834877E+00   7.07201385E+01  -1.71919479E+01   6.94464798E+01   2.16361523E+00   5.66005783E+01  -7.18834877E+00   2.06241608E+01
             3486                2   6.97650223E+01   6.36835136E+01   6.36835136E+01  -4.91931772E+00  -7.18834877E+00   6.36835136E+01   6.36835136E+01  -4.91931772E+00  -7.18834877E+00   7.08718643E+01  -1.71919479E+01   6.96819305E+01   2.11427140E+00   5.66499214E+01  -7.18834877E+00   2.08099213E+01
             3486                3   6.91981506E+01   6.32985954E+01   6.32985954E+01  -4.53439999E+00  -7.18834877E+00   6.32985954E+01   6.32985954E+01  -4.53439999E+00  -7.18834877E+00   7.04869461E+01  -1.71919479E+01   6.90835037E+01   2.43943024E+00   5.63247643E+01  -7.18834877E+00   2.06014919E+01
             3486                4   6.94661255E+01   6.34807014E+01   6.34807014E+01  -4.71650839E+00  -7.18834877E+00   6.34807014E+01   6.34807014E+01  -4.71650839E+00  -7.18834877E+00   7.06690521E+01  -1.71919479E+01   6.93670731E+01   2.36151099E+00   5.64026833E+01  -7.18834877E+00   2.07991066E+01
             3487                1   4.44371605E+01   4.04623413E+01   4.04623413E+01  -2.00085187E+00  -5.71558142E+00   4.04623413E+01   4.04623413E+01  -2.00085187E+00  -5.71558142E+00   4.61779251E+01  -1.09153032E+01   4.40858040E+01   7.06014559E-02   3.83908882E+01  -5.71558142E+00   9.14711094E+00
             3487                2   4.49080887E+01   4.07900963E+01   4.07900963E+01  -2.32860708E+00  -5.71558142E+00   4.07900963E+01   4.07900963E+01  -2.32860708E+00  -5.71558142E+00   4.65056801E+01  -1.09153032E+01   4.46193657E+01  -2.98569053E-01   3.87600594E+01  -5.71558142E+00   9.13299370E+00
             3487                3   4.46652908E+01   4.06213112E+01   4.06213112E+01  -2.15982008E+00  -5.71558142E+00   4.06213112E+01   4.06213112E+01  -2.15982008E+00  -5.71558142E+00   4.63368912E+01  -1.09153032E+01   4.43451767E+01   7.79033750E-02   3.83835869E+01  -5.71558142E+00   9.52496433E+00
             3487                4   4.51343803E+01   4.09470444E+01   4.09470444E+01  -2.48555446E+00  -5.71558142E+00   4.09470444E+01   4.09470444E+01  -2.48555446E+00  -5.71558142E+00   4.66626282E+01  -1.09153032E+01   4.48732376E+01  -2.90224522E-01   3.87517166E+01  -5.71558142E+00   9.51469135E+00
             3488                1   7.32187424E+01   6.63945389E+01   6.63945389E+01  -6.27367640E+00  -7.36257601E+00   6.63945389E+01   6.63945389E+01  -6.27367640E+00  -7.36257601E+00   7.37571182E+01  -1.75860958E+01   7.32005157E+01  -2.61672544E+00   6.27375908E+01  -7.36257601E+00   1.58861818E+01
             3488                2   7.24610214E+01   6.58846283E+01   6.58846283E+01  -5.76375675E+00  -7.36257601E+00   6.58846283E+01   6.58846283E+01  -5.76375675E+00  -7.36257601E+00   7.32472000E+01  -1.75860977E+01   7.24213181E+01  -1.97760844E+00   6.20984764E+01  -7.36257601E+00   1.60292358E+01
             3488                3   7.27466278E+01   6.60770569E+01   6.60770569E+01  -5.95618629E+00  -7.36257601E+00   6.60770569E+01   6.60770569E+01  -5.95618629E+00  -7.36257601E+00   7.34396286E+01  -1.75860977E+01   7.27160339E+01  -2.56016183E+00   6.26810303E+01  -7.36257601E+00   1.52674017E+01
             3488                4   7.20014496E+01   6.55744095E+01   6.55744095E+01  -5.45354033E+00  -7.36257601E+00   6.55744095E+01   6.55744095E+01  -5.45354033E+00  -7.36257601E+00   7.29369812E+01  -1.75860977E+01   7.19444733E+01  -1.93769228E+00   6.20585594E+01  -7.36257601E+00   1.54065695E+01
             3489                1   3.10159092E+01   4.27999725E+01   4.27999725E+01   9.29515171E+00   1.50905151E+01   4.27999725E+01   4.27999725E+01   1.50905151E+01   9.29515171E+00   3.35048180E+01  -2.23952122E+01   2.97609596E+01   1.47247763E+01   3.73703461E+01   1.50905151E+01   1.23465700E+01
             3489                2   3.18877945E+01   4.33370056E+01   4.33370056E+01   8.75811863E+00   1.50905151E+01   4.33370056E+01   4.33370056E+01   1.50905151E+01   8.75811863E+00   3.45788879E+01  -2.23952122E+01   3.04245338E+01   1.43917284E+01   3.77033958E+01   1.50905151E+01   1.27697449E+01
             3489                3   3.09603443E+01   4.27656746E+01   4.27656746E+01   9.32944775E+00   1.50905151E+01   4.27656746E+01   4.27656746E+01   1.50905151E+01   9.32944775E+00   3.34362259E+01  -2.23952122E+01   2.97182961E+01   1.51494446E+01   3.69456787E+01   1.50905151E+01   1.26777906E+01
             3489                4   3.18348827E+01   4.33044739E+01   4.33044739E+01   8.79065037E+00   1.50905151E+01   4.33044739E+01   4.33044739E+01   1.50905151E+01   8.79065037E+00   3.45138245E+01  -2.23952122E+01   3.03845711E+01   1.48166018E+01   3.72785225E+01   1.50905151E+01   1.31021566E+01
             3490                1   5.98893852E+01   5.32794571E+01   5.32794571E+01  -4.76186943E+00  -8.30102158E+00   5.32794571E+01   5.32794571E+01  -4.76186943E+00  -8.30102158E+00   6.15804787E+01  -1.34055223E+01   5.96534233E+01  -5.21882236E-01   4.90394707E+01  -8.30102158E+00   1.51035442E+01
             3490                2   6.06825867E+01   5.38236084E+01   5.38236084E+01  -5.30601883E+00  -8.30102158E+00   5.38236084E+01   5.38236084E+01  -5.30601883E+00  -8.30102158E+00   6.21246300E+01  -1.34055223E+01   6.05159569E+01  -1.15974557E+00   4.96773338E+01  -8.30102158E+00   1.50988770E+01
             3490                3   6.02468529E+01   5.35250511E+01   5.35250511E+01  -5.00746346E+00  -8.30102158E+00   5.35250511E+01   5.35250511E+01  -5.00746346E+00  -8.30102158E+00   6.18260727E+01  -1.34055223E+01   6.00438004E+01  -4.84727323E-01   4.90023155E+01  -8.30102158E+00   1.56292048E+01
             3490                4   6.10392952E+01   5.40673714E+01   5.40673714E+01  -5.54978275E+00  -8.30102158E+00   5.40673714E+01   5.40673714E+01  -5.54978275E+00  -8.30102158E+00   6.23683929E+01  -1.34055223E+01   6.08995552E+01  -1.12000072E+00   4.96375885E+01  -8.30102158E+00   1.56354761E+01
             3491                1   8.55106430E+01   8.47636642E+01   8.47636642E+01  -7.52821088E-01  -7.41130888E-01   8.47636642E+01   8.47636642E+01  -7.41130888E-01  -7.52821088E-01   8.55164871E+01  -2.77565689E+01   8.55106430E+01   9.67098045E+00   7.43398590E+01  -7.41130888E-01   2.79776936E+01
             3491                2   8.41991730E+01   8.38871307E+01   8.38871307E+01   1.23708911E-01  -7.41130888E-01   8.38871307E+01   8.38871307E+01   1.23708911E-01  -7.41130888E-01   8.46282654E+01  -2.77565689E+01   8.41891861E+01   9.59146309E+00   7.44193802E+01  -7.41130888E-01   2.65219345E+01
             3491                3   8.68509369E+01   8.56548462E+01   8.56548462E+01  -1.64400637E+00  -7.41130888E-01   8.56548462E+01   8.56548462E+01  -7.41130888E-01  -1.64400637E+00   8.72988510E+01  -2.77565689E+01   8.68403778E+01   8.42283630E+00   7.55880051E+01  -7.41130888E-01   2.78833733E+01
             3491                4   8.54362640E+01   8.47140732E+01   8.47140732E+01  -7.03235328E-01  -7.41130888E-01   8.47140732E+01   8.47140732E+01  -7.03235328E-01  -7.41130888E-01   8.54552078E+01  -2.77565689E+01   8.54362488E+01   8.30951691E+00   7.57013245E+01  -7.41130888E-01   2.62414818E+01
             3492                1   1.31811249E+02   1.42101242E+02   1.42101242E+02   9.93974626E-01   2.21435547E+01   1.42101242E+02   1.42101242E+02   2.21435547E+01   9.93974626E-01   1.41107269E+02  -5.50795898E+01   1.27910057E+02   4.89268494E+01   9.41683578E+01   2.21435547E+01   6.68290100E+01
             3492                2   1.30048050E+02   1.41001999E+02   1.41001999E+02   2.09322119E+00   2.21435547E+01   1.41001999E+02   1.41001999E+02   2.21435547E+01   2.09322119E+00   1.38908768E+02  -5.50795898E+01   1.26500389E+02   5.13998604E+01   9.16953506E+01   2.21435547E+01   6.64678879E+01
             3492                3   1.28393570E+02   1.39968231E+02   1.39968231E+02   3.12697864E+00   2.21435547E+01   1.39968231E+02   1.39968231E+02   2.21435547E+01   3.12697864E+00   1.36841263E+02  -5.50795898E+01   1.25166275E+02   4.85440941E+01   9.45511169E+01   2.21435547E+01   6.44377289E+01
             3492                4   1.26625031E+02   1.38860657E+02   1.38860657E+02   4.23456001E+00   2.21435547E+01   1.38860657E+02   1.38860657E+02   2.21435547E+01   4.23456001E+00   1.34626099E+02  -5.50795898E+01   1.23727570E+02   5.09822731E+01   9.21129379E+01   2.21435547E+01   6.40945663E+01
             3493                1   1.46783691E+02   1.72813736E+02   1.72813736E+02   2.48429756E+01   2.72466278E+01   1.72813736E+02   1.72813736E+02   2.72466278E+01   2.48429756E+01   1.47970764E+02  -7.49677811E+01   1.46739395E+02   2.54010239E+01   1.72255676E+02   2.72466278E+01   9.06998634E+00
             3493                2   1.47642609E+02   1.73381226E+02   1.73381226E+02   2.42754631E+01   2.72466278E+01   1.73381226E+02   1.73381226E+02   2.72466278E+01   2.42754631E+01   1.49105774E+02  -7.49677734E+01   1.47575317E+02   2.46925945E+01   1.72964096E+02   2.72466278E+01   7.87547112E+00
             3493                3   1.48762161E+02   1.74119415E+02   1.74119415E+02   2.35372734E+01   2.72466278E+01   1.74119415E+02   1.74119415E+02   2.72466278E+01   2.35372734E+01   1.50582138E+02  -7.49677734E+01   1.48658051E+02   2.41879387E+01   1.73468750E+02   2.72466278E+01   9.87702847E+00
             3493                4   1.49547699E+02   1.74636383E+02   1.74636383E+02   2.30203171E+01   2.72466278E+01   1.74636383E+02   1.74636383E+02   2.72466278E+01   2.30203171E+01   1.51616058E+02  -7.49677734E+01   1.49413254E+02   2.35162716E+01   1.74140427E+02   2.72466278E+01   8.65724659E+00
             3494                1   4.73730316E+01   4.68512802E+01   4.68512802E+01  -2.11520791E-01  -8.26008797E-01   4.68512802E+01   4.68512802E+01  -2.11520791E-01  -8.26008797E-01   4.76772881E+01  -1.52712507E+01   4.73640671E+01   1.34992766E+00   4.52898331E+01  -8.26008797E-01   8.42899418E+00
             3494                2   4.76698494E+01   4.70502434E+01   4.70502434E+01  -4.10485059E-01  -8.26008797E-01   4.70502434E+01   4.70502434E+01  -4.10485059E-01  -8.26008797E-01   4.78762512E+01  -1.52712507E+01   4.76657715E+01   1.21103954E+00   4.54287186E+01  -8.26008797E-01   8.62145233E+00
             3494                3   4.71984787E+01   4.67340660E+01   4.67340660E+01  -9.43078175E-02  -8.26008797E-01   4.67340660E+01   4.67340660E+01  -9.43078175E-02  -8.26008797E-01   4.75600739E+01  -1.52712507E+01   4.71857147E+01   1.51447713E+00   4.51252823E+01  -8.26008797E-01   8.52927780E+00
             3494                4   4.74801331E+01   4.69231224E+01   4.69231224E+01  -2.83363134E-01  -8.26008797E-01   4.69231224E+01   4.69231224E+01  -2.83363134E-01  -8.26008797E-01   4.77491302E+01  -1.52712507E+01   4.74731560E+01   1.39090788E+00   4.52488518E+01  -8.26008797E-01   8.73116493E+00
             3495                1   7.81310349E+01   7.45090256E+01   7.45090256E+01  -3.13408065E+00  -4.10096216E+00   7.45090256E+01   7.45090256E+01  -3.13408065E+00  -4.10096216E+00   7.86099930E+01  -2.24246616E+01   7.81175690E+01   5.23556185E+00   6.61393814E+01  -4.10096216E+00   2.40789165E+01
             3495                2   7.93064041E+01   7.52954865E+01   7.52954865E+01  -3.92055130E+00  -4.10096216E+00   7.52954865E+01   7.52954865E+01  -3.92055130E+00  -4.10096216E+00   7.93964539E+01  -2.24246597E+01   7.93059387E+01   5.34819078E+00   6.60267487E+01  -4.10096216E+00   2.54621964E+01
             3495                3   7.66441803E+01   7.35081482E+01   7.35081482E+01  -2.13320708E+00  -4.10096216E+00   7.35081482E+01   7.35081482E+01  -2.13320708E+00  -4.10096216E+00   7.76091080E+01  -2.24246597E+01   7.65873108E+01   6.51358795E+00   6.48613510E+01  -4.10096216E+00   2.40684071E+01
             3495                4   7.77954636E+01   7.42837296E+01   7.42837296E+01  -2.90879297E+00  -4.10096216E+00   7.42837296E+01   7.42837296E+01  -2.90879297E+00  -4.10096216E+00   7.83846970E+01  -2.24246597E+01   7.77749023E+01   6.56453753E+00   6.48104019E+01  -4.10096216E+00   2.53283691E+01
             3496                1   3.92100449E+01   3.49098816E+01   3.49098816E+01  -1.37339413E+00  -6.68534136E+00   3.49098816E+01   3.49098816E+01  -1.37339413E+00  -6.68534136E+00   4.15952225E+01  -8.95038223E+00   3.83880043E+01   3.60772222E-01   3.31757164E+01  -6.68534136E+00   7.74040508E+00
             3496                2   3.97100296E+01   3.52688370E+01   3.52688370E+01  -1.73234665E+00  -6.68534136E+00   3.52688370E+01   3.52688370E+01  -1.73234665E+00  -6.68534136E+00   4.19541779E+01  -8.95038319E+00   3.90060043E+01  -1.70781892E-02   3.35535698E+01  -6.68534136E+00   7.77976942E+00
             3496                3   3.93744774E+01   3.50282059E+01   3.50282059E+01  -1.49171913E+00  -6.68534136E+00   3.50282059E+01   3.50282059E+01  -1.49171913E+00  -6.68534136E+00   4.17135468E+01  -8.95038223E+00   3.85925674E+01   4.17095780E-01   3.31193924E+01  -6.68534136E+00   8.12811089E+00
             3496                4   3.98715248E+01   3.53842583E+01   3.53842583E+01  -1.84776664E+00  -6.68534136E+00   3.53842583E+01   3.53842583E+01  -1.84776664E+00  -6.68534136E+00   4.20695992E+01  -8.95038319E+00   3.92031212E+01   3.95238698E-02   3.34969673E+01  -6.68534136E+00   8.16736126E+00
             3497                1   4.80090981E+01   4.08249893E+01   4.08249893E+01  -4.09379339E+00  -9.76980114E+00   4.08249893E+01   4.08249893E+01  -4.09379339E+00  -9.76980114E+00   5.05947914E+01  -8.98713207E+00   4.72453766E+01   1.98153460E+00   3.47496643E+01  -9.76980114E+00   1.53618584E+01
             3497                2   4.72352753E+01   4.02712326E+01   4.02712326E+01  -3.54003501E+00  -9.76980114E+00   4.02712326E+01   4.02712326E+01  -3.54003501E+00  -9.76980114E+00   5.00410347E+01  -8.98713207E+00   4.62974854E+01   2.67998290E+00   3.40512161E+01  -9.76980114E+00   1.52911158E+01
             3497                3   4.74335938E+01   4.04136162E+01   4.04136162E+01  -3.68241501E+00  -9.76980114E+00   4.04136162E+01   4.04136162E+01  -3.68241501E+00  -9.76980114E+00   5.01834183E+01  -8.98713303E+00   4.65426216E+01   1.84279859E+00   3.48884010E+01  -9.76980114E+00   1.45983582E+01
             3497                4   4.66659813E+01   3.98606606E+01   3.98606606E+01  -3.12946224E+00  -9.76980114E+00   3.98606606E+01   3.98606606E+01  -3.12946224E+00  -9.76980114E+00   4.96304626E+01  -8.98713207E+00   4.55848808E+01   2.53755593E+00   3.41936417E+01  -9.76980114E+00   1.45434074E+01
             3498                1   1.56599030E+02   1.84232666E+02   1.84232666E+02   2.47624550E+01   3.06721210E+01   1.84232666E+02   1.84232666E+02   3.06721210E+01   2.47624550E+01   1.59470215E+02  -7.98890762E+01   1.56347839E+02   2.60163288E+01   1.82978790E+02   3.06721210E+01   1.40848513E+01
             3498                2   1.55436707E+02   1.83470917E+02   1.83470917E+02   2.55241833E+01   3.06721210E+01   1.83470917E+02   1.83470917E+02   3.06721210E+01   2.55241833E+01   1.57946732E+02  -7.98890762E+01   1.55244736E+02   2.67972622E+01   1.82197845E+02   3.06721210E+01   1.41229286E+01
             3498                3   1.57111099E+02   1.84567734E+02   1.84567734E+02   2.44273777E+01   3.06721210E+01   1.84567734E+02   1.84567734E+02   3.06721210E+01   2.44273777E+01   1.60140366E+02  -7.98890762E+01   1.56831497E+02   2.55782642E+01   1.83416855E+02   3.06721210E+01   1.35269508E+01
             3498                4   1.56097534E+02   1.83904205E+02   1.83904205E+02   2.50909138E+01   3.06721210E+01   1.83904205E+02   1.83904205E+02   3.06721210E+01   2.50909138E+01   1.58813293E+02  -7.98890762E+01   1.55872803E+02   2.62441692E+01   1.82750946E+02   3.06721210E+01   1.34841652E+01
             3499                1   2.04172134E+02   2.05853851E+02   2.05853851E+02  -2.95806706E-01   3.71843529E+00   2.05853851E+02   2.05853851E+02   3.71843529E+00  -2.95806706E-01   2.06149658E+02  -6.97588272E+01   2.04083328E+02  -2.92602688E-01   2.05850647E+02   3.71843529E+00   8.12729597E-01
             3499                2   2.04269272E+02   2.05917984E+02   2.05917984E+02  -3.59847516E-01   3.71833658E+00   2.05917984E+02   2.05917984E+02   3.71833658E+00  -3.59847516E-01   2.06277832E+02  -6.97588272E+01   2.04177643E+02  -3.47980320E-01   2.05906113E+02   3.71833658E+00   1.56478286E+00
             3499                3   2.03060593E+02   2.05119293E+02   2.05119293E+02   4.38063443E-01   3.71911454E+00   2.05119293E+02   2.05119293E+02   3.71911454E+00   4.38063443E-01   2.04681229E+02  -6.97588272E+01   2.03000931E+02   4.41724807E-01   2.05115631E+02   3.71911454E+00   8.65899265E-01
             3499                4   2.03153137E+02   2.05180496E+02   2.05180496E+02   3.76947492E-01   3.71901894E+00   2.05180496E+02   2.05180496E+02   3.71901894E+00   3.76947492E-01   2.04803558E+02  -6.97588272E+01   2.03091263E+02   3.89743328E-01   2.05167709E+02   3.71901894E+00   1.61857581E+00
             3500                1   5.13347092E+01   4.65676880E+01   4.65676880E+01  -3.53521848E+00  -5.91597795E+00   4.65676880E+01   4.65676880E+01  -3.53521848E+00  -5.91597795E+00   5.24836655E+01  -1.23721647E+01   5.12102737E+01  -1.04050612E+00   4.40729752E+01  -5.91597795E+00   1.08981113E+01
             3500                2   5.08339806E+01   4.62249870E+01   4.62249870E+01  -3.19251561E+00  -5.91597795E+00   4.62249870E+01   4.62249870E+01  -3.19251561E+00  -5.91597795E+00   5.21409645E+01  -1.23721647E+01   5.06694450E+01  -6.39744639E-01   4.36722145E+01  -5.91597795E+00   1.09377766E+01
             3500                3   5.10583916E+01   4.63787460E+01   4.63787460E+01  -3.34627366E+00  -5.91597795E+00   4.63787460E+01   4.63787460E+01  -3.34627366E+00  -5.91597795E+00   5.22947235E+01  -1.23721647E+01   5.09125938E+01  -1.01738203E+00   4.40498543E+01  -5.91597795E+00   1.05062065E+01
             3500                4   5.05519714E+01   4.60313683E+01   4.60313683E+01  -2.99889827E+00  -5.91597795E+00   4.60313683E+01   4.60313683E+01  -2.99889827E+00  -5.91597795E+00   5.19473457E+01  -1.23721647E+01   5.03620834E+01  -6.16934597E-01   4.36494064E+01  -5.91597795E+00   1.05410872E+01
             3501                1   1.12016754E+02   1.22380302E+02   1.22380302E+02   9.31719303E+00   1.14400816E+01   1.22380302E+02   1.22380302E+02   1.14400816E+01   9.31719303E+00   1.13063110E+02  -4.77125244E+01   1.11971489E+02   1.29660320E+01   1.18731468E+02   1.14400816E+01   1.99808617E+01
             3501                2   1.11642555E+02   1.22133018E+02   1.22133018E+02   9.56447697E+00   1.14400816E+01   1.22133018E+02   1.22133018E+02   1.14400816E+01   9.56447697E+00   1.12568542E+02  -4.77125244E+01   1.11607109E+02   1.32496777E+01   1.18447823E+02   1.14400816E+01   2.00313950E+01
             3501                3   1.11872894E+02   1.22285263E+02   1.22285263E+02   9.41222763E+00   1.14400816E+01   1.22285263E+02   1.22285263E+02   1.14400816E+01   9.41222763E+00   1.12873039E+02  -4.77125244E+01   1.11831535E+02   1.29654570E+01   1.18732040E+02   1.14400816E+01   1.97088318E+01
             3501                4   1.11505966E+02   1.22042686E+02   1.22042686E+02   9.65480518E+00   1.14400816E+01   1.22042686E+02   1.22042686E+02   1.14400816E+01   9.65480518E+00   1.12387886E+02  -4.77125244E+01   1.11473816E+02   1.32453127E+01   1.18452187E+02   1.14400816E+01   1.97645569E+01
             3502                1   3.97409058E+01   4.47653084E+01   4.47653084E+01   4.83657122E+00   5.21493149E+00   4.47653084E+01   4.47653084E+01   5.21493149E+00   4.83657122E+00   3.99287376E+01  -1.82722702E+01   3.97368546E+01   5.94585371E+00   4.36560249E+01   5.21493149E+00   6.56214523E+00
             3502                2   3.96748962E+01   4.47214966E+01   4.47214966E+01   4.88038349E+00   5.21493149E+00   4.47214966E+01   4.47214966E+01   5.21493149E+00   4.88038349E+00   3.98411102E+01  -1.82722702E+01   3.96717224E+01   6.06500387E+00   4.35368767E+01   5.21493149E+00   6.76706791E+00
             3502                3   3.93875237E+01   4.45304871E+01   4.45304871E+01   5.07139158E+00   5.21493149E+00   4.45304871E+01   4.45304871E+01   5.21493149E+00   5.07139158E+00   3.94590950E+01  -1.82722702E+01   3.93869324E+01   6.15159893E+00   4.34502792E+01   5.21493149E+00   6.43872595E+00
             3502                4   3.93207703E+01   4.44860535E+01   4.44860535E+01   5.11582470E+00   5.21493149E+00   4.44860535E+01   4.44860535E+01   5.21493149E+00   5.11582470E+00   3.93702278E+01  -1.82722702E+01   3.93204880E+01   6.27076101E+00   4.33311195E+01   5.21493149E+00   6.64350605E+00
             3503                1   1.58555954E+02   1.87338455E+02   1.87338455E+02   2.38418617E+01   3.42344398E+01   1.87338455E+02   1.87338455E+02   3.42344398E+01   2.38418617E+01   1.63496597E+02  -8.18049164E+01   1.57786926E+02   2.77877216E+01   1.83392593E+02   3.42344398E+01   2.50911255E+01
             3503                2   1.54184189E+02   1.84501770E+02   1.84501770E+02   2.66785450E+01   3.42344398E+01   1.84501770E+02   1.84501770E+02   3.42344398E+01   2.66785450E+01   1.57823227E+02  -8.18049164E+01   1.53766815E+02   3.02427216E+01   1.80937592E+02   3.42344398E+01   2.34479523E+01
             3503                3   1.59913513E+02   1.88215210E+02   1.88215210E+02   2.29651222E+01   3.42344398E+01   1.88215210E+02   1.88215210E+02   3.42344398E+01   2.29651222E+01   1.65250076E+02  -8.18049240E+01   1.59016449E+02   2.60911350E+01   1.85089188E+02   3.42344398E+01   2.25122795E+01
             3503                4   1.55986328E+02   1.85673660E+02   1.85673660E+02   2.55066738E+01   3.42344398E+01   1.85673660E+02   1.85673660E+02   3.42344398E+01   2.55066738E+01   1.60166977E+02  -8.18049240E+01   1.55435547E+02   2.83624973E+01   1.82817825E+02   3.42344398E+01   2.11956100E+01
             3504                1   4.77389221E+01   4.40029449E+01   4.40029449E+01  -2.56712127E+00  -4.82472038E+00   4.40029449E+01   4.40029449E+01  -2.56712127E+00  -4.82472038E+00   4.88276672E+01  -1.22037020E+01   4.76185913E+01  -3.97586793E-01   4.18334122E+01  -4.82472038E+00   9.81470776E+00
             3504                2   4.73058281E+01   4.37064247E+01   4.37064247E+01  -2.27060103E+00  -4.82472038E+00   4.37064247E+01   4.37064247E+01  -2.27060103E+00  -4.82472038E+00   4.85311470E+01  -1.22037020E+01   4.71503181E+01  -5.47457971E-02   4.14905701E+01  -4.82472038E+00   9.84725666E+00
             3504                3   4.74793091E+01   4.38253326E+01   4.38253326E+01  -2.38950872E+00  -4.82472038E+00   4.38253326E+01   4.38253326E+01  -2.38950872E+00  -4.82472038E+00   4.86500549E+01  -1.22037020E+01   4.73384895E+01  -3.66639614E-01   4.18024635E+01  -4.82472038E+00   9.45487404E+00
             3504                4   4.70461540E+01   4.35281029E+01   4.35281029E+01  -2.09228230E+00  -4.82472038E+00   4.35281029E+01   4.35281029E+01  -2.09228230E+00  -4.82472038E+00   4.83528252E+01  -1.22037001E+01   4.68671303E+01  -2.40348242E-02   4.14598579E+01  -4.82472038E+00   9.49086571E+00
             3505                1   1.09929665E+02   1.18772987E+02   1.18772987E+02   8.18663883E+00   9.51199722E+00   1.18772987E+02   1.18772987E+02   9.51199722E+00   8.18663883E+00   1.10586349E+02  -4.54905396E+01   1.09911682E+02   1.09587746E+01   1.16000847E+02   9.51199722E+00   1.72880325E+01
             3505                2   1.09857048E+02   1.18724861E+02   1.18724861E+02   8.23476696E+00   9.51199722E+00   1.18724861E+02   1.18724861E+02   9.51199722E+00   8.23476696E+00   1.10490089E+02  -4.54905396E+01   1.09840340E+02   1.09237881E+01   1.16035835E+02   9.51199722E+00   1.70258503E+01
             3505                3   1.10299843E+02   1.19018181E+02   1.19018181E+02   7.94144678E+00   9.51199722E+00   1.19018181E+02   1.19018181E+02   9.51199722E+00   7.94144678E+00   1.11076729E+02  -4.54905396E+01   1.10274681E+02   1.06987190E+01   1.16260902E+02   9.51199722E+00   1.72819748E+01
             3505                4   1.10207069E+02   1.18956749E+02   1.18956749E+02   8.00287247E+00   9.51199722E+00   1.18956749E+02   1.18956749E+02   9.51199722E+00   8.00287247E+00   1.10953880E+02  -4.54905396E+01   1.10183823E+02   1.06789322E+01   1.16280693E+02   9.51199722E+00   1.70222759E+01
             3506                1   2.03032654E+02   2.01916977E+02   2.01916977E+02  -2.93711567E+00   7.56156027E-01   2.01916977E+02   2.01916977E+02   7.56156027E-01  -2.93711567E+00   2.04854095E+02  -6.65786667E+01   2.02957062E+02  -2.86759806E+00   2.01847458E+02   7.56156027E-01   3.77304220E+00
             3506                2   2.01830185E+02   2.01121704E+02   2.01121704E+02  -2.14255476E+00   7.56870329E-01   2.01121704E+02   2.01121704E+02   7.56870329E-01  -2.14255476E+00   2.03264267E+02  -6.65786743E+01   2.01783310E+02  -2.06452179E+00   2.01043671E+02   7.56870329E-01   3.98205757E+00
             3506                3   2.02688339E+02   2.01689407E+02   2.01689407E+02  -2.70985341E+00   7.56453514E-01   2.01689407E+02   2.01689407E+02   7.56453514E-01  -2.70985341E+00   2.04399261E+02  -6.65786667E+01   2.02621628E+02  -2.66852856E+00   2.01648087E+02   7.56453514E-01   2.90586758E+00
             3506                4   2.01510513E+02   2.00910049E+02   2.00910049E+02  -1.93118322E+00   7.57150888E-01   2.00910049E+02   2.00910049E+02   7.57150888E-01  -1.93118322E+00   2.02841232E+02  -6.65786743E+01   2.01470154E+02  -1.88321137E+00   2.00862076E+02   7.57150888E-01   3.11910295E+00
             3507                1   3.24966965E+01   4.21784554E+01   4.21784554E+01   7.06438017E+00   1.31633797E+01   4.21784554E+01   4.21784554E+01   1.31633797E+01   7.06438017E+00   3.51140747E+01  -2.08020725E+01   3.11697731E+01   1.21591320E+01   3.70837059E+01   1.31633797E+01   1.23669310E+01
             3507                2   3.23243713E+01   4.20720940E+01   4.20720940E+01   7.17074013E+00   1.31633797E+01   4.20720940E+01   4.20720940E+01   1.31633797E+01   7.17074013E+00   3.49013557E+01  -2.08020725E+01   3.10374718E+01   1.25938072E+01   3.66490288E+01   1.31633797E+01   1.26436834E+01
             3507                3   3.16903782E+01   4.16800766E+01   4.16800766E+01   7.56276035E+00   1.31633797E+01   4.16800766E+01   4.16800766E+01   1.31633797E+01   7.56276035E+00   3.41173172E+01  -2.08020725E+01   3.05470352E+01   1.24357996E+01   3.68070374E+01   1.31633797E+01   1.19376917E+01
             3507                4   3.15137806E+01   4.15706711E+01   4.15706711E+01   7.67216349E+00   1.31633797E+01   4.15706711E+01   4.15706711E+01   1.31633797E+01   7.67216349E+00   3.38985100E+01  -2.08020725E+01   3.04093571E+01   1.28707848E+01   3.63720512E+01   1.31633797E+01   1.22147388E+01
             3508                1   3.84005394E+01   4.46373520E+01   4.46373520E+01   6.04991865E+00   6.42648029E+00   4.46373520E+01   4.46373520E+01   6.42648029E+00   6.04991865E+00   3.85874329E+01  -1.90379162E+01   3.83963852E+01   6.89862728E+00   4.37886429E+01   6.42648029E+00   5.65943623E+00
             3508                2   3.83500366E+01   4.46038399E+01   4.46038399E+01   6.08343124E+00   6.42648029E+00   4.46038399E+01   4.46038399E+01   6.42648029E+00   6.08343124E+00   3.85204086E+01  -1.90379162E+01   3.83465843E+01   7.00131178E+00   4.36859589E+01   6.42648029E+00   5.87491608E+00
             3508                3   3.80377922E+01   4.43963242E+01   4.43963242E+01   6.29094410E+00   6.42648029E+00   4.43963242E+01   4.43963242E+01   6.42648029E+00   6.29094410E+00   3.81053772E+01  -1.90379162E+01   3.80372505E+01   7.11846924E+00   4.35687981E+01   6.42648029E+00   5.55412960E+00
             3508                4   3.79844780E+01   4.43608360E+01   4.43608360E+01   6.32643318E+00   6.42648029E+00   4.43608360E+01   4.43608360E+01   6.42648029E+00   6.32643318E+00   3.80344009E+01  -1.90379162E+01   3.79841805E+01   7.22156096E+00   4.34657059E+01   6.42648029E+00   5.76579714E+00
             3509                1   2.62753086E+01   4.05586128E+01   4.05586128E+01   1.41993818E+01   1.43680401E+01   4.05586128E+01   4.05586128E+01   1.43680401E+01   1.41993818E+01   2.63592319E+01  -2.30420132E+01   2.62740898E+01   1.42155809E+01   4.05424156E+01   1.43680401E+01   6.53230608E-01
             3509                2   2.62826786E+01   4.05635109E+01   4.05635109E+01   1.41944838E+01   1.43680401E+01   4.05635109E+01   4.05635109E+01   1.43680401E+01   1.41944838E+01   2.63690281E+01  -2.30420132E+01   2.62813873E+01   1.42284966E+01   4.05294991E+01   1.43680401E+01   9.46424246E-01
             3509                3   2.58314171E+01   4.02628021E+01   4.02628021E+01   1.44951954E+01   1.43680401E+01   4.02628021E+01   4.02628021E+01   1.44951954E+01   1.43680401E+01   2.58947601E+01  -2.30420132E+01   2.58307114E+01   1.45110369E+01   4.02469597E+01   1.43680401E+01   6.38690054E-01
             3509                4   2.58361969E+01   4.02659950E+01   4.02659950E+01   1.44920006E+01   1.43680401E+01   4.02659950E+01   4.02659950E+01   1.44920006E+01   1.43680401E+01   2.58979549E+01  -2.30420132E+01   2.58355274E+01   1.45258408E+01   4.02321548E+01   1.43680401E+01   9.33300614E-01
             3510                1   8.92976379E+01   9.53079834E+01   9.53079834E+01   3.60761118E+00   8.62460613E+00   9.53079834E+01   9.53079834E+01   8.62460613E+00   3.60761118E+00   9.17003708E+01  -3.58467331E+01   8.89797211E+01   3.06288013E+01   6.82867966E+01   8.62460613E+00   4.18056030E+01
             3510                2   8.83873749E+01   9.47162399E+01   9.47162399E+01   4.19936657E+00   8.62460613E+00   9.47162399E+01   9.47162399E+01   8.62460613E+00   4.19936657E+00   9.05168686E+01  -3.58467369E+01   8.81376190E+01   3.17335205E+01   6.71820831E+01   8.62460613E+00   4.16434364E+01
             3510                3   8.79039764E+01   9.44013214E+01   9.44013214E+01   4.51428461E+00   8.62460613E+00   9.44013214E+01   9.44013214E+01   8.62460613E+00   4.51428461E+00   8.98870316E+01  -3.58467369E+01   8.76873779E+01   3.04122314E+01   6.85033722E+01   8.62460613E+00   4.07085495E+01
             3510                4   8.69624863E+01   9.37865906E+01   9.37865906E+01   5.12901354E+00   8.62460613E+00   9.37865906E+01   9.37865906E+01   8.62460613E+00   5.12901354E+00   8.86575775E+01  -3.58467369E+01   8.68042068E+01   3.15300179E+01   6.73855820E+01   8.62460613E+00   4.05417824E+01
             3511                1   4.78726883E+01   4.82886543E+01   4.82886543E+01   5.81597745E-01   2.52034247E-01   4.82886543E+01   4.82886543E+01   5.81597745E-01   2.52034247E-01   4.80366173E+01  -1.63740940E+01   4.78701363E+01   1.80677557E+00   4.70634766E+01   2.52034247E-01   7.54642296E+00
             3511                2   4.82171249E+01   4.85187912E+01   4.85187912E+01   3.51454884E-01   2.52034247E-01   4.85187912E+01   4.85187912E+01   3.51454884E-01   2.52034247E-01   4.82667580E+01  -1.63740940E+01   4.82168961E+01   1.62090850E+00   4.72493401E+01   2.52034247E-01   7.71586752E+00
             3511                3   4.76849937E+01   4.81630058E+01   4.81630058E+01   7.07244933E-01   2.52034247E-01   4.81630058E+01   4.81630058E+01   7.07244933E-01   2.52034247E-01   4.79109726E+01  -1.63740940E+01   4.76801071E+01   1.99090338E+00   4.68793488E+01   2.52034247E-01   7.69864559E+00
             3511                4   4.80299034E+01   4.83937683E+01   4.83937683E+01   4.76481438E-01   2.52034247E-01   4.83937683E+01   4.83937683E+01   4.76481438E-01   2.52034247E-01   4.81417351E+01  -1.63740940E+01   4.80287247E+01   1.80587745E+00   4.70643730E+01   2.52034247E-01   7.86980104E+00
             3512                1   3.88851013E+01   4.44638329E+01   4.44638329E+01   2.35244179E+00   9.91651344E+00   4.44638329E+01   4.44638329E+01   9.91651344E+00   2.35244179E+00   4.21113930E+01  -1.89109287E+01   3.71754227E+01   5.04120111E+00   4.17750740E+01   9.91651344E+00   1.02955341E+01
             3512                2   3.88914566E+01   4.44677467E+01   4.44677467E+01   2.34852815E+00   9.91651344E+00   4.44677467E+01   4.44677467E+01   9.91651344E+00   2.34852815E+00   4.21192207E+01  -1.89109287E+01   3.71802483E+01   5.40185404E+00   4.14144211E+01   9.91651344E+00   1.09215822E+01
             3512                3   3.77846947E+01   4.37850800E+01   4.37850800E+01   3.03119826E+00   9.91651344E+00   4.37850800E+01   4.37850800E+01   9.91651344E+00   3.03119826E+00   4.07538795E+01  -1.89109287E+01   3.63328438E+01   5.62188148E+00   4.11943932E+01   9.91651344E+00   9.94328022E+00
             3512                4   3.77888756E+01   4.37876625E+01   4.37876625E+01   3.02861357E+00   9.91651344E+00   4.37876625E+01   4.37876625E+01   9.91651344E+00   3.02861357E+00   4.07590485E+01  -1.89109287E+01   3.63360748E+01   5.98609829E+00   4.08301773E+01   9.91651344E+00   1.05734377E+01
             3513                1   1.26886742E+02   1.42594223E+02   1.42594223E+02   1.10469265E+01   2.09481373E+01   1.42594223E+02   1.42594223E+02   2.09481373E+01   1.10469265E+01   1.31547287E+02  -5.81964264E+01   1.26013206E+02   3.13082371E+01   1.22332901E+02   2.09481373E+01   4.74847336E+01
             3513                2   1.24802887E+02   1.41251495E+02   1.41251495E+02   1.23896484E+01   2.09481373E+01   1.41251495E+02   1.41251495E+02   2.09481373E+01   1.23896484E+01   1.28861847E+02  -5.81964264E+01   1.24140068E+02   3.16651993E+01   1.21975937E+02   2.09481373E+01   4.59601631E+01
             3513                3   1.28057373E+02   1.43346161E+02   1.43346161E+02   1.02949677E+01   2.09481373E+01   1.43346161E+02   1.43346161E+02   2.09481373E+01   1.02949677E+01   1.33051193E+02  -5.81964226E+01   1.27054688E+02   2.94950981E+01   1.24146034E+02   2.09481373E+01   4.67541962E+01
             3513                4   1.26045174E+02   1.42052612E+02   1.42052612E+02   1.15885296E+01   2.09481373E+01   1.42052612E+02   1.42052612E+02   2.09481373E+01   1.15885296E+01   1.30464081E+02  -5.81964264E+01   1.25259750E+02   2.95939636E+01   1.24047173E+02   2.09481373E+01   4.49985237E+01
             3514                1   5.04156113E+01   4.52414169E+01   4.52414169E+01  -3.64379811E+00  -6.57656145E+00   4.52414169E+01   4.52414169E+01  -3.64379811E+00  -6.57656145E+00   5.18179779E+01  -1.16736860E+01   5.02231522E+01  -9.41362858E-01   4.25389824E+01  -6.57656145E+00   1.11716566E+01
             3514                2   4.98676338E+01   4.48637924E+01   4.48637924E+01  -3.26616907E+00  -6.57656145E+00   4.48637924E+01   4.48637924E+01  -3.26616907E+00  -6.57656145E+00   5.14403534E+01  -1.16736870E+01   4.96195145E+01  -5.10560930E-01   4.21081810E+01  -6.57656145E+00   1.11818609E+01
             3514                3   5.01366196E+01   4.50493736E+01   4.50493736E+01  -3.45175219E+00  -6.57656145E+00   4.50493736E+01   4.50493736E+01  -3.45175219E+00  -6.57656145E+00   5.16259346E+01  -1.16736870E+01   4.99168205E+01  -9.41089690E-01   4.25387115E+01  -6.57656145E+00   1.07455359E+01
             3514                4   4.95841484E+01   4.46677361E+01   4.46677361E+01  -3.07011294E+00  -6.57656145E+00   4.46677361E+01   4.46677361E+01  -3.07011294E+00  -6.57656145E+00   5.12442970E+01  -1.16736870E+01   4.93040428E+01  -5.10203898E-01   4.21078262E+01  -6.57656145E+00   1.07541342E+01
             3515                1   1.98613739E+02   1.97828140E+02   1.97828140E+02  -1.88442111E+00   3.31794292E-01   1.97828140E+02   1.97828140E+02   3.31794292E-01  -1.88442111E+00   1.99712570E+02  -6.54251709E+01   1.98585922E+02  -1.81468463E+00   1.97758408E+02   3.31794292E-01   3.73134136E+00
             3515                2   1.98368622E+02   1.97665604E+02   1.97665604E+02  -1.72213614E+00   3.32060426E-01   1.97665604E+02   1.97665604E+02   3.32060426E-01  -1.72213614E+00   1.99387741E+02  -6.54251785E+01   1.98344681E+02  -1.67803884E+00   1.97621506E+02   3.32060426E-01   2.96485734E+00
             3515                3   1.99657135E+02   1.98519348E+02   1.98519348E+02  -2.57497191E+00   3.31141531E-01   1.98519348E+02   1.98519348E+02   3.31141531E-01  -2.57497191E+00   2.01094330E+02  -6.54251785E+01   1.99609528E+02  -2.51099944E+00   1.98455383E+02   3.31141531E-01   3.58608246E+00
             3515                4   1.99409622E+02   1.98355484E+02   1.98355484E+02  -2.41138434E+00   3.31411719E-01   1.98355484E+02   1.98355484E+02   3.31411719E-01  -2.41138434E+00   2.00766876E+02  -6.54251709E+01   1.99367188E+02  -2.37207222E+00   1.98316177E+02   3.31411719E-01   2.80916524E+00
             3516                1   3.91602402E+01   4.55873871E+01   4.55873871E+01   6.31113052E+00   6.54420137E+00   4.55873871E+01   4.55873871E+01   6.54420137E+00   6.31113052E+00   3.92762566E+01  -1.94809055E+01   3.91586800E+01   6.84562063E+00   4.50528984E+01   6.54420137E+00   4.55049753E+00
             3516                2   3.87664413E+01   4.53251953E+01   4.53251953E+01   6.57332516E+00   6.54420137E+00   4.53251953E+01   4.53251953E+01   6.57332516E+00   6.54420137E+00   3.87809944E+01  -1.94809074E+01   3.87664185E+01   7.09256649E+00   4.48059540E+01   6.54420137E+00   4.45555878E+00
             3516                3   3.92153320E+01   4.56240005E+01   4.56240005E+01   6.27452278E+00   6.54420137E+00   4.56240005E+01   4.56240005E+01   6.54420137E+00   6.27452278E+00   3.93494759E+01  -1.94809074E+01   3.92132454E+01   6.75634670E+00   4.51421738E+01   6.54420137E+00   4.32751751E+00
             3516                4   3.88220291E+01   4.53622589E+01   4.53622589E+01   6.53625774E+00   6.54420137E+00   4.53622589E+01   4.53622589E+01   6.54420137E+00   6.53625774E+00   3.88260002E+01  -1.94809055E+01   3.88220291E+01   7.00310278E+00   4.48954163E+01   6.54420137E+00   4.23175192E+00
             3517                1   2.00800034E+02   2.02786530E+02   2.02786530E+02   3.36567372E-01   3.67813921E+00   2.02786530E+02   2.02786530E+02   3.67813921E+00   3.36567372E-01   2.02449951E+02  -6.89337463E+01   2.00737442E+02   3.39231640E-01   2.02783859E+02   3.67813921E+00   7.34661639E-01
             3517                2   1.99755737E+02   2.02095444E+02   2.02095444E+02   1.02705801E+00   3.67874837E+00   2.02095444E+02   2.02095444E+02   3.67874837E+00   1.02705801E+00   2.01068375E+02  -6.89337463E+01   1.99716141E+02   1.02987182E+00   2.02092621E+02   3.67874837E+00   7.52826929E-01
             3517                3   2.00768005E+02   2.02765366E+02   2.02765366E+02   3.57718587E-01   3.67817020E+00   2.02765366E+02   2.02765366E+02   3.67817020E+00   3.57718587E-01   2.02407639E+02  -6.89337540E+01   2.00706207E+02   3.57720554E-01   2.02765350E+02   3.67817020E+00   4.13677655E-02
             3517                4   1.99724060E+02   2.02074448E+02   2.02074448E+02   1.04800236E+00   3.67877889E+00   2.02074448E+02   2.02074448E+02   3.67877889E+00   1.04800236E+00   2.01026443E+02  -6.89337387E+01   1.99685074E+02   1.04801905E+00   2.02074432E+02   3.67877889E+00   5.84813133E-02
             3518                1   5.07770424E+01   4.70201187E+01   4.70201187E+01  -2.89051771E+00  -4.58110523E+00   4.70201187E+01   4.70201187E+01  -2.89051771E+00  -4.58110523E+00   5.16012230E+01  -1.31828318E+01   5.07136612E+01  -7.43553936E-01   4.48731537E+01  -4.58110523E+00   1.01265450E+01
             3518                2   5.03807678E+01   4.67509460E+01   4.67509460E+01  -2.62134790E+00  -4.58110523E+00   4.67509460E+01   4.67509460E+01  -2.62134790E+00  -4.58110523E+00   5.13320503E+01  -1.31828308E+01   5.02948990E+01  -4.15053397E-01   4.45446510E+01  -4.58110523E+00   1.02010803E+01
             3518                3   5.04776039E+01   4.68167992E+01   4.68167992E+01  -2.68719745E+00  -4.58110523E+00   4.68167992E+01   4.68167992E+01  -2.68719745E+00  -4.58110523E+00   5.13979034E+01  -1.31828318E+01   5.03975677E+01  -6.77467763E-01   4.48070679E+01  -4.58110523E+00   9.76988506E+00
             3518                4   5.00772552E+01   4.65442276E+01   4.65442276E+01  -2.41462731E+00  -4.58110523E+00   4.65442276E+01   4.65442276E+01  -2.41462731E+00  -4.58110523E+00   5.11253319E+01  -1.31828318E+01   4.99716492E+01  -3.43147099E-01   4.44727478E+01  -4.58110523E+00   9.85526562E+00
             3519                1   3.24103699E+01   4.19480972E+01   4.19480972E+01   9.20863342E+00   9.87716103E+00   4.19480972E+01   4.19480972E+01   9.87716103E+00   9.20863342E+00   3.27394638E+01  -2.03446293E+01   3.23948555E+01   1.01573229E+01   4.09994087E+01   9.87716103E+00   5.49176979E+00
             3519                2   3.24070854E+01   4.19459267E+01   4.19459267E+01   9.21080303E+00   9.87716103E+00   4.19459267E+01   4.19459267E+01   9.87716103E+00   9.21080303E+00   3.27351227E+01  -2.03446293E+01   3.23916664E+01   1.02439003E+01   4.09128304E+01   9.87716103E+00   5.72287273E+00
             3519                3   3.20341568E+01   4.16993599E+01   4.16993599E+01   9.45737171E+00   9.87716103E+00   4.16993599E+01   4.16993599E+01   9.87716103E+00   9.45737171E+00   3.22419853E+01  -2.03446293E+01   3.20279694E+01   1.03891430E+01   4.07675896E+01   9.87716103E+00   5.40128946E+00
             3519                4   3.20306625E+01   4.16970444E+01   4.16970444E+01   9.45968437E+00   9.87716103E+00   4.16970444E+01   4.16970444E+01   9.87716103E+00   9.45968437E+00   3.22373619E+01  -2.03446293E+01   3.20245438E+01   1.04757719E+01   4.06809578E+01   9.87716103E+00   5.63236809E+00
             3520                1   6.93315048E+01   6.34027443E+01   6.34027443E+01  -4.46725273E+00  -7.30324173E+00   6.34027443E+01   6.34027443E+01  -4.46725273E+00  -7.30324173E+00   7.07059860E+01  -1.72107506E+01   6.92008286E+01   1.77853453E+00   5.71569595E+01  -7.30324173E+00   1.96186562E+01
             3520                2   7.00374222E+01   6.38825455E+01   6.38825455E+01  -4.94704771E+00  -7.30324173E+00   6.38825455E+01   6.38825455E+01  -4.94704771E+00  -7.30324173E+00   7.11857834E+01  -1.72107525E+01   6.99481659E+01   1.03598249E+00   5.78995132E+01  -7.30324173E+00   1.93910542E+01
             3520                3   7.00791931E+01   6.39108772E+01   6.39108772E+01  -4.97538185E+00  -7.30324173E+00   6.39108772E+01   6.39108772E+01  -4.97538185E+00  -7.30324173E+00   7.12141190E+01  -1.72107506E+01   6.99921188E+01   1.77030313E+00   5.71651917E+01  -7.30324173E+00   2.04739017E+01
             3520                4   7.06486206E+01   6.42964783E+01   6.42964783E+01  -5.36098242E+00  -7.30324173E+00   6.42964783E+01   6.42964783E+01  -5.36098242E+00  -7.30324173E+00   7.15997238E+01  -1.72107525E+01   7.05885086E+01   1.00703287E+00   5.79284630E+01  -7.30324173E+00   2.00755634E+01
             3521                1   5.23857346E+01   4.85656853E+01   4.85656853E+01  -3.08451533E+00  -4.52583551E+00   4.85656853E+01   4.85656853E+01  -3.08451533E+00  -4.52583551E+00   5.30915222E+01  -1.36517782E+01   5.23410950E+01  -9.94732916E-01   4.64759026E+01  -4.52583551E+00   1.01769609E+01
             3521                2   5.19802513E+01   4.82911148E+01   4.82911148E+01  -2.80994701E+00  -4.52583551E+00   4.82911148E+01   4.82911148E+01  -2.80994701E+00  -4.52583551E+00   5.28169479E+01  -1.36517763E+01   5.19164734E+01  -6.28669083E-01   4.61098366E+01  -4.52583551E+00   1.03299379E+01
             3521                3   5.20549583E+01   4.83417625E+01   4.83417625E+01  -2.86059213E+00  -4.52583551E+00   4.83417625E+01   4.83417625E+01  -2.86059213E+00  -4.52583551E+00   5.28675995E+01  -1.36517782E+01   5.19949760E+01  -9.03505266E-01   4.63846741E+01  -4.52583551E+00   9.81719685E+00
             3521                4   5.16499367E+01   4.80668411E+01   4.80668411E+01  -2.58567619E+00  -4.52583551E+00   4.80668411E+01   4.80668411E+01  -2.58567619E+00  -4.52583551E+00   5.25926781E+01  -1.36517763E+01   5.15678558E+01  -5.41505992E-01   4.60226746E+01  -4.52583551E+00   9.96813202E+00
             3522                1   1.01334503E+02   1.03575249E+02   1.03575249E+02   1.76269710E+00   2.72564983E+00   1.03575249E+02   1.03575249E+02   2.72564983E+00   1.76269710E+00   1.01812553E+02  -3.60211983E+01   1.01324211E+02   5.46208477E+00   9.98758621E+01   2.72564983E+00   1.90514660E+01
             3522                2   1.01687057E+02   1.03809052E+02   1.03809052E+02   1.52890182E+00   2.72564983E+00   1.03809052E+02   1.03809052E+02   2.72564983E+00   1.52890182E+00   1.02280151E+02  -3.60211983E+01   1.01671211E+02   5.47493553E+00   9.98630142E+01   2.72564983E+00   1.96984749E+01
             3522                3   1.00467957E+02   1.02999466E+02   1.02999466E+02   2.33847952E+00   2.72564983E+00   1.02999466E+02   1.02999466E+02   2.72564983E+00   2.33847952E+00   1.00660988E+02  -3.60211983E+01   1.00466286E+02   6.07600546E+00   9.92619400E+01   2.72564983E+00   1.90329666E+01
             3522                4   1.00832123E+02   1.03241631E+02   1.03241631E+02   2.09631276E+00   2.72564983E+00   1.03241631E+02   1.03241631E+02   2.72564983E+00   2.09631276E+00   1.01145317E+02  -3.60211983E+01   1.00827705E+02   6.08563519E+00   9.92523117E+01   2.72564983E+00   1.96872120E+01
             3523                1   2.03837173E+02   2.01288788E+02   2.01288788E+02  -4.80853653E+00  -2.10409895E-01   2.01288788E+02   2.01288788E+02  -2.10409895E-01  -4.80853653E+00   2.06097321E+02  -6.54232864E+01   2.03720413E+02  -4.70404387E+00   2.01184296E+02  -2.10409895E-01   4.63954878E+00
             3523                2   2.03013519E+02   2.00750549E+02   2.00750549E+02  -3.99030876E+00  -4.90384579E-01   2.00750549E+02   2.00750549E+02  -4.90384579E-01  -3.99030876E+00   2.04740860E+02  -6.54232864E+01   2.02945633E+02  -3.86107111E+00   2.00621307E+02  -4.90384579E-01   5.14237261E+00
             3523                3   2.03652878E+02   2.01171295E+02   2.01171295E+02  -4.49742222E+00  -4.04027402E-01   2.01171295E+02   2.01171295E+02  -4.04027402E-01  -4.49742222E+00   2.05668716E+02  -6.54232864E+01   2.03560287E+02  -4.44326115E+00   2.01117142E+02  -4.04027402E-01   3.33690286E+00
             3523                4   2.02782974E+02   2.00600906E+02   2.00600906E+02  -3.66013241E+00  -6.70926988E-01   2.00600906E+02   2.00600906E+02  -6.70926988E-01  -3.66013241E+00   2.04261047E+02  -6.54232864E+01   2.02733383E+02  -3.58864164E+00   2.00529419E+02  -6.70926988E-01   3.82077670E+00
             3524                1   1.91968399E+02   1.94141785E+02   1.94141785E+02   1.68699741E+00   2.66349959E+00   1.94141785E+02   1.94141785E+02   2.66349959E+00   1.68699741E+00   1.92454788E+02  -6.61640930E+01   1.91962814E+02   1.69382489E+00   1.94134949E+02   2.66349959E+00   1.14690447E+00
             3524                2   1.91894608E+02   1.94092712E+02   1.94092712E+02   1.73599112E+00   2.66357255E+00   1.94092712E+02   1.94092712E+02   2.66357255E+00   1.73599112E+00   1.92356720E+02  -6.61640930E+01   1.91889572E+02   1.73823762E+00   1.94090469E+02   2.66357255E+00   6.57041073E-01
             3524                3   1.92690979E+02   1.94621994E+02   1.94621994E+02   1.20718825E+00   2.66310549E+00   1.94621994E+02   1.94621994E+02   2.66310549E+00   1.20718825E+00   1.93414795E+02  -6.61640930E+01   1.92678589E+02   1.21337211E+00   1.94615799E+02   2.66310549E+00   1.09422660E+00
             3524                4   1.92616730E+02   1.94572678E+02   1.94572678E+02   1.25642693E+00   2.66317892E+00   1.94572678E+02   1.94572678E+02   2.66317892E+00   1.25642693E+00   1.93316254E+02  -6.61640930E+01   1.92605164E+02   1.25831711E+00   1.94570786E+02   2.66317892E+00   6.04309618E-01
             3525                1   2.05749542E+02   2.04093903E+02   2.04093903E+02  -4.16764879E+00   9.51911151E-01   2.04093903E+02   2.04093903E+02   9.51911151E-01  -4.16764879E+00   2.08261551E+02  -6.69593887E+01   2.05606171E+02  -4.01696205E+00   2.03943222E+02   9.51911151E-01   5.59985399E+00
             3525                2   2.05502823E+02   2.03937439E+02   2.03937439E+02  -3.74276304E+00   6.83490098E-01   2.03937439E+02   2.03937439E+02   6.83490098E-01  -3.74276304E+00   2.07680191E+02  -6.69593887E+01   2.05395538E+02  -3.66538334E+00   2.03860062E+02   6.83490098E-01   4.00785255E+00
             3525                3   2.06487274E+02   2.04567398E+02   2.04567398E+02  -5.06315184E+00   1.37392116E+00   2.04567398E+02   2.04567398E+02   1.37392116E+00  -5.06315184E+00   2.09630539E+02  -6.69593887E+01   2.06261337E+02  -4.94726896E+00   2.04451508E+02   1.37392116E+00   4.92746210E+00
             3525                4   2.06310257E+02   2.04459579E+02   2.04459579E+02  -4.66238880E+00   1.08097112E+00   2.04459579E+02   2.04459579E+02   1.08097112E+00  -4.66238880E+00   2.09121979E+02  -6.69593887E+01   2.06130264E+02  -4.60814953E+00   2.04405350E+02   1.08097112E+00   3.36730146E+00
             3526                1   5.09380379E+01   4.45110970E+01   4.45110970E+01  -3.76044202E+00  -8.72926998E+00   4.45110970E+01   4.45110970E+01  -3.76044202E+00  -8.72926998E+00   5.32403679E+01  -1.06737947E+01   5.03884773E+01   2.41913006E-01   4.05087433E+01  -8.72926998E+00   1.33109350E+01
             3526                2   5.16495590E+01   4.50099869E+01   4.50099869E+01  -4.25932789E+00  -8.72926998E+00   4.50099869E+01   4.50099869E+01  -4.25932789E+00  -8.72926998E+00   5.37392578E+01  -1.06737967E+01   5.12116737E+01  -3.45322549E-01   4.10959816E+01  -8.72926998E+00   1.33236990E+01
             3526                3   5.13701439E+01   4.48144646E+01   4.48144646E+01  -4.06380367E+00  -8.72926998E+00   4.48144646E+01   4.48144646E+01  -4.06380367E+00  -8.72926998E+00   5.35437317E+01  -1.06737967E+01   5.08902168E+01   2.83807933E-01   4.04668503E+01  -8.72926998E+00   1.39140959E+01
             3526                4   5.20706139E+01   4.53036995E+01   4.53036995E+01  -4.55304289E+00  -8.72926998E+00   4.53036995E+01   4.53036995E+01  -4.55304289E+00  -8.72926998E+00   5.40329704E+01  -1.06737947E+01   5.16918068E+01  -3.03896904E-01   4.10545540E+01  -8.72926998E+00   1.39209661E+01
             3527                1   2.01963867E+02   2.02163605E+02   2.02163605E+02  -1.53131127E+00   1.97649026E+00   2.02163605E+02   2.02163605E+02   1.97649026E+00  -1.53131127E+00   2.03694916E+02  -6.75362625E+01   2.01895309E+02  -1.48669708E+00   2.02118988E+02   1.97649026E+00   3.01434278E+00
             3527                2   2.00863251E+02   2.01435471E+02   2.01435471E+02  -8.03851187E-01   1.97717392E+00   2.01435471E+02   2.01435471E+02   1.97717392E+00  -8.03851187E-01   2.02239319E+02  -6.75362625E+01   2.00819931E+02  -7.54538238E-01   2.01386154E+02   1.97717392E+00   3.15782666E+00
             3527                3   2.01745255E+02   2.02019073E+02   2.02019073E+02  -1.38701284E+00   1.97672176E+00   2.02019073E+02   2.02019073E+02   1.97672176E+00  -1.38701284E+00   2.03406097E+02  -6.75362625E+01   2.01682144E+02  -1.36192918E+00   2.01993988E+02   1.97672176E+00   2.25892949E+00
             3527                4   2.00653641E+02   2.01296661E+02   2.01296661E+02  -6.65263534E-01   1.97739851E+00   2.01296661E+02   2.01296661E+02   1.97739851E+00  -6.65263534E-01   2.01961914E+02  -6.75362625E+01   2.00614471E+02  -6.36646390E-01   2.01268036E+02   1.97739851E+00   2.40406966E+00
             3528                1   5.02446404E+01   4.76073341E+01   4.76073341E+01  -1.99303436E+00  -3.25770020E+00   4.76073341E+01   4.76073341E+01  -1.99303436E+00  -3.25770020E+00   5.08650360E+01  -1.41188660E+01   5.02088127E+01  -8.28215927E-02   4.56971207E+01  -3.25770020E+00   9.54454708E+00
             3528                2   4.99291992E+01   4.73940620E+01   4.73940620E+01  -1.77976096E+00  -3.25770020E+00   4.73940620E+01   4.73940620E+01  -1.77976096E+00  -3.25770020E+00   5.06517601E+01  -1.41188660E+01   4.98799515E+01   7.30440393E-02   4.55412560E+01  -3.25770020E+00   9.36357880E+00
             3528                3   5.04529877E+01   4.77479324E+01   4.77479324E+01  -2.13363075E+00  -3.25770020E+00   4.77479324E+01   4.77479324E+01  -2.13363075E+00  -3.25770020E+00   5.10056305E+01  -1.41188660E+01   5.04248047E+01  -2.59026408E-01   4.58733253E+01  -3.25770020E+00   9.48652172E+00
             3528                4   5.02195129E+01   4.75903625E+01   4.75903625E+01  -1.97606277E+00  -3.25770020E+00   4.75903625E+01   4.75903625E+01  -1.97606277E+00  -3.25770020E+00   5.08480644E+01  -1.41188660E+01   5.01826973E+01  -1.61147892E-01   4.57754478E+01  -3.25770020E+00   9.30939960E+00
             3529                1   3.09335785E+01   4.23736916E+01   4.23736916E+01   1.13170214E+01   1.15646887E+01   4.23736916E+01   4.23736916E+01   1.15646887E+01   1.13170214E+01   3.10566692E+01  -2.17518005E+01   3.09313488E+01   1.15141191E+01   4.21765938E+01   1.15646887E+01   2.46623874E+00
             3529                2   3.05268822E+01   4.21030502E+01   4.21030502E+01   1.15876608E+01   1.15646887E+01   4.21030502E+01   4.21030502E+01   1.15876608E+01   1.15646887E+01   3.05383625E+01  -2.17518005E+01   3.05268593E+01   1.17823467E+01   4.19083633E+01   1.15646887E+01   2.42961764E+00
             3529                3   3.09304638E+01   4.23716240E+01   4.23716240E+01   1.13190889E+01   1.15646887E+01   4.23716240E+01   4.23716240E+01   1.15646887E+01   1.13190889E+01   3.10525341E+01  -2.17518005E+01   3.09282684E+01   1.14766750E+01   4.22140350E+01   1.15646887E+01   2.20649862E+00
             3529                4   3.05232029E+01   4.21005974E+01   4.21005974E+01   1.15901146E+01   1.15646887E+01   4.21005974E+01   4.21005974E+01   1.15901146E+01   1.15646887E+01   3.05359097E+01  -2.17518005E+01   3.05231781E+01   1.17453613E+01   4.19453506E+01   1.15646887E+01   2.17084146E+00
             3530                1   2.00979904E+02   2.02680481E+02   2.02680481E+02   3.43808755E-02   3.40929151E+00   2.02680481E+02   2.02680481E+02   3.40929151E+00   3.43808755E-02   2.02646103E+02  -6.87080460E+01   2.00916122E+02   4.57257144E-02   2.02669128E+02   3.40929151E+00   1.51652455E+00
             3530                2   1.99921402E+02   2.01980026E+02   2.01980026E+02   7.34204531E-01   3.40991187E+00   2.01980026E+02   2.01980026E+02   3.40991187E+00   7.34204531E-01   2.01245819E+02  -6.87080460E+01   1.99881104E+02   7.46477783E-01   2.01967758E+02   3.40991187E+00   1.57139099E+00
             3530                3   2.00893768E+02   2.02623520E+02   2.02623520E+02   9.12417024E-02   3.40938616E+00   2.02623520E+02   2.02623520E+02   3.40938616E+00   9.12417024E-02   2.02532288E+02  -6.87080536E+01   2.00832092E+02   9.44636911E-02   2.02620300E+02   3.40938616E+00   8.08238328E-01
             3530                4   1.99831711E+02   2.01920624E+02   2.01920624E+02   7.93518305E-01   3.41000819E+00   2.01920624E+02   2.01920624E+02   3.41000819E+00   7.93518305E-01   2.01127106E+02  -6.87080460E+01   1.99793167E+02   7.97210932E-01   2.01916931E+02   3.41000819E+00   8.61755490E-01
             3531                1   7.24558945E+01   6.88264618E+01   6.88264618E+01  -2.34172797E+00  -4.85191011E+00   6.88264618E+01   6.88264618E+01  -2.34172797E+00  -4.85191011E+00   7.36783752E+01  -2.05442753E+01   7.23579636E+01   7.08010578E+00   5.94046249E+01  -4.85191011E+00   2.41197834E+01
             3531                2   7.35585556E+01   6.95727386E+01   6.95727386E+01  -3.08800364E+00  -4.85191011E+00   6.95727386E+01   6.95727386E+01  -3.08800364E+00  -4.85191011E+00   7.44246445E+01  -2.05442753E+01   7.35109482E+01   5.76806402E+00   6.07166672E+01  -4.85191011E+00   2.37709599E+01
             3531                3   7.38989105E+01   6.98022537E+01   6.98022537E+01  -3.31751823E+00  -4.85191011E+00   6.98022537E+01   6.98022537E+01  -3.31751823E+00  -4.85191011E+00   7.46541595E+01  -2.05442753E+01   7.38630524E+01   7.02901173E+00   5.94557190E+01  -4.85191011E+00   2.54850006E+01
             3531                4   7.48197250E+01   7.04212875E+01   7.04212875E+01  -3.93655539E+00  -4.85191011E+00   7.04212875E+01   7.04212875E+01  -3.93655539E+00  -4.85191011E+00   7.52732010E+01  -2.05442753E+01   7.48071213E+01   5.78300285E+00   6.07017288E+01  -4.85191011E+00   2.50650291E+01
             3532                1   6.08377609E+01   6.16888657E+01   6.16888657E+01   1.66644466E+00   6.72940314E-02   6.16888657E+01   6.16888657E+01   1.66644466E+00   6.72940314E-02   6.16215706E+01  -2.11408672E+01   6.07904434E+01   2.46021042E+01   3.87532043E+01   6.72940314E-02   2.91652069E+01
             3532                2   6.16195679E+01   6.22159157E+01   6.22159157E+01   1.13939297E+00   6.72940314E-02   6.22159157E+01   6.22159157E+01   1.13939297E+00   6.72940314E-02   6.21486206E+01  -2.11408672E+01   6.15985756E+01   2.37943382E+01   3.95609703E+01   6.72940314E-02   2.95031986E+01
             3532                3   6.18908577E+01   6.23982430E+01   6.23982430E+01   9.57065821E-01   6.72940314E-02   6.23982430E+01   6.23982430E+01   9.57065821E-01   6.72940314E-02   6.23309479E+01  -2.11408672E+01   6.18764648E+01   2.49702816E+01   3.83850250E+01   6.72940314E-02   2.99794216E+01
             3532                4   6.25763779E+01   6.28577118E+01   6.28577118E+01   4.97595727E-01   6.72940314E-02   6.28577118E+01   6.28577118E+01   4.97595727E-01   6.72940314E-02   6.27904205E+01  -2.11408672E+01   6.25730438E+01   2.40083866E+01   3.93469200E+01   6.72940314E-02   3.02221508E+01
             3533                1   5.62236023E+01   4.97469826E+01   4.97469826E+01  -4.37812567E+00  -8.36307716E+00   4.97469826E+01   4.97469826E+01  -4.37812567E+00  -8.36307716E+00   5.81100616E+01  -1.23352613E+01   5.59045448E+01  -3.69582713E-01   4.57384415E+01  -8.36307716E+00   1.41737223E+01
             3533                2   5.69694901E+01   5.02620468E+01   5.02620468E+01  -4.89318895E+00  -8.36307716E+00   5.02620468E+01   5.02620468E+01  -4.89318895E+00  -8.36307716E+00   5.86251259E+01  -1.23352613E+01   5.67310028E+01  -9.81201828E-01   4.63500595E+01  -8.36307716E+00   1.41584940E+01
             3533                3   5.66633682E+01   5.00510139E+01   5.00510139E+01  -4.68215513E+00  -8.36307716E+00   5.00510139E+01   5.00510139E+01  -4.68215513E+00  -8.36307716E+00   5.84140892E+01  -1.23352613E+01   5.63934326E+01  -3.58836383E-01   4.57276955E+01  -8.36307716E+00   1.47627172E+01
             3533                4   5.74092140E+01   5.05643501E+01   5.05643501E+01  -5.19549179E+00  -8.36307716E+00   5.05643501E+01   5.05643501E+01  -5.19549179E+00  -8.36307716E+00   5.89274292E+01  -1.23352613E+01   5.72121010E+01  -9.65568721E-01   4.63344269E+01  -8.36307716E+00   1.47637262E+01
             3534                1   2.02701706E+02   2.18569351E+02   2.18569351E+02   1.66260958E+00   3.39478989E+01   2.18569351E+02   2.18569351E+02   3.39478989E+01   1.66260958E+00   2.16906738E+02  -8.47266235E+01   1.96792130E+02   1.88970602E+00   2.18342255E+02   3.39478989E+01   7.01483583E+00
             3534                2   2.01831955E+02   2.18139084E+02   2.18139084E+02   2.86954689E+00   3.31712036E+01   2.18139084E+02   2.18139084E+02   3.31712036E+01   2.86954689E+00   2.15269547E+02  -8.47266159E+01   1.96616623E+02   3.49155331E+00   2.17517090E+02   3.31712036E+01   1.15546827E+01
             3534                3   2.01388794E+02   2.17952255E+02   2.17952255E+02   3.71433616E+00   3.25132484E+01   2.17952255E+02   2.17952255E+02   3.25132484E+01   3.71433616E+00   2.14237930E+02  -8.47266159E+01   1.96676010E+02   3.80389953E+00   2.17862701E+02   3.25132484E+01   4.37934780E+00
             3534                4   2.00439941E+02   2.17469803E+02   2.17469803E+02   5.07004690E+00   3.16400051E+01   2.17469803E+02   2.17469803E+02   3.16400051E+01   5.07004690E+00   2.12399765E+02  -8.47266159E+01   1.96419327E+02   5.45205116E+00   2.17087799E+02   3.16400051E+01   8.99960613E+00
             3535                1   4.21319084E+01   4.75049515E+01   4.75049515E+01   5.28708220E+00   5.45953274E+00   4.75049515E+01   4.75049515E+01   5.45953274E+00   5.28708220E+00   4.22178688E+01  -1.94171886E+01   4.21311150E+01   5.49393463E+00   4.72980995E+01   5.45953274E+00   2.94789529E+00
             3535                2   4.20838432E+01   4.74729652E+01   4.74729652E+01   5.31906748E+00   5.45953274E+00   4.74729652E+01   4.74729652E+01   5.45953274E+00   5.31906748E+00   4.21539001E+01  -1.94171886E+01   4.20833130E+01   5.56022501E+00   4.72318077E+01   5.45953274E+00   3.17925048E+00
             3535                3   4.17543526E+01   4.72533836E+01   4.72533836E+01   5.53864527E+00   5.45953274E+00   4.72533836E+01   4.72533836E+01   5.53864527E+00   5.45953274E+00   4.17938538E+01  -1.94171886E+01   4.17541847E+01   5.73839378E+00   4.70536385E+01   5.45953274E+00   2.87966537E+00
             3535                4   4.17085571E+01   4.72228203E+01   4.72228203E+01   5.56921196E+00   5.45953274E+00   4.72228203E+01   4.72228203E+01   5.56921196E+00   5.45953274E+00   4.17632904E+01  -1.94171886E+01   4.17082329E+01   5.80319500E+00   4.69888382E+01   5.45953274E+00   3.11312175E+00
             3536                1   3.86483879E+01   4.59004097E+01   4.59004097E+01   3.82138777E+00   1.19878683E+01   4.59004097E+01   4.59004097E+01   1.19878683E+01   3.82138777E+00   4.20790215E+01  -2.05698891E+01   3.66309166E+01   7.77802753E+00   4.19437714E+01   1.19878683E+01   1.22815514E+01
             3536                2   3.84498520E+01   4.57788048E+01   4.57788048E+01   3.94299364E+00   1.19878683E+01   4.57788048E+01   4.57788048E+01   1.19878683E+01   3.94299364E+00   4.18358116E+01  -2.05698891E+01   3.64834747E+01   8.39904404E+00   4.13227539E+01   1.19878683E+01   1.29060488E+01
             3536                3   3.72930565E+01   4.50686302E+01   4.50686302E+01   4.65317011E+00   1.19878683E+01   4.50686302E+01   4.50686302E+01   1.19878683E+01   4.65317011E+00   4.04154625E+01  -2.05698910E+01   3.56155968E+01   8.36922264E+00   4.13525772E+01   1.19878683E+01   1.16780558E+01
             3536                4   3.70857849E+01   4.49410744E+01   4.49410744E+01   4.78072262E+00   1.19878683E+01   4.49410744E+01   4.49410744E+01   1.19878683E+01   4.78072262E+00   4.01603546E+01  -2.05698891E+01   3.54584465E+01   8.99412918E+00   4.07276688E+01   1.19878683E+01   1.23068724E+01
             3537                1   2.86190720E+01   4.13745613E+01   4.13745613E+01   1.26135044E+01   1.28996239E+01   4.13745613E+01   4.13745613E+01   1.28996239E+01   1.26135044E+01   2.87610588E+01  -2.22958984E+01   2.86158466E+01   1.28273144E+01   4.11607513E+01   1.28996239E+01   2.47056937E+00
             3537                2   2.82006817E+01   4.10963516E+01   4.10963516E+01   1.28917160E+01   1.28996239E+01   4.10963516E+01   4.10963516E+01   1.28996239E+01   1.28917160E+01   2.82046356E+01  -2.22958984E+01   2.82006741E+01   1.31039181E+01   4.08841476E+01   1.28996239E+01   2.43722844E+00
             3537                3   2.86071434E+01   4.13666496E+01   4.13666496E+01   1.26214180E+01   1.28996239E+01   4.13666496E+01   4.13666496E+01   1.28996239E+01   1.26214180E+01   2.87452316E+01  -2.22958984E+01   2.86040955E+01   1.27908545E+01   4.11972122E+01   1.28996239E+01   2.20041275E+00
             3537                4   2.81888847E+01   4.10884857E+01   4.10884857E+01   1.28995810E+01   1.28996239E+01   4.10884857E+01   4.10884857E+01   1.28996239E+01   1.28995810E+01   2.81889057E+01  -2.22958984E+01   2.81888790E+01   1.30672674E+01   4.09207993E+01   1.28996239E+01   2.16767263E+00
             3538                1   2.11684128E+02   2.13897720E+02   2.13897720E+02  -1.36058855E+00   5.97864914E+00   2.13897720E+02   2.13897720E+02   5.97864914E+00  -1.36058855E+00   2.15258301E+02  -7.28385925E+01   2.11397583E+02  -1.34686685E+00   2.13883987E+02   5.97864914E+00   1.71883833E+00
             3538                2   2.11197296E+02   2.13589096E+02   2.13589096E+02  -7.10002720E-01   5.63666677E+00   2.13589096E+02   2.13589096E+02   5.63666677E+00  -7.10002720E-01   2.14299088E+02  -7.28385849E+01   2.10982574E+02  -6.92802548E-01   2.13571899E+02   5.63666677E+00   1.91939461E+00
             3538                3   2.11643631E+02   2.13874557E+02   2.13874557E+02  -1.23620486E+00   5.87742376E+00   2.13874557E+02   2.13874557E+02   5.87742376E+00  -1.23620486E+00   2.15110764E+02  -7.28385925E+01   2.11374390E+02  -1.23402905E+00   2.13872375E+02   5.87742376E+00   6.84916735E-01
             3538                4   2.11137222E+02   2.13552414E+02   2.13552414E+02  -5.77294409E-01   5.54065037E+00   2.13552414E+02   2.13552414E+02   5.54065037E+00  -5.77294409E-01   2.14129700E+02  -7.28385849E+01   2.10937653E+02  -5.73696971E-01   2.13548813E+02   5.54065037E+00   8.77307415E-01
             3539                1   2.02112640E+02   2.23121857E+02   2.23121857E+02   7.16073751E+00   3.85246124E+01   2.23121857E+02   2.23121857E+02   3.85246124E+01   7.16073751E+00   2.15961121E+02  -8.96023941E+01   1.96525574E+02   7.82508802E+00   2.22457504E+02   3.85246124E+01   1.19596233E+01
             3539                2   2.02846344E+02   2.23450729E+02   2.23450729E+02   5.97451258E+00   3.93819618E+01   2.23450729E+02   2.23450729E+02   3.93819618E+01   5.97451258E+00   2.17476227E+02  -8.96024094E+01   1.96513672E+02   6.18161964E+00   2.23243622E+02   3.93819618E+01   6.70814848E+00
             3539                3   2.03316650E+02   2.23603271E+02   2.23603271E+02   4.93715477E+00   4.02667694E+01   2.23603271E+02   2.23603271E+02   4.02667694E+01   4.93715477E+00   2.18666107E+02  -8.96023941E+01   1.96231659E+02   5.90859127E+00   2.22631836E+02   4.02667694E+01   1.45421829E+01
             3539                4   2.03990814E+02   2.23888458E+02   2.23888458E+02   3.85318804E+00   4.10655518E+01   2.23888458E+02   2.23888458E+02   4.10655518E+01   3.85318804E+00   2.20035278E+02  -8.96023941E+01   1.96135193E+02   4.25371885E+00   2.23487930E+02   4.10655518E+01   9.37930870E+00
             3540                1   2.07467194E+02   2.09362839E+02   2.09362839E+02  -4.35232013E-01   4.30786037E+00   2.09362839E+02   2.09362839E+02   4.30786037E+00  -4.35232013E-01   2.09798080E+02  -7.10784912E+01   2.07345154E+02  -4.32312936E-01   2.09359924E+02   4.30786037E+00   7.82690763E-01
             3540                2   2.06333344E+02   2.08614914E+02   2.08614914E+02   3.23186368E-01   4.29737377E+00   2.08614914E+02   2.08614914E+02   4.29737377E+00   3.23186368E-01   2.08291718E+02  -7.10784912E+01   2.06247192E+02   3.26256812E-01   2.08611832E+02   4.29737377E+00   8.00570965E-01
             3540                3   2.07459473E+02   2.09358002E+02   2.09358002E+02  -4.19205040E-01   4.29667711E+00   2.09358002E+02   2.09358002E+02   4.29667711E+00  -4.19205040E-01   2.09777206E+02  -7.10784912E+01   2.07338821E+02  -4.19206321E-01   2.09358002E+02   4.29667711E+00   8.15251097E-03
             3540                4   2.06293091E+02   2.08588333E+02   2.08588333E+02   3.49728256E-01   4.29740906E+00   2.08588333E+02   2.08588333E+02   4.29740906E+00   3.49728256E-01   2.08238602E+02  -7.10784912E+01   2.06208084E+02   3.49732161E-01   2.08588333E+02   4.29740906E+00   2.57119704E-02
             3541                1   2.02954056E+02   2.05254868E+02   2.05254868E+02   6.67351007E-01   3.97471142E+00   2.05254868E+02   2.05254868E+02   3.97471142E+00   6.67351007E-01   2.04587524E+02  -6.99656448E+01   2.02893402E+02   6.70346439E-01   2.05251877E+02   3.97471142E+00   7.83181310E-01
             3541                2   2.02921387E+02   2.05233276E+02   2.05233276E+02   6.88909590E-01   3.97474647E+00   2.05233276E+02   2.05233276E+02   3.97474647E+00   6.88909590E-01   2.04544357E+02  -6.99656448E+01   2.02861526E+02   6.88923419E-01   2.05233261E+02   3.97474647E+00   4.40785810E-02
             3541                3   2.04066162E+02   2.05989746E+02   2.05989746E+02  -6.68532997E-02   3.97403860E+00   2.05989746E+02   2.05989746E+02   3.97403860E+00  -6.68532997E-02   2.06056610E+02  -6.99656448E+01   2.03976105E+02  -6.39978498E-02   2.05986893E+02   3.97403860E+00   7.67390609E-01
             3541                4   2.04030762E+02   2.05966370E+02   2.05966370E+02  -4.35066931E-02   3.97407532E+00   2.05966370E+02   2.05966370E+02   3.97407532E+00  -4.35066931E-02   2.06009888E+02  -6.99656448E+01   2.03941727E+02  -4.35091741E-02   2.05966370E+02   3.97407532E+00   2.82962527E-02
             3542                1   4.96507874E+01   4.91900024E+01   4.91900024E+01  -2.85391182E-01  -6.34345174E-01   4.91900024E+01   4.91900024E+01  -2.85391182E-01  -6.34345174E-01   4.98243446E+01  -1.60900879E+01   4.96480293E+01   1.09273076E+00   4.78118782E+01  -6.34345174E-01   8.14149475E+00
             3542                2   4.93043938E+01   4.89579735E+01   4.89579735E+01  -5.33628911E-02  -6.34345174E-01   4.89579735E+01   4.89579735E+01  -5.33628911E-02  -6.34345174E-01   4.95923195E+01  -1.60900879E+01   4.92966919E+01   1.26720202E+00   4.76374092E+01  -6.34345174E-01   7.93591118E+00
             3542                3   4.98587990E+01   4.93290672E+01   4.93290672E+01  -4.24457729E-01  -6.34345174E-01   4.93290672E+01   4.93290672E+01  -4.24457729E-01  -6.34345174E-01   4.99634132E+01  -1.60900879E+01   4.98578072E+01   8.92927170E-01   4.80116844E+01  -6.34345174E-01   7.98805046E+00
             3542                4   4.95189438E+01   4.91017532E+01   4.91017532E+01  -1.97142407E-01  -6.34345174E-01   4.91017532E+01   4.91017532E+01  -1.97142407E-01  -6.34345174E-01   4.97360954E+01  -1.60900879E+01   4.95146027E+01   1.06371212E+00   4.78408966E+01  -6.34345174E-01   7.78261042E+00
             3543                1   2.09404938E+02   2.11106705E+02   2.11106705E+02  -9.74317670E-01   4.48459053E+00   2.11106705E+02   2.11106705E+02   4.48459053E+00  -9.74317670E-01   2.12081024E+02  -7.15389938E+01   2.09244766E+02  -9.36107695E-01   2.11068497E+02   4.48459053E+00   2.84628797E+00
             3543                2   2.09319534E+02   2.11053497E+02   2.11053497E+02  -8.00054729E-01   4.36353159E+00   2.11053497E+02   2.11053497E+02   4.36353159E+00  -8.00054729E-01   2.11853561E+02  -7.15389938E+01   2.09176178E+02  -7.85155237E-01   2.11038605E+02   4.36353159E+00   1.77653599E+00
             3543                3   2.10076477E+02   2.11540344E+02   2.11540344E+02  -1.69046259E+00   4.76708508E+00   2.11540344E+02   2.11540344E+02   4.76708508E+00  -1.69046259E+00   2.13230804E+02  -7.15389938E+01   2.09852997E+02  -1.65955710E+00   2.11509445E+02   4.76708508E+00   2.56674433E+00
             3543                4   2.09975525E+02   2.11477768E+02   2.11477768E+02  -1.50098848E+00   4.64021397E+00   2.11477768E+02   2.11477768E+02   4.64021397E+00  -1.50098848E+00   2.12978760E+02  -7.15389938E+01   2.09773315E+02  -1.49026871E+00   2.11467041E+02   4.64021397E+00   1.51121509E+00
             3544                1   1.91835495E+02   1.94326492E+02   1.94326492E+02   2.01864243E+00   2.96686935E+00   1.94326492E+02   1.94326492E+02   2.96686935E+00   2.01864243E+00   1.92307846E+02  -6.64373398E+01   1.91830215E+02   2.02013516E+00   1.94324997E+02   2.96686935E+00   5.36919415E-01
             3544                2   1.91811203E+02   1.94310333E+02   1.94310333E+02   2.03477025E+00   2.96689343E+00   1.94310333E+02   1.94310333E+02   2.96689343E+00   2.03477025E+00   1.92275574E+02  -6.64373322E+01   1.91806122E+02   2.03479195E+00   1.94310318E+02   2.96689343E+00   6.16627485E-02
             3544                3   1.92547516E+02   1.94799728E+02   1.94799728E+02   1.54579353E+00   2.96648717E+00   1.94799728E+02   1.94799728E+02   2.96648717E+00   1.54579353E+00   1.93253937E+02  -6.64373398E+01   1.92535721E+02   1.54719055E+00   1.94798325E+02   2.96648717E+00   5.20501018E-01
             3544                4   1.92522049E+02   1.94782806E+02   1.94782806E+02   1.56267273E+00   2.96651196E+00   1.94782806E+02   1.94782806E+02   2.96651196E+00   1.56267273E+00   1.93220123E+02  -6.64373245E+01   1.92510544E+02   1.56268775E+00   1.94782791E+02   2.96651196E+00   4.46847863E-02
             3545                1   6.31038170E+01   5.65626831E+01   5.65626831E+01  -5.43341494E+00  -7.59338760E+00   5.65626831E+01   5.65626831E+01  -5.43341494E+00  -7.59338760E+00   6.41560745E+01  -1.45119600E+01   6.30205612E+01  -2.25232100E+00   5.33815880E+01  -7.59338760E+00   1.36783094E+01
             3545                2   6.35077477E+01   5.68364487E+01   5.68364487E+01  -5.70718431E+00  -7.59338760E+00   5.68364487E+01   5.68364487E+01  -5.70718431E+00  -7.59338760E+00   6.44298401E+01  -1.45119591E+01   6.34446793E+01  -2.28903580E+00   5.34183006E+01  -7.59338760E+00   1.42161770E+01
             3545                3   6.23908310E+01   5.60778084E+01   5.60778084E+01  -4.94854021E+00  -7.59338760E+00   5.60778084E+01   5.60778084E+01  -4.94854021E+00  -7.59338760E+00   6.36711960E+01  -1.45119600E+01   6.22645111E+01  -1.69479537E+00   5.28240623E+01  -7.59338760E+00   1.37104855E+01
             3545                4   6.28076172E+01   5.63615074E+01   5.63615074E+01  -5.23224306E+00  -7.59338760E+00   5.63615074E+01   5.63615074E+01  -5.23224306E+00  -7.59338760E+00   6.39548950E+01  -1.45119591E+01   6.27076454E+01  -1.73774779E+00   5.28670120E+01  -7.59338760E+00   1.42487755E+01
             3546                1   4.45564117E+01   5.72404976E+01   5.72404976E+01   8.31512165E+00   1.89935951E+01   5.72404976E+01   5.72404976E+01   1.89935951E+01   8.31512165E+00   4.89253769E+01  -2.81830692E+01   4.15283699E+01   1.49171839E+01   5.06384315E+01   1.89935951E+01   1.67158966E+01
             3546                2   4.39836845E+01   5.68925323E+01   5.68925323E+01   8.66308403E+00   1.89935951E+01   5.68925323E+01   5.68925323E+01   1.89935951E+01   8.66308403E+00   4.82294502E+01  -2.81830692E+01   4.11190491E+01   1.67009182E+01   4.88546982E+01   1.89935951E+01   1.79736919E+01
             3546                3   4.10988464E+01   5.51318588E+01   5.51318588E+01   1.04237595E+01   1.89935951E+01   5.51318588E+01   5.51318588E+01   1.89935951E+01   1.04237595E+01   4.47080994E+01  -2.81830692E+01   3.90118561E+01   1.61649055E+01   4.93907089E+01   1.89935951E+01   1.49571066E+01
             3546                4   4.04635201E+01   5.47421112E+01   5.47421112E+01   1.08135061E+01   1.89935951E+01   5.47421112E+01   5.47421112E+01   1.89935951E+01   1.08135061E+01   4.39286041E+01  -2.81830692E+01   3.85367699E+01   1.79622326E+01   4.75933838E+01   1.89935951E+01   1.62150955E+01
             3547                1   2.03567429E+02   2.05061737E+02   2.05061737E+02  -1.73394337E-01   3.20401764E+00   2.05061737E+02   2.05061737E+02   3.20401764E+00  -1.73394337E-01   2.05235123E+02  -6.93641129E+01   2.03504395E+02  -1.44254521E-01   2.05032593E+02   3.20401764E+00   2.44524837E+00
             3547                2   2.03425461E+02   2.04967834E+02   2.04967834E+02  -7.96689168E-02   3.20418167E+00   2.04967834E+02   2.04967834E+02   3.20418167E+00  -7.96689168E-02   2.05047501E+02  -6.93641129E+01   2.03365814E+02  -6.61873519E-02   2.04954361E+02   3.20418167E+00   1.66225672E+00
             3547                3   2.04708359E+02   2.05815521E+02   2.05815521E+02  -9.26487684E-01   3.20331860E+00   2.05815521E+02   2.05815521E+02   3.20331860E+00  -9.26487684E-01   2.06742020E+02  -6.93641205E+01   2.04614594E+02  -8.99730563E-01   2.05788773E+02   3.20331860E+00   2.35165858E+00
             3547                4   2.04568176E+02   2.05722977E+02   2.05722977E+02  -8.34106028E-01   3.20348215E+00   2.05722977E+02   2.05722977E+02   3.20348215E+00  -8.34106028E-01   2.06557083E+02  -6.93641129E+01   2.04478500E+02  -8.22168589E-01   2.05711044E+02   3.20348215E+00   1.56987023E+00
             3548                1   2.37654324E+01   3.94788322E+01   3.94788322E+01   1.55969524E+01   1.58315868E+01   3.94788322E+01   3.94788322E+01   1.58315868E+01   1.55969524E+01   2.38818817E+01  -2.36357899E+01   2.37628288E+01   1.56899033E+01   3.93858833E+01   1.58315868E+01   1.48700953E+00
             3548                2   2.33081131E+01   3.91744804E+01   3.91744804E+01   1.59013052E+01   1.58315868E+01   3.91744804E+01   3.91744804E+01   1.59013052E+01   1.58315868E+01   2.33428936E+01  -2.36357899E+01   2.33078804E+01   1.59950533E+01   3.90807343E+01   1.58315868E+01   1.47411001E+00
             3548                3   2.37387524E+01   3.94611320E+01   3.94611320E+01   1.56146584E+01   1.58315868E+01   3.94611320E+01   3.94611320E+01   1.58315868E+01   1.56146584E+01   2.38464737E+01  -2.36357937E+01   2.37365208E+01   1.56737518E+01   3.94020386E+01   1.58315868E+01   1.18561530E+00
             3548                4   2.32818680E+01   3.91569557E+01   3.91569557E+01   1.59188337E+01   1.58315868E+01   3.91569557E+01   3.91569557E+01   1.59188337E+01   1.58315868E+01   2.33253689E+01  -2.36357937E+01   2.32814960E+01   1.59781437E+01   3.90976448E+01   1.58315868E+01   1.17249870E+00
             3549                1   2.37271805E+01   3.94936562E+01   3.94936562E+01   1.56791725E+01   1.58547554E+01   3.94936562E+01   3.94936562E+01   1.58547554E+01   1.56791725E+01   2.38144836E+01  -2.36758633E+01   2.37257137E+01   1.56970739E+01   3.94757538E+01   1.58547554E+01   6.52694404E-01
             3549                2   2.37441921E+01   3.95049553E+01   3.95049553E+01   1.56678734E+01   1.58547554E+01   3.95049553E+01   3.95049553E+01   1.58547554E+01   1.56678734E+01   2.38370819E+01  -2.36758633E+01   2.37425327E+01   1.57062435E+01   3.94665833E+01   1.58547554E+01   9.55610216E-01
             3549                3   2.32666397E+01   3.91867676E+01   3.91867676E+01   1.59860601E+01   1.58547554E+01   3.91867676E+01   3.91867676E+01   1.59860601E+01   1.58547554E+01   2.33320141E+01  -2.36758633E+01   2.32658024E+01   1.60039520E+01   3.91688766E+01   1.58547554E+01   6.44041061E-01
             3549                4   2.32822113E+01   3.91971779E+01   3.91971779E+01   1.59756498E+01   1.58547554E+01   3.91971779E+01   3.91971779E+01   1.59756498E+01   1.58547554E+01   2.33424225E+01  -2.36758633E+01   2.32814980E+01   1.60144329E+01   3.91583939E+01   1.58547554E+01   9.48216558E-01
             3550                1   7.17297211E+01   6.71767883E+01   6.71767883E+01  -3.23336291E+00  -5.80341530E+00   6.71767883E+01   6.71767883E+01  -3.23336291E+00  -5.80341530E+00   7.29802094E+01  -1.93800049E+01   7.16260147E+01   5.14696932E+00   5.87964592E+01  -5.80341530E+00   2.27997913E+01
             3550                2   7.26161346E+01   6.77774048E+01   6.77774048E+01  -3.83397651E+00  -5.80341530E+00   6.77774048E+01   6.77774048E+01  -3.83397651E+00  -5.80341530E+00   7.35808182E+01  -1.93800049E+01   7.25560074E+01   4.11206865E+00   5.98313599E+01  -5.80341530E+00   2.24919453E+01
             3550                3   7.28177338E+01   6.79136200E+01   6.79136200E+01  -3.97019339E+00  -5.80341530E+00   6.79136200E+01   6.79136200E+01  -3.97019339E+00  -5.80341530E+00   7.37170334E+01  -1.93800049E+01   7.27657852E+01   5.03139639E+00   5.89120331E+01  -5.80341530E+00   2.37915936E+01
             3550                4   7.36579971E+01   6.84798889E+01   6.84798889E+01  -4.53645897E+00  -5.80341530E+00   6.84798889E+01   6.84798889E+01  -4.53645897E+00  -5.80341530E+00   7.42833023E+01  -1.93800049E+01   7.36334763E+01   4.03133917E+00   5.99120903E+01  -5.80341530E+00   2.34985542E+01
             3551                1   7.32657394E+01   7.66120071E+01   7.66120071E+01   2.84110308E+00   3.86210108E+00   7.66120071E+01   7.66120071E+01   3.86210108E+00   2.84110308E+00   7.37709045E+01  -2.77717361E+01   7.32497330E+01   2.76253796E+01   5.18277321E+01   3.86210108E+00   3.48439102E+01
             3551                2   7.38754349E+01   7.70151596E+01   7.70151596E+01   2.43794870E+00   3.86210108E+00   7.70151596E+01   7.70151596E+01   3.86210108E+00   2.43794870E+00   7.45772095E+01  -2.77717361E+01   7.38445435E+01   2.72287331E+01   5.22243805E+01   3.86210108E+00   3.51318169E+01
             3551                3   7.37606201E+01   7.69393234E+01   7.69393234E+01   2.51378679E+00   3.86210108E+00   7.69393234E+01   7.69393234E+01   3.86210108E+00   2.51378679E+00   7.44255371E+01  -2.77717361E+01   7.37328949E+01   2.79346447E+01   5.15184669E+01   3.86210108E+00   3.52950554E+01
             3551                4   7.43696289E+01   7.73411942E+01   7.73411942E+01   2.11191821E+00   3.86210108E+00   7.73411942E+01   7.73411942E+01   3.86210108E+00   2.11191821E+00   7.52292709E+01  -2.77717361E+01   7.43232803E+01   2.75344601E+01   5.19186516E+01   3.86210108E+00   3.55838966E+01
             3552                1   1.95025299E+02   1.96902298E+02   1.96902298E+02   8.94230127E-01   2.87484431E+00   1.96902298E+02   1.96902298E+02   2.87484431E+00   8.94230127E-01   1.96008057E+02  -6.68904572E+01   1.95002670E+02   8.96730244E-01   1.96899796E+02   2.87484431E+00   6.99787319E-01
             3552                2   1.95107758E+02   1.96956985E+02   1.96956985E+02   8.39627862E-01   2.87476230E+00   1.96956985E+02   1.96956985E+02   2.87476230E+00   8.39627862E-01   1.96117355E+02  -6.68904572E+01   1.95083878E+02   8.47885609E-01   1.96948730E+02   2.87476230E+00   1.27252626E+00
             3552                3   1.94187912E+02   1.96346451E+02   1.96346451E+02   1.44961703E+00   2.87530994E+00   1.96346451E+02   1.96346451E+02   2.87530994E+00   1.44961703E+00   1.94896835E+02  -6.68904572E+01   1.94176132E+02   1.45249665E+00   1.96343567E+02   2.87530994E+00   7.49510288E-01
             3552                4   1.94262405E+02   1.96395935E+02   1.96395935E+02   1.40021074E+00   2.87523246E+00   1.96395935E+02   1.96395935E+02   2.87523246E+00   1.40021074E+00   1.94995728E+02  -6.68904572E+01   1.94249817E+02   1.40916622E+00   1.96386978E+02   2.87523246E+00   1.32130396E+00
             3553                1   5.06461601E+01   5.01152573E+01   5.01152573E+01  -4.51432854E-01  -6.09994054E-01   5.01152573E+01   5.01152573E+01  -4.51432854E-01  -6.09994054E-01   5.07252541E+01  -1.63512783E+01   5.06455994E+01   7.40931273E-01   4.89228935E+01  -6.09994054E-01   7.67282438E+00
             3553                2   5.04389610E+01   4.99768143E+01   4.99768143E+01  -3.12991351E-01  -6.09994054E-01   4.99768143E+01   4.99768143E+01  -3.12991351E-01  -6.09994054E-01   5.05868073E+01  -1.63512764E+01   5.04369926E+01   9.42848265E-01   4.87209740E+01  -6.09994054E-01   7.84721565E+00
             3553                3   5.02878304E+01   4.98757095E+01   4.98757095E+01  -2.11887360E-01  -6.09994054E-01   4.98757095E+01   4.98757095E+01  -2.11887360E-01  -6.09994054E-01   5.04857025E+01  -1.63512764E+01   5.02842865E+01   9.22180235E-01   4.87416420E+01  -6.09994054E-01   7.45094681E+00
             3553                4   5.00818748E+01   4.97377586E+01   4.97377586E+01  -7.39350915E-02  -6.09994054E-01   4.97377586E+01   4.97377586E+01  -7.39350915E-02  -6.09994054E-01   5.03477516E+01  -1.63512764E+01   5.00754166E+01   1.12436807E+00   4.85394554E+01  -6.09994054E-01   7.63239908E+00
             3554                1   4.22790565E+01   4.64511261E+01   4.64511261E+01   4.08265352E+00   4.26205778E+00   4.64511261E+01   4.64511261E+01   4.26205778E+00   4.08265352E+00   4.23684731E+01  -1.82652798E+01   4.22781982E+01   4.98378611E+00   4.55499916E+01   4.26205778E+00   6.11290598E+00
             3554                2   4.19053955E+01   4.62021790E+01   4.62021790E+01   4.33159685E+00   4.26205778E+00   4.62021790E+01   4.62021790E+01   4.33159685E+00   4.26205778E+00   4.19401207E+01  -1.82652779E+01   4.19052658E+01   5.20474815E+00   4.53290291E+01   4.26205778E+00   5.98304987E+00
             3554                3   4.23644218E+01   4.65078964E+01   4.65078964E+01   4.02587795E+00   4.26205778E+00   4.65078964E+01   4.65078964E+01   4.26205778E+00   4.02587795E+00   4.24820175E+01  -1.82652779E+01   4.23629417E+01   4.86465931E+00   4.56691170E+01   4.26205778E+00   5.91012096E+00
             3554                4   4.19974327E+01   4.62635651E+01   4.62635651E+01   4.27020931E+00   4.26205778E+00   4.62635651E+01   4.62635651E+01   4.27020931E+00   4.26205778E+00   4.20015068E+01  -1.82652779E+01   4.19974327E+01   5.08228064E+00   4.54514961E+01   4.26205778E+00   5.78291321E+00
             3555                1   2.09170425E+02   2.11480179E+02   2.11480179E+02  -8.08335170E-02   4.78523874E+00   2.11480179E+02   2.11480179E+02   4.78523874E+00  -8.08335170E-02   2.11561005E+02  -7.20615234E+01   2.09043015E+02  -7.73352832E-02   2.11476669E+02   4.78523874E+00   8.60736966E-01
             3555                2   2.09144821E+02   2.11463623E+02   2.11463623E+02  -4.99579012E-02   4.77091885E+00   2.11463623E+02   2.11463623E+02   4.77091885E+00  -4.99579012E-02   2.11513580E+02  -7.20615311E+01   2.09019745E+02  -4.99635562E-02   2.11463623E+02   4.77091885E+00   1.14962813E-02
             3555                3   2.09863953E+02   2.11932037E+02   2.11932037E+02  -7.26414680E-01   4.97895193E+00   2.11932037E+02   2.11932037E+02   4.97895193E+00  -7.26414680E-01   2.12658463E+02  -7.20615311E+01   2.09689331E+02  -7.23211765E-01   2.11928833E+02   4.97895193E+00   8.26095283E-01
             3555                4   2.09847641E+02   2.11921768E+02   2.11921768E+02  -6.99037969E-01   4.96183920E+00   2.11921768E+02   2.11921768E+02   4.96183920E+00  -6.99037969E-01   2.12620804E+02  -7.20615234E+01   2.09675751E+02  -6.99040771E-01   2.11921768E+02   4.96183920E+00  -2.21750326E-02
             3556                1   2.11636536E+02   2.13991180E+02   2.13991180E+02  -1.03942454E+00   5.92041159E+00   2.13991180E+02   2.13991180E+02   5.92041159E+00  -1.03942454E+00   2.15030594E+02  -7.29573898E+01   2.11378815E+02  -1.03580093E+00   2.13987549E+02   5.92041159E+00   8.83172095E-01
             3556                2   2.11122940E+02   2.13663055E+02   2.13663055E+02  -4.06681567E-01   5.61577368E+00   2.13663055E+02   2.13663055E+02   5.61577368E+00  -4.06681567E-01   2.14069748E+02  -7.29573822E+01   2.10929565E+02  -4.02550220E-01   2.13658936E+02   5.61577368E+00   9.39600825E-01
             3556                3   2.11623230E+02   2.13983414E+02   2.13983414E+02  -1.00188541E+00   5.89065123E+00   2.13983414E+02   2.13983414E+02   5.89065123E+00  -1.00188541E+00   2.14985291E+02  -7.29573898E+01   2.11370453E+02  -1.00186312E+00   2.13983383E+02   5.89065123E+00  -7.15913475E-02
             3556                4   2.11107590E+02   2.13653748E+02   2.13653748E+02  -3.69600326E-01   5.58801842E+00   2.13653748E+02   2.13653748E+02   5.58801842E+00  -3.69600326E-01   2.14023346E+02  -7.29573898E+01   2.10918335E+02  -3.69595081E-01   2.13653748E+02   5.58801842E+00  -2.03026962E-02
             3557                1   2.01362747E+02   2.02473633E+02   2.02473633E+02  -5.85087836E-01   2.85084724E+00   2.02473633E+02   2.02473633E+02   2.85084724E+00  -5.85087836E-01   2.03058731E+02  -6.82464676E+01   2.01296768E+02  -5.59524596E-01   2.02448074E+02   2.85084724E+00   2.27820182E+00
             3557                2   2.00275482E+02   2.01754227E+02   2.01754227E+02   1.33663192E-01   2.85149765E+00   2.01754227E+02   2.01754227E+02   2.85149765E+00   1.33663192E-01   2.01620560E+02  -6.82464676E+01   2.00233978E+02   1.61838651E-01   2.01726059E+02   2.85149765E+00   2.38310003E+00
             3557                3   2.01212463E+02   2.02374268E+02   2.02374268E+02  -4.85872269E-01   2.85100341E+00   2.02374268E+02   2.02374268E+02   2.85100341E+00  -4.85872269E-01   2.02860138E+02  -6.82464676E+01   2.01150192E+02  -4.74092305E-01   2.02362488E+02   2.85100341E+00   1.54592955E+00
             3557                4   2.00120651E+02   2.01651688E+02   2.01651688E+02   2.36057267E-01   2.85165620E+00   2.01651688E+02   2.01651688E+02   2.85165620E+00   2.36057267E-01   2.01415634E+02  -6.82464676E+01   2.00082184E+02   2.49575600E-01   2.01638168E+02   2.85165620E+00   1.64986312E+00
             3558                1   5.71946793E+01   5.05822678E+01   5.05822678E+01  -4.49192572E+00  -8.51993942E+00   5.05822678E+01   5.05822678E+01  -4.49192572E+00  -8.51993942E+00   5.91022072E+01  -1.25234680E+01   5.68742447E+01  -1.15403824E-01   4.62057457E+01  -8.51993942E+00   1.48956223E+01
             3558                2   5.79974060E+01   5.11363487E+01   5.11363487E+01  -5.04600620E+00  -8.51993942E+00   5.11363487E+01   5.11363487E+01  -5.04600620E+00  -8.51993942E+00   5.96562881E+01  -1.25234680E+01   5.77626266E+01  -7.67987847E-01   4.68583298E+01  -8.51993942E+00   1.49012680E+01
             3558                3   5.75711212E+01   5.08425179E+01   5.08425179E+01  -4.75217581E+00  -8.51993942E+00   5.08425179E+01   5.08425179E+01  -4.75217581E+00  -8.51993942E+00   5.93624573E+01  -1.25234680E+01   5.72927399E+01  -5.88652901E-02   4.61492081E+01  -8.51993942E+00   1.54562616E+01
             3558                4   5.83798904E+01   5.13992157E+01   5.13992157E+01  -5.30887508E+00  -8.51993942E+00   5.13992157E+01   5.13992157E+01  -5.30887508E+00  -8.51993942E+00   5.99191551E+01  -1.25234671E+01   5.81807060E+01  -7.10298538E-01   4.68006401E+01  -8.51993942E+00   1.54799709E+01
             3559                1   2.10729568E+02   2.10700058E+02   2.10700058E+02  -4.64823484E+00   4.91480255E+00   2.10700058E+02   2.10700058E+02   4.91480255E+00  -4.64823484E+00   2.15348282E+02  -7.03222046E+01   2.10240540E+02  -4.54727554E+00   2.10599091E+02   4.91480255E+00   4.66176128E+00
             3559                2   2.10317093E+02   2.10440796E+02   2.10440796E+02  -4.15428543E+00   4.68009806E+00   2.10440796E+02   2.10440796E+02   4.68009806E+00  -4.15428543E+00   2.14595078E+02  -7.03222046E+01   2.09899017E+02  -3.97955132E+00   2.10266068E+02   4.68009806E+00   6.12095737E+00
             3559                3   2.10438217E+02   2.10527283E+02   2.10527283E+02  -4.05998373E+00   4.49932051E+00   2.10527283E+02   2.10527283E+02   4.49932051E+00  -4.05998373E+00   2.14587265E+02  -7.03222046E+01   2.10046036E+02  -4.00809193E+00   2.10475388E+02   4.49932051E+00   3.33670831E+00
             3559                4   2.09964310E+02   2.10229874E+02   2.10229874E+02  -3.42462277E+00   4.16137075E+00   2.10229874E+02   2.10229874E+02   4.16137075E+00  -3.42462277E+00   2.13654495E+02  -7.03222122E+01   2.09655624E+02  -3.33692145E+00   2.10142166E+02   4.16137075E+00   4.32801199E+00
             3560                1   4.95260696E+01   4.82801704E+01   4.82801704E+01  -8.89000058E-01  -1.59524727E+00   4.82801704E+01   4.82801704E+01  -8.89000058E-01  -1.59524727E+00   4.98754196E+01  -1.52653074E+01   4.95147400E+01   6.30310714E-01   4.67608604E+01  -1.59524727E+00   8.50852013E+00
             3560                2   4.98372116E+01   4.84888725E+01   4.84888725E+01  -1.09770238E+00  -1.59524727E+00   4.84888725E+01   4.84888725E+01  -1.09770238E+00  -1.59524727E+00   5.00841217E+01  -1.52653074E+01   4.98316231E+01   4.89650607E-01   4.69015198E+01  -1.59524727E+00   8.72878647E+00
             3560                3   4.93062706E+01   4.81324577E+01   4.81324577E+01  -7.41283655E-01  -1.59524727E+00   4.81324577E+01   4.81324577E+01  -7.41283655E-01  -1.59524727E+00   4.97277069E+01  -1.52653093E+01   4.92896233E+01   8.28589320E-01   4.65625839E+01  -1.59524727E+00   8.61748886E+00
             3560                4   4.96159363E+01   4.83404961E+01   4.83404961E+01  -9.49322224E-01  -1.59524727E+00   4.83404961E+01   4.83404961E+01  -9.49322224E-01  -1.59524727E+00   4.99357452E+01  -1.52653093E+01   4.96064720E+01   6.90744817E-01   4.67004280E+01  -1.59524727E+00   8.84018421E+00
             3561                1   1.08890121E+02   1.17371017E+02   1.17371017E+02   7.79594517E+00   9.17901802E+00   1.17371017E+02   1.17371017E+02   9.17901802E+00   7.79594517E+00   1.09575073E+02  -4.47819939E+01   1.08870361E+02   1.13325500E+01   1.13834412E+02   9.17901802E+00   1.93653336E+01
             3561                2   1.09343719E+02   1.17671326E+02   1.17671326E+02   7.49563313E+00   9.17901802E+00   1.17671326E+02   1.17671326E+02   9.17901802E+00   7.49563313E+00   1.10175697E+02  -4.47819939E+01   1.09314568E+02   1.09953346E+01   1.14171631E+02   9.17901802E+00   1.93218460E+01
             3561                3   1.09028030E+02   1.17462364E+02   1.17462364E+02   7.70459986E+00   9.17901802E+00   1.17462364E+02   1.17462364E+02   9.17901802E+00   7.70459986E+00   1.09757759E+02  -4.47819939E+01   1.09005600E+02   1.13569069E+01   1.13810059E+02   9.17901802E+00   1.96857643E+01
             3561                4   1.09484131E+02   1.17764206E+02   1.17764206E+02   7.40275478E+00   9.17901802E+00   1.17764206E+02   1.17764206E+02   9.17901802E+00   7.40275478E+00   1.10361450E+02  -4.47819939E+01   1.09451698E+02   1.10162268E+01   1.14150734E+02   9.17901802E+00   1.96400337E+01
             3562                1   1.90530212E+02   1.92871780E+02   1.92871780E+02   1.88286042E+00   2.80360341E+00   1.92871780E+02   1.92871780E+02   2.80360341E+00   1.88286042E+00   1.90988922E+02  -6.58527451E+01   1.90525208E+02   1.88379645E+00   1.92870850E+02   2.80360341E+00   4.21144038E-01
             3562                2   1.89958588E+02   1.92491425E+02   1.92491425E+02   2.26292396E+00   2.80390406E+00   1.92491425E+02   1.92491425E+02   2.80390406E+00   2.26292396E+00   1.90228500E+02  -6.58527527E+01   1.89956848E+02   2.26392698E+00   1.92490417E+02   2.80390406E+00   4.37762171E-01
             3562                3   1.90506485E+02   1.92856003E+02   1.92856003E+02   1.89862800E+00   2.80362558E+00   1.92856003E+02   1.92856003E+02   2.80362558E+00   1.89862800E+00   1.90957367E+02  -6.58527451E+01   1.90501648E+02   1.89864135E+00   1.92855988E+02   2.80362558E+00   3.87351960E-02
             3562                4   1.89933731E+02   1.92474869E+02   1.92474869E+02   2.27944851E+00   2.80392694E+00   1.92474869E+02   1.92474869E+02   2.80392694E+00   2.27944851E+00   1.90195419E+02  -6.58527451E+01   1.89932098E+02   2.27946758E+00   1.92474854E+02   2.80392694E+00   5.55591062E-02
             3563                1   1.21626450E+02   1.40498779E+02   1.40498779E+02   1.73814106E+01   2.04201851E+01   1.40498779E+02   1.40498779E+02   2.04201851E+01   1.73814106E+01   1.23117363E+02  -5.94334564E+01   1.21541000E+02   2.14116096E+01   1.36468582E+02   2.04201851E+01   2.19076366E+01
             3563                2   1.22764732E+02   1.41247406E+02   1.41247406E+02   1.66328011E+01   2.04201851E+01   1.41247406E+02   1.41247406E+02   2.04201851E+01   1.66328011E+01   1.24614601E+02  -5.94334602E+01   1.22633179E+02   2.02116642E+01   1.37668533E+02   2.04201851E+01   2.08127518E+01
             3563                3   1.23156914E+02   1.41504852E+02   1.41504852E+02   1.63753490E+01   2.04201851E+01   1.41504852E+02   1.41504852E+02   2.04201851E+01   1.63753490E+01   1.25129501E+02  -5.94334602E+01   1.23007332E+02   2.10254631E+01   1.36854736E+02   2.04201851E+01   2.36694603E+01
             3563                4   1.24215500E+02   1.42198593E+02   1.42198593E+02   1.56816120E+01   2.04201851E+01   1.42198593E+02   1.42198593E+02   2.04201851E+01   1.56816120E+01   1.26516983E+02  -5.94334602E+01   1.24011894E+02   1.97568169E+01   1.38123383E+02   2.04201851E+01   2.23377666E+01
             3564                1   7.25529709E+01   6.64922180E+01   6.64922180E+01  -4.99872732E+00  -7.07808304E+00   6.64922180E+01   6.64922180E+01  -4.99872732E+00  -7.07808304E+00   7.35702972E+01  -1.81384678E+01   7.24858856E+01   1.27691281E+00   6.02165756E+01  -7.07808304E+00   2.02303677E+01
             3564                2   7.19022675E+01   6.60512238E+01   6.60512238E+01  -4.55773592E+00  -7.07808304E+00   6.60512238E+01   6.60512238E+01  -4.55773592E+00  -7.07808304E+00   7.31293106E+01  -1.81384678E+01   7.18027878E+01   1.28300190E+00   6.02104874E+01  -7.07808304E+00   1.94497852E+01
             3564                3   7.40290680E+01   6.74872131E+01   6.74872131E+01  -5.99372149E+00  -7.07808304E+00   6.74872131E+01   6.74872131E+01  -5.99372149E+00  -7.07808304E+00   7.45652924E+01  -1.81384678E+01   7.40112000E+01   3.70612681E-01   6.11228752E+01  -7.07808304E+00   2.06676674E+01
             3564                4   7.31470871E+01   6.68935699E+01   6.68935699E+01  -5.40008163E+00  -7.07808304E+00   6.68935699E+01   6.68935699E+01  -5.40008163E+00  -7.07808304E+00   7.39716492E+01  -1.81384678E+01   7.31037674E+01   4.13937151E-01   6.10795517E+01  -7.07808304E+00   1.96599541E+01
             3565                1   3.11270866E+01   2.70476646E+01   2.70476646E+01   1.12697229E-01  -7.02991867E+00   2.70476646E+01   2.70476646E+01   1.12697229E-01  -7.02991867E+00   3.40775833E+01  -6.71014786E+00   2.91965961E+01   1.53216305E+01   1.18387308E+01  -7.02991867E+00   1.33544178E+01
             3565                2   3.12645016E+01   2.71533527E+01   2.71533527E+01   7.01028993E-03  -7.02991867E+00   2.71533527E+01   2.71533527E+01   7.01028993E-03  -7.02991867E+00   3.41832695E+01  -6.71014786E+00   2.94024296E+01   1.50087833E+01   1.21515779E+01  -7.02991867E+00   1.34977798E+01
             3565                3   3.15126133E+01   2.73432789E+01   2.73432789E+01  -1.82917237E-01  -7.02991867E+00   2.73432789E+01   2.73432789E+01  -1.82917237E-01  -7.02991867E+00   3.43731995E+01  -6.71014786E+00   2.97691669E+01   1.54678631E+01   1.16924982E+01  -7.02991867E+00   1.36330309E+01
             3565                4   3.16483536E+01   2.74467125E+01   2.74467125E+01  -2.86350995E-01  -7.02991867E+00   2.74467125E+01   2.74467125E+01  -2.86350995E-01  -7.02991867E+00   3.44766312E+01  -6.71014786E+00   2.99672375E+01   1.51595030E+01   1.20008583E+01  -7.02991867E+00   1.37763004E+01
             3566                1   2.12578201E+02   2.15483246E+02   2.15483246E+02  -8.95190477E-01   6.92088985E+00   2.15483246E+02   2.15483246E+02   6.92088985E+00  -8.95190477E-01   2.16378433E+02  -7.38363113E+01   2.12254547E+02  -8.78434956E-01   2.15466492E+02   6.92088985E+00   1.90410841E+00
             3566                2   2.12522141E+02   2.15450928E+02   2.15450928E+02  -7.38662541E-01   6.79668951E+00   2.15450928E+02   2.15450928E+02   6.79668951E+00  -7.38662541E-01   2.16189590E+02  -7.38363190E+01   2.12221237E+02  -7.36074567E-01   2.15448334E+02   6.79668951E+00   7.48829126E-01
             3566                3   2.12945557E+02   2.15706894E+02   2.15706894E+02  -1.55164683E+00   7.35370302E+00   2.15706894E+02   2.15706894E+02   7.35370302E+00  -1.55164683E+00   2.17258530E+02  -7.38363113E+01   2.12526001E+02  -1.53902590E+00   2.15694275E+02   7.35370302E+00   1.65545249E+00
             3566                4   2.12919373E+02   2.15695038E+02   2.15695038E+02  -1.40924561E+00   7.22315454E+00   2.15695038E+02   2.15695038E+02   7.22315454E+00  -1.40924561E+00   2.17104294E+02  -7.38363190E+01   2.12525101E+02  -1.40805209E+00   2.15693848E+02   7.22315454E+00   5.09366035E-01
             3567                1   1.87356964E+02   2.07670395E+02   2.07670395E+02   8.78585339E+00   3.44966316E+01   2.07670395E+02   2.07670395E+02   3.44966316E+01   8.78585339E+00   1.98884552E+02  -8.36509628E+01   1.83324951E+02   3.13801708E+01   1.85076080E+02   3.44966316E+01   6.31122627E+01
             3567                2   1.83277359E+02   2.05103058E+02   2.05103058E+02   1.13531828E+01   3.44966316E+01   2.05103058E+02   2.05103058E+02   3.44966316E+01   1.13531828E+01   1.93749878E+02  -8.36509552E+01   1.79945847E+02   3.29902344E+01   1.83466003E+02   3.44966316E+01   6.10247002E+01
             3567                3   1.88937454E+02   2.08662231E+02   2.08662231E+02   7.79401302E+00   3.44966316E+01   2.08662231E+02   2.08662231E+02   3.44966316E+01   7.79401302E+00   2.00868210E+02  -8.36509552E+01   1.84620544E+02   2.89280720E+01   1.87528168E+02   3.44966316E+01   6.16320686E+01
             3567                4   1.84852905E+02   2.06095825E+02   2.06095825E+02   1.03604212E+01   3.44966316E+01   2.06095825E+02   2.06095825E+02   3.44966316E+01   1.03604212E+01   1.95735413E+02  -8.36509628E+01   1.81256958E+02   3.05707664E+01   1.85885483E+02   3.44966316E+01   5.95602455E+01
             3568                1   3.40402145E+01   4.58817978E+01   4.58817978E+01   8.89099884E+00   1.58756666E+01   4.58817978E+01   4.58817978E+01   1.58756666E+01   8.89099884E+00   3.69907990E+01  -2.35494862E+01   3.23685188E+01   1.53338146E+01   3.94389839E+01   1.58756666E+01   1.40290766E+01
             3568                2   3.28085327E+01   4.51243324E+01   4.51243324E+01   9.64846420E+00   1.58756666E+01   4.51243324E+01   4.51243324E+01   1.58756666E+01   9.64846420E+00   3.54758682E+01  -2.35494862E+01   3.14374046E+01   1.57981148E+01   3.89746819E+01   1.58756666E+01   1.34292965E+01
             3568                3   3.41416702E+01   4.59440269E+01   4.59440269E+01   8.82876873E+00   1.58756666E+01   4.59440269E+01   4.59440269E+01   1.58756666E+01   8.82876873E+00   3.71152611E+01  -2.35494862E+01   3.24443398E+01   1.47225199E+01   4.00502777E+01   1.58756666E+01   1.35650940E+01
             3568                4   3.29040947E+01   4.51832352E+01   4.51832352E+01   9.58955956E+00   1.58756666E+01   4.51832352E+01   4.51832352E+01   1.58756666E+01   9.58955956E+00   3.55936775E+01  -2.35494862E+01   3.15103703E+01   1.51886702E+01   3.95841255E+01   1.58756666E+01   1.29592791E+01
             3569                1   1.08679077E+02   1.18323898E+02   1.18323898E+02   6.86236763E+00   1.26593037E+01   1.18323898E+02   1.18323898E+02   1.26593037E+01   6.86236763E+00   1.11461525E+02  -4.59485207E+01   1.08330406E+02   2.28857403E+01   1.02300522E+02   1.26593037E+01   3.91055145E+01
             3569                2   1.07796890E+02   1.17749825E+02   1.17749825E+02   7.43643332E+00   1.26593037E+01   1.17749825E+02   1.17749825E+02   1.26593037E+01   7.43643332E+00   1.10313393E+02  -4.59485207E+01   1.07511658E+02   2.42959366E+01   1.00890320E+02   1.26593037E+01   3.96936531E+01
             3569                3   1.06243301E+02   1.16735695E+02   1.16735695E+02   8.45056248E+00   1.26593037E+01   1.16735695E+02   1.16735695E+02   1.26593037E+01   8.45056248E+00   1.08285133E+02  -4.59485207E+01   1.06055489E+02   2.28534946E+01   1.02332764E+02   1.26593037E+01   3.67719841E+01
             3569                4   1.05300186E+02   1.16118027E+02   1.16118027E+02   9.06823254E+00   1.26593037E+01   1.16118027E+02   1.16118027E+02   1.26593037E+01   9.06823254E+00   1.07049789E+02  -4.59485207E+01   1.05162277E+02   2.47285404E+01   1.00457718E+02   1.26593037E+01   3.78310356E+01
             3570                1   5.71874237E+01   5.03613396E+01   5.03613396E+01  -4.50309324E+00  -8.89573956E+00   5.03613396E+01   5.03613396E+01  -4.50309324E+00  -8.89573956E+00   5.92570801E+01  -1.23208351E+01   5.68060036E+01   1.75932527E+00   4.40989189E+01  -8.89573956E+00   1.74460945E+01
             3570                2   5.66296387E+01   4.99728775E+01   4.99728775E+01  -4.11463451E+00  -8.89573956E+00   4.99728775E+01   4.99728775E+01  -4.11463451E+00  -8.89573956E+00   5.88686180E+01  -1.23208342E+01   5.61728630E+01   1.64532197E+00   4.42129211E+01  -8.89573956E+00   1.66842613E+01
             3570                3   5.82951660E+01   5.11278496E+01   5.11278496E+01  -5.26960564E+00  -8.89573956E+00   5.11278496E+01   5.11278496E+01  -5.26960564E+00  -8.89573956E+00   6.00235863E+01  -1.23208342E+01   5.80406113E+01   9.96359527E-01   4.48618813E+01  -8.89573956E+00   1.77234936E+01
             3570                4   5.77482414E+01   5.07502022E+01   5.07502022E+01  -4.89195967E+00  -8.89573956E+00   5.07502022E+01   5.07502022E+01  -4.89195967E+00  -8.89573956E+00   5.96459427E+01  -1.23208342E+01   5.74347267E+01   8.77839506E-01   4.49804039E+01  -8.89573956E+00   1.69632969E+01
             3571                1   8.05672760E+01   8.53064423E+01   8.53064423E+01   3.41534257E+00   6.13169527E+00   8.53064423E+01   8.53064423E+01   6.13169527E+00   3.41534257E+00   8.18910980E+01  -3.16178284E+01   8.04641495E+01   2.89224644E+01   5.97993240E+01   6.13169527E+00   3.79235153E+01
             3571                2   8.15549850E+01   8.59531403E+01   8.59531403E+01   2.76865005E+00   6.13169527E+00   8.59531403E+01   8.59531403E+01   6.13169527E+00   2.76865005E+00   8.31844864E+01  -3.16178284E+01   8.13987579E+01   2.91801529E+01   5.95416374E+01   6.13169527E+00   3.87228584E+01
             3571                3   7.98108215E+01   8.48096085E+01   8.48096085E+01   3.91217995E+00   6.13169527E+00   8.48096085E+01   8.48096085E+01   6.13169527E+00   3.91217995E+00   8.08974228E+01  -3.16178284E+01   7.97413406E+01   2.96539536E+01   5.90678368E+01   6.13169527E+00   3.76802902E+01
             3571                4   8.08039703E+01   8.54616241E+01   8.54616241E+01   3.26016212E+00   6.13169527E+00   8.54616241E+01   8.54616241E+01   6.13169527E+00   3.26016212E+00   8.22014618E+01  -3.16178284E+01   8.06890564E+01   2.99112701E+01   5.88105202E+01   6.13169527E+00   3.84769859E+01
             3572                1   1.26177238E+02   1.50477417E+02   1.50477417E+02   2.27252159E+01   2.59364471E+01   1.50477417E+02   1.50477417E+02   2.59364471E+01   2.27252159E+01   1.27752205E+02  -6.63796921E+01   1.26085251E+02   2.40554371E+01   1.49147202E+02   2.59364471E+01   1.29680014E+01
             3572                2   1.26262451E+02   1.50533524E+02   1.50533524E+02   2.26691189E+01   2.59364471E+01   1.50533524E+02   1.50533524E+02   2.59364471E+01   2.26691189E+01   1.27864403E+02  -6.63796921E+01   1.26167274E+02   2.41225090E+01   1.49080124E+02   2.59364471E+01   1.35545225E+01
             3572                3   1.25303108E+02   1.49901260E+02   1.49901260E+02   2.33013973E+01   2.59364471E+01   1.49901260E+02   1.49901260E+02   2.59364471E+01   2.33013973E+01   1.26599854E+02  -6.63796997E+01   1.25240746E+02   2.46178837E+01   1.48584763E+02   2.59364471E+01   1.28426647E+01
             3572                4   1.25357689E+02   1.49937256E+02   1.49937256E+02   2.32653790E+01   2.59364471E+01   1.49937256E+02   1.49937256E+02   2.59364471E+01   2.32653790E+01   1.26671883E+02  -6.63796921E+01   1.25293633E+02   2.47055016E+01   1.48497131E+02   2.59364471E+01   1.34294310E+01
             3573                1   1.32838043E+02   1.58761917E+02   1.58761917E+02   2.35903015E+01   2.83874111E+01   1.58761917E+02   1.58761917E+02   2.83874111E+01   2.35903015E+01   1.35171616E+02  -7.02465439E+01   1.32642944E+02   2.57012939E+01   1.56650925E+02   2.83874111E+01   1.67597713E+01
             3573                2   1.31229721E+02   1.57706360E+02   1.57706360E+02   2.46458626E+01   2.83874111E+01   1.57706360E+02   1.57706360E+02   2.83874111E+01   2.46458626E+01   1.33060501E+02  -7.02465439E+01   1.31109650E+02   2.67238674E+01   1.55628357E+02   2.83874111E+01   1.64979267E+01
             3573                3   1.33266815E+02   1.59042709E+02   1.59042709E+02   2.33095131E+01   2.83874111E+01   1.59042709E+02   1.59042709E+02   2.83874111E+01   2.33095131E+01   1.35733200E+02  -7.02465439E+01   1.33048904E+02   2.51252155E+01   1.57227005E+02   2.83874111E+01   1.55933990E+01
             3573                4   1.31430191E+02   1.57838135E+02   1.57838135E+02   2.45140877E+01   2.83874111E+01   1.57838135E+02   1.57838135E+02   2.83874111E+01   2.45140877E+01   1.33324036E+02  -7.02465439E+01   1.31301697E+02   2.62522583E+01   1.56099960E+02   2.83874111E+01   1.51234455E+01
             3574                1   1.97801071E+02   1.99600311E+02   1.99600311E+02   4.99881595E-01   3.12471151E+00   1.99600311E+02   1.99600311E+02   3.12471151E+00   4.99881595E-01   1.99100433E+02  -6.77416306E+01   1.97761887E+02   5.02853990E-01   1.99597336E+02   3.12471151E+00   7.69206047E-01
             3574                2   1.97887131E+02   1.99657303E+02   1.99657303E+02   4.42976594E-01   3.12462378E+00   1.99657303E+02   1.99657303E+02   3.12462378E+00   4.42976594E-01   1.99214325E+02  -6.77416306E+01   1.97846252E+02   4.53000575E-01   1.99647278E+02   3.12462378E+00   1.41325426E+00
             3574                3   1.96842316E+02   1.98964813E+02   1.98964813E+02   1.13483131E+00   3.12525892E+00   1.98964813E+02   1.98964813E+02   3.12525892E+00   1.13483131E+00   1.97829971E+02  -6.77416306E+01   1.96819672E+02   1.13822901E+00   1.98961411E+02   3.12525892E+00   8.19887996E-01
             3574                4   1.96926987E+02   1.99020981E+02   1.99020981E+02   1.07875621E+00   3.12517214E+00   1.99020981E+02   1.99020981E+02   3.12517214E+00   1.07875621E+00   1.97942215E+02  -6.77416306E+01   1.96903061E+02   1.08958519E+00   1.99010147E+02   3.12517214E+00   1.46397626E+00
             3575                1   1.97713150E+02   1.99791580E+02   1.99791580E+02   7.74066269E-01   3.40913057E+00   1.99791580E+02   1.99791580E+02   3.40913057E+00   7.74066269E-01   1.99017517E+02  -6.79915924E+01   1.97673630E+02   7.74074197E-01   1.99791565E+02   3.40913057E+00   4.90784571E-02
             3575                2   1.97741272E+02   1.99810211E+02   1.99810211E+02   7.55465269E-01   3.40910101E+00   1.99810211E+02   1.99810211E+02   3.40910101E+00   7.55465269E-01   1.99054749E+02  -6.79915924E+01   1.97701218E+02   7.57814467E-01   1.99807861E+02   3.40910101E+00   6.83538795E-01
             3575                3   1.96758041E+02   1.99158508E+02   1.99158508E+02   1.40657985E+00   3.40966845E+00   1.99158508E+02   1.99158508E+02   3.40966845E+00   1.40657985E+00   1.97751938E+02  -6.79915848E+01   1.96735092E+02   1.40660548E+00   1.99158493E+02   3.40966845E+00   6.45822957E-02
             3575                4   1.96785568E+02   1.99176773E+02   1.99176773E+02   1.38834894E+00   3.40963936E+00   1.99176773E+02   1.99176773E+02   3.40963936E+00   1.38834894E+00   1.97788422E+02  -6.79915848E+01   1.96762207E+02   1.39082372E+00   1.99174301E+02   3.40963936E+00   6.99579000E-01
             3576                1   4.18965111E+01   4.72396431E+01   4.72396431E+01   5.26705551E+00   5.41962099E+00   4.72396431E+01   4.72396431E+01   5.41962099E+00   5.26705551E+00   4.19725876E+01  -1.93087730E+01   4.18958893E+01   5.59435463E+00   4.69123459E+01   5.41962099E+00   3.69193673E+00
             3576                2   4.15148239E+01   4.69852638E+01   4.69852638E+01   5.52144003E+00   5.41962099E+00   4.69852638E+01   4.69852638E+01   5.52144003E+00   5.41962099E+00   4.15656395E+01  -1.93087749E+01   4.15145454E+01   5.84023237E+00   4.66664696E+01   5.41962099E+00   3.62170386E+00
             3576                3   4.19512177E+01   4.72760391E+01   4.72760391E+01   5.23065901E+00   5.41962099E+00   4.72760391E+01   4.72760391E+01   5.41962099E+00   5.23065901E+00   4.20453796E+01  -1.93087730E+01   4.19502640E+01   5.51889610E+00   4.69878044E+01   5.41962099E+00   3.46927667E+00
             3576                4   4.15672417E+01   4.70202408E+01   4.70202408E+01   5.48646021E+00   5.41962099E+00   4.70202408E+01   4.70202408E+01   5.48646021E+00   5.41962099E+00   4.16006203E+01  -1.93087749E+01   4.15671196E+01   5.76568556E+00   4.67410164E+01   5.41962099E+00   3.39401579E+00
             3577                1   3.58360672E+01   3.91779099E+01   3.91779099E+01   2.20694733E+00   4.59632254E+00   3.91779099E+01   3.91779099E+01   4.59632254E+00   2.20694733E+00   3.69709625E+01  -1.53270597E+01   3.56561890E+01   4.17076492E+00   3.72140923E+01   4.59632254E+00   8.29141998E+00
             3577                2   3.57544479E+01   3.91251526E+01   3.91251526E+01   2.25970435E+00   4.59632254E+00   3.91251526E+01   3.91251526E+01   4.59632254E+00   2.25970435E+00   3.68654480E+01  -1.53270597E+01   3.55820580E+01   4.25888062E+00   3.71259766E+01   4.59632254E+00   8.34888172E+00
             3577                3   3.57078247E+01   3.90950012E+01   3.90950012E+01   2.28985476E+00   4.59632254E+00   3.90950012E+01   3.90950012E+01   4.59632254E+00   2.28985476E+00   3.68051491E+01  -1.53270597E+01   3.55396500E+01   4.22021723E+00   3.71646385E+01   4.59632254E+00   8.20493889E+00
             3577                4   3.56251526E+01   3.90415154E+01   3.90415154E+01   2.34334183E+00   4.59632254E+00   3.90415154E+01   3.90415154E+01   4.59632254E+00   2.34334183E+00   3.66981735E+01  -1.53270597E+01   3.54643402E+01   4.30978727E+00   3.70750694E+01   4.59632254E+00   8.26426411E+00
             3578                1   3.90334015E+01   4.56215782E+01   4.56215782E+01   6.61729431E+00   6.55912685E+00   4.56215782E+01   4.56215782E+01   6.61729431E+00   6.55912685E+00   3.90624504E+01  -1.95993328E+01   3.90333023E+01   7.03091097E+00   4.52079620E+01   6.55912685E+00   3.99521375E+00
             3578                2   3.90875587E+01   4.56577034E+01   4.56577034E+01   6.58117008E+00   6.55912685E+00   4.56577034E+01   4.56577034E+01   6.58117008E+00   6.55912685E+00   3.90985756E+01  -1.95993328E+01   3.90875435E+01   6.94805861E+00   4.52908134E+01   6.55912685E+00   3.76857257E+00
             3578                3   3.94307556E+01   4.58862343E+01   4.58862343E+01   6.35263968E+00   6.55912685E+00   4.58862343E+01   4.58862343E+01   6.55912685E+00   6.35263968E+00   3.95335922E+01  -1.95993328E+01   3.94295349E+01   6.78004313E+00   4.54588280E+01   6.55912685E+00   4.08829689E+00
             3578                4   3.94838753E+01   4.59215469E+01   4.59215469E+01   6.31732559E+00   6.55912685E+00   4.59215469E+01   4.59215469E+01   6.55912685E+00   6.31732559E+00   3.96042213E+01  -1.95993328E+01   3.94822083E+01   6.69747210E+00   4.55414009E+01   6.55912685E+00   3.86145973E+00
             3579                1   1.87512939E+02   2.03741714E+02   2.03741714E+02   8.57159996E+00   2.49619865E+01   2.03741714E+02   2.03741714E+02   2.49619865E+01   8.57159996E+00   1.95170105E+02  -7.90917664E+01   1.85891037E+02   9.11065388E+00   2.03202652E+02   2.49619865E+01   1.02429132E+01
             3579                2   1.88894791E+02   2.04528778E+02   2.04528778E+02   6.73411226E+00   2.60123978E+01   2.04528778E+02   2.04528778E+02   2.60123978E+01   6.73411226E+00   1.97794662E+02  -7.90917664E+01   1.86662277E+02   6.89013720E+00   2.04372757E+02   2.60123978E+01   5.55305910E+00
             3579                3   1.89388626E+02   2.04784866E+02   2.04784866E+02   5.90347433E+00   2.65869579E+01   2.04784866E+02   2.04784866E+02   2.65869579E+01   5.90347433E+00   1.98881393E+02  -7.90917664E+01   1.86822266E+02   6.88084507E+00   2.03807495E+02   2.65869579E+01   1.39077463E+01
             3579                4   1.90590042E+02   2.05447357E+02   2.05447357E+02   4.34305859E+00   2.74848804E+01   2.05447357E+02   2.05447357E+02   2.74848804E+01   4.34305859E+00   2.01104309E+02  -7.90917664E+01   1.87390060E+02   4.80386734E+00   2.04986557E+02   2.74848804E+01   9.61548424E+00
             3580                1   2.12486694E+02   2.15438171E+02   2.15438171E+02  -6.49982929E-01   6.74606657E+00   2.15438171E+02   2.15438171E+02   6.74606657E+00  -6.49982929E-01   2.16088165E+02  -7.38447495E+01   2.12196793E+02  -6.45588756E-01   2.15433777E+02   6.74606657E+00   9.74939942E-01
             3580                2   2.12472336E+02   2.15430252E+02   2.15430252E+02  -5.98211229E-01   6.70221710E+00   2.15430252E+02   2.15430252E+02   6.70221710E+00  -5.98211229E-01   2.16028473E+02  -7.38447571E+01   2.12189865E+02  -5.98181009E-01   2.15430222E+02   6.70221710E+00  -8.84291157E-02
             3580                3   2.12856125E+02   2.15665482E+02   2.15665482E+02  -1.27699566E+00   7.14576674E+00   2.15665482E+02   2.15665482E+02   7.14576674E+00  -1.27699566E+00   2.16942474E+02  -7.38447495E+01   2.12480682E+02  -1.27331996E+00   2.15661804E+02   7.14576674E+00   8.93529058E-01
             3580                4   2.12841812E+02   2.15657806E+02   2.15657806E+02  -1.22581589E+00   7.10227394E+00   2.15657806E+02   2.15657806E+02   7.10227394E+00  -1.22581589E+00   2.16883621E+02  -7.38447571E+01   2.12474747E+02  -1.22569883E+00   2.15657684E+02   7.10227394E+00  -1.63460061E-01
             3581                1   6.15380211E+01   5.53119469E+01   5.53119469E+01  -5.05235004E+00  -7.33620977E+00   5.53119469E+01   5.53119469E+01  -5.05235004E+00  -7.33620977E+00   6.26481590E+01  -1.43077965E+01   6.14425583E+01  -1.83601069E+00   5.20956078E+01  -7.33620977E+00   1.35575542E+01
             3581                2   6.11506386E+01   5.50483513E+01   5.50483513E+01  -4.78875208E+00  -7.33620977E+00   5.50483513E+01   5.50483513E+01  -4.78875208E+00  -7.33620977E+00   6.23845596E+01  -1.43077965E+01   6.10310822E+01  -1.78503084E+00   5.20446281E+01  -7.33620977E+00   1.30656672E+01
             3581                3   6.21781578E+01   5.57461433E+01   5.57461433E+01  -5.48654461E+00  -7.33620977E+00   5.57461433E+01   5.57461433E+01  -5.48654461E+00  -7.33620977E+00   6.30823517E+01  -1.43077965E+01   6.21162071E+01  -2.34207606E+00   5.26016731E+01  -7.33620977E+00   1.35150509E+01
             3581                4   6.17952003E+01   5.54865952E+01   5.54865952E+01  -5.22699738E+00  -7.33620977E+00   5.54865952E+01   5.54865952E+01  -5.22699738E+00  -7.33620977E+00   6.28228035E+01  -1.43077965E+01   6.17141304E+01  -2.29420066E+00   5.25537987E+01  -7.33620977E+00   1.30176535E+01
             3582                1   3.66256599E+01   4.05340652E+01   4.05340652E+01   1.74336183E+00   6.54762173E+00   4.05340652E+01   4.05340652E+01   6.54762173E+00   1.74336183E+00   3.87907028E+01  -1.62750168E+01   3.59064941E+01   3.51032495E+00   3.87671013E+01   6.54762173E+00   8.08824062E+00
             3582                2   3.66910667E+01   4.05752296E+01   4.05752296E+01   1.70219767E+00   6.54762173E+00   4.05752296E+01   4.05752296E+01   6.54762173E+00   1.70219767E+00   3.88730316E+01  -1.62750168E+01   3.59606857E+01   3.56364679E+00   3.87137794E+01   6.54762173E+00   8.30031490E+00
             3582                3   3.63058128E+01   4.03325691E+01   4.03325691E+01   1.94485831E+00   6.54762173E+00   4.03325691E+01   4.03325691E+01   6.54762173E+00   1.94485831E+00   3.83877106E+01  -1.62750168E+01   3.56405373E+01   3.70493102E+00   3.85724983E+01   6.54762173E+00   8.02915001E+00
             3582                4   3.63709488E+01   4.03736305E+01   4.03736305E+01   1.90379834E+00   6.54762173E+00   4.03736305E+01   4.03736305E+01   6.54762173E+00   1.90379834E+00   3.84698296E+01  -1.62750168E+01   3.56948280E+01   3.75835752E+00   3.85190697E+01   6.54762173E+00   8.24046135E+00
             3583                1   1.94939560E+02   1.97108368E+02   1.97108368E+02   1.18309319E+00   3.16969204E+00   1.97108368E+02   1.97108368E+02   3.16969204E+00   1.18309319E+00   1.95925278E+02  -6.71537170E+01   1.94916794E+02   1.18311298E+00   1.97108353E+02   3.16969204E+00   4.90442924E-02
             3583                2   1.94966522E+02   1.97126251E+02   1.97126251E+02   1.16524160E+00   3.16966558E+00   1.97126251E+02   1.97126251E+02   3.16966558E+00   1.16524160E+00   1.95960999E+02  -6.71537170E+01   1.94943344E+02   1.16713977E+00   1.97124344E+02   3.16966558E+00   6.10701203E-01
             3583                3   1.94097839E+02   1.96549637E+02   1.96549637E+02   1.74135721E+00   3.17015338E+00   1.96549637E+02   1.96549637E+02   3.17015338E+00   1.74135721E+00   1.94808289E+02  -6.71537170E+01   1.94085999E+02   1.74137533E+00   1.96549622E+02   3.17015338E+00   6.49196357E-02
             3583                4   1.94123154E+02   1.96566467E+02   1.96566467E+02   1.72456646E+00   3.17012787E+00   1.96566467E+02   1.96566467E+02   3.17012787E+00   1.72456646E+00   1.94841904E+02  -6.71537170E+01   1.94111053E+02   1.72658205E+00   1.96564453E+02   3.17012787E+00   6.26003504E-01
             3584                1   1.97093109E+02   1.98628281E+02   1.98628281E+02   5.44763803E-01   2.54073000E+00   1.98628281E+02   1.98628281E+02   2.54073000E+00   5.44763803E-01   1.98083527E+02  -6.72379227E+01   1.97070389E+02   5.57058096E-01   1.98615997E+02   2.54073000E+00   1.56014633E+00
             3584                2   1.98062225E+02   1.99270645E+02   1.99270645E+02  -9.70078558E-02   2.54016423E+00   1.99270645E+02   1.99270645E+02   2.54016423E+00  -9.70078558E-02   1.99367645E+02  -6.72379303E+01   1.98022720E+02  -8.62186700E-02   1.99259842E+02   2.54016423E+00   1.46703649E+00
             3584                3   1.97233078E+02   1.98721115E+02   1.98721115E+02   4.52082753E-01   2.54058433E+00   1.98721115E+02   1.98721115E+02   2.54058433E+00   4.52082753E-01   1.98269043E+02  -6.72379303E+01   1.97208191E+02   4.77051079E-01   1.98696152E+02   2.54058433E+00   2.22480607E+00
             3584                4   1.98207611E+02   1.99366913E+02   1.99366913E+02  -1.93145737E-01   2.54001474E+00   1.99366913E+02   1.99366913E+02   2.54001474E+00  -1.93145737E-01   1.99560059E+02  -6.72379227E+01   1.98165207E+02  -1.70351475E-01   1.99344116E+02   2.54001474E+00   2.13278532E+00
             3585                1   9.29775925E+01   8.87979431E+01   8.87979431E+01  -4.27844429E+00  -4.08053350E+00   8.87979431E+01   8.87979431E+01  -4.08053350E+00  -4.27844429E+00   9.30763931E+01  -2.68129883E+01   9.29771194E+01  -2.77576542E+00   8.72952652E+01  -4.08053350E+00   1.17305574E+01
             3585                2   9.24685822E+01   8.84586563E+01   8.84586563E+01  -3.93915653E+00  -4.08053350E+00   8.84586563E+01   8.84586563E+01  -3.93915653E+00  -4.08053350E+00   9.25391922E+01  -2.68129883E+01   9.24683456E+01  -2.40580630E+00   8.69253082E+01  -4.08053350E+00   1.18036833E+01
             3585                3   9.27399063E+01   8.86395874E+01   8.86395874E+01  -4.12008762E+00  -4.08053350E+00   8.86395874E+01   8.86395874E+01  -4.08053350E+00  -4.12008762E+00   9.27596741E+01  -2.68129883E+01   9.27398911E+01  -2.71048665E+00   8.72299881E+01  -4.08053350E+00   1.13475590E+01
             3585                4   9.22287827E+01   8.82985992E+01   8.82985992E+01  -3.77909589E+00  -4.08053350E+00   8.82985992E+01   8.82985992E+01  -3.77909589E+00  -4.08053350E+00   9.23791275E+01  -2.68129883E+01   9.22276764E+01  -2.34039760E+00   8.68599014E+01  -4.08053350E+00   1.14193649E+01
             3586                1   4.02451172E+01   3.37855072E+01   3.37855072E+01  -2.46746898E+00  -9.51955795E+00   3.37855072E+01   3.37855072E+01  -2.46746898E+00  -9.51955795E+00   4.33050652E+01  -7.26615953E+00   3.88183517E+01   1.14433563E+00   3.01737022E+01  -9.51955795E+00   1.08578777E+01
             3586                2   3.99524879E+01   3.35684242E+01   3.35684242E+01  -2.25038576E+00  -9.51955795E+00   3.35684242E+01   3.35684242E+01  -2.25038576E+00  -9.51955795E+00   4.30879822E+01  -7.26616049E+00   3.84221840E+01   1.03056467E+00   3.02874737E+01  -9.51955795E+00   1.03322372E+01
             3586                3   4.09267616E+01   3.42873039E+01   3.42873039E+01  -2.96926570E+00  -9.51955795E+00   3.42873039E+01   3.42873039E+01  -2.96926570E+00  -9.51955795E+00   4.38068619E+01  -7.26616049E+00   3.97216949E+01   6.31570399E-01   3.06864681E+01  -9.51955795E+00   1.10085783E+01
             3586                4   4.06259613E+01   3.40665207E+01   3.40665207E+01  -2.74847984E+00  -9.51955795E+00   3.40665207E+01   3.40665207E+01  -2.74847984E+00  -9.51955795E+00   4.35860786E+01  -7.26616049E+00   3.93263130E+01   5.20269334E-01   3.07977695E+01  -9.51955795E+00   1.04715939E+01
             3587                1   3.77304039E+01   5.03315125E+01   5.03315125E+01   9.22766113E+00   1.72720528E+01   5.03315125E+01   5.03315125E+01   1.72720528E+01   9.22766113E+00   4.11038513E+01  -2.56104069E+01   3.57236900E+01   1.60980072E+01   4.34611664E+01   1.72720528E+01   1.53361015E+01
             3587                2   3.55418434E+01   4.89870872E+01   4.89870872E+01   1.05720873E+01   1.72720528E+01   4.89870872E+01   4.89870872E+01   1.72720528E+01   1.05720873E+01   3.84150009E+01  -2.56104069E+01   3.40773277E+01   1.70712776E+01   4.24878960E+01   1.72720528E+01   1.44023237E+01
             3587                3   3.76604385E+01   5.02886925E+01   5.02886925E+01   9.27048111E+00   1.72720528E+01   5.02886925E+01   5.02886925E+01   1.72720528E+01   9.27048111E+00   4.10182114E+01  -2.56104069E+01   3.56719208E+01   1.51444120E+01   4.44147606E+01   1.72720528E+01   1.43678503E+01
             3587                4   3.54638100E+01   4.89389496E+01   4.89389496E+01   1.06202240E+01   1.72720528E+01   4.89389496E+01   4.89389496E+01   1.72720528E+01   1.06202240E+01   3.83187256E+01  -2.56104069E+01   3.40175438E+01   1.61149235E+01   4.34442482E+01   1.72720528E+01   1.34297495E+01
             3588                1   1.90637695E+02   1.91106903E+02   1.91106903E+02   1.54212475E-01   7.85745680E-01   1.91106903E+02   1.91106903E+02   7.85745680E-01   1.54212475E-01   1.90952682E+02  -6.40156174E+01   1.90635345E+02   1.74684018E-01   1.91086426E+02   7.85745680E-01   1.97696948E+00
             3588                2   1.90441116E+02   1.90976028E+02   1.90976028E+02   2.84896106E-01   7.85927713E-01   1.90976028E+02   1.90976028E+02   7.85927713E-01   2.84896106E-01   1.90691132E+02  -6.40156174E+01   1.90439621E+02   2.96925187E-01   1.90964005E+02   7.85927713E-01   1.51421642E+00
             3588                3   1.91275726E+02   1.91531311E+02   1.91531311E+02  -2.69835323E-01   7.85377204E-01   1.91531311E+02   1.91531311E+02   7.85377204E-01  -2.69835323E-01   1.91801147E+02  -6.40156174E+01   1.91269180E+02  -2.51565129E-01   1.91513046E+02   7.85377204E-01   1.87153924E+00
             3588                4   1.91081299E+02   1.91402023E+02   1.91402023E+02  -1.40734971E-01   7.85559297E-01   1.91402023E+02   1.91402023E+02   7.85559297E-01  -1.40734971E-01   1.91542755E+02  -6.40156174E+01   1.91076263E+02  -1.30470932E-01   1.91391769E+02   7.85559297E-01   1.40162849E+00
             3589                1   2.13652435E+02   2.17185898E+02   2.17185898E+02  -1.55089986E+00   9.00947380E+00   2.17185898E+02   2.17185898E+02   9.00947380E+00  -1.55089986E+00   2.18736801E+02  -7.48814926E+01   2.13064041E+02  -1.54117239E+00   2.17176163E+02   9.00947380E+00   1.45896733E+00
             3589                2   2.13433746E+02   2.17067047E+02   2.17067047E+02  -9.13022518E-01   8.49044132E+00   2.17067047E+02   2.17067047E+02   8.49044132E+00  -9.13022518E-01   2.17980072E+02  -7.48814926E+01   2.12966919E+02  -8.98771226E-01   2.17052795E+02   8.49044132E+00   1.76234603E+00
             3589                3   2.13624451E+02   2.17175034E+02   2.17175034E+02  -1.38477266E+00   8.85418415E+00   2.17175034E+02   2.17175034E+02   8.85418415E+00  -1.38477266E+00   2.18559814E+02  -7.48814850E+01   2.13071320E+02  -1.38453245E+00   2.17174805E+02   8.85418415E+00   2.27050558E-01
             3589                4   2.13404175E+02   2.17054520E+02   2.17054520E+02  -7.40293443E-01   8.33023739E+00   2.17054520E+02   2.17054520E+02   8.33023739E+00  -7.40293443E-01   2.17794815E+02  -7.48814850E+01   2.12969818E+02  -7.39039183E-01   2.17053268E+02   8.33023739E+00   5.21608889E-01
             3590                1   3.93312035E+01   4.59220505E+01   4.59220505E+01   6.61417866E+00   6.56755447E+00   4.59220505E+01   4.59220505E+01   6.61417866E+00   6.56755447E+00   3.93544960E+01  -1.97012615E+01   3.93311424E+01   6.89310408E+00   4.56431236E+01   6.56755447E+00   3.29942179E+00
             3590                2   3.97221909E+01   4.61824341E+01   4.61824341E+01   6.35379028E+00   6.56755447E+00   4.61824341E+01   4.61824341E+01   6.56755447E+00   6.35379028E+00   3.98286438E+01  -1.97012596E+01   3.97208977E+01   6.64239264E+00   4.58938332E+01   6.56755447E+00   3.37805963E+00
             3590                3   3.92840195E+01   4.58905678E+01   4.58905678E+01   6.64565992E+00   6.56755447E+00   4.58905678E+01   4.58905678E+01   6.64565992E+00   6.56755447E+00   3.93230133E+01  -1.97012615E+01   3.92838440E+01   6.96525908E+00   4.55709686E+01   6.56755447E+00   3.52711082E+00
             3590                4   3.96702957E+01   4.61479225E+01   4.61479225E+01   6.38830614E+00   6.56755447E+00   4.61479225E+01   4.61479225E+01   6.56755447E+00   6.38830614E+00   3.97596169E+01  -1.97012615E+01   3.96693840E+01   6.71764994E+00   4.58185768E+01   6.56755447E+00   3.60363317E+00
             3591                1   1.87566467E+02   1.90152725E+02   1.90152725E+02   2.56230950E+00   2.61024141E+00   1.90152725E+02   1.90152725E+02   2.61024141E+00   2.56230950E+00   1.87590424E+02  -6.51084290E+01   1.87566437E+02   2.56252408E+00   1.90152512E+02   2.61024141E+00   2.03583881E-01
             3591                2   1.87542694E+02   1.90136887E+02   1.90136887E+02   2.57813501E+00   2.61026096E+00   1.90136887E+02   1.90136887E+02   2.61026096E+00   2.57813501E+00   1.87558762E+02  -6.51084290E+01   1.87542694E+02   2.57813478E+00   1.90136887E+02   2.61026096E+00   3.12004890E-02
             3591                3   1.87823471E+02   1.90324005E+02   1.90324005E+02   2.39115882E+00   2.61010957E+00   1.90324005E+02   1.90324005E+02   2.61010957E+00   2.39115882E+00   1.87932846E+02  -6.51084213E+01   1.87823181E+02   2.39136100E+00   1.90323807E+02   2.61010957E+00   1.93227127E-01
             3591                4   1.87799149E+02   1.90307800E+02   1.90307800E+02   2.40734673E+00   2.61012959E+00   1.90307800E+02   1.90307800E+02   2.61012959E+00   2.40734673E+00   1.87900452E+02  -6.51084213E+01   1.87798904E+02   2.40734839E+00   1.90307800E+02   2.61012959E+00   1.84799675E-02
             3592                1   2.08339813E+02   2.08097305E+02   2.08097305E+02  -3.54722071E+00   3.22742963E+00   2.08097305E+02   2.08097305E+02   3.22742963E+00  -3.54722071E+00   2.11644516E+02  -6.92591705E+01   2.08091782E+02  -3.46174216E+00   2.08011826E+02   3.22742963E+00   4.25239944E+00
             3592                2   2.07632278E+02   2.07643158E+02   2.07643158E+02  -2.72417593E+00   2.85852385E+00   2.07643158E+02   2.07643158E+02   2.85852385E+00  -2.72417593E+00   2.10367325E+02  -6.92591629E+01   2.07463318E+02  -2.61732483E+00   2.07536301E+02   2.85852385E+00   4.73989296E+00
             3592                3   2.08197128E+02   2.08011688E+02   2.08011688E+02  -3.19722867E+00   2.96305323E+00   2.08011688E+02   2.08011688E+02   2.96305323E+00  -3.19722867E+00   2.11208908E+02  -6.92591705E+01   2.07991928E+02  -3.15652466E+00   2.07970978E+02   2.96305323E+00   2.93179035E+00
             3592                4   2.07517960E+02   2.07574158E+02   2.07574158E+02  -2.40656877E+00   2.60993028E+00   2.07574158E+02   2.07574158E+02   2.60993028E+00  -2.40656877E+00   2.09980728E+02  -6.92591705E+01   2.07381470E+02  -2.35115528E+00   2.07518738E+02   2.60993028E+00   3.41081882E+00
             3593                1   2.09563858E+02   2.10826965E+02   2.10826965E+02  -1.80042231E+00   4.46726465E+00   2.10826965E+02   2.10826965E+02   4.46726465E+00  -1.80042231E+00   2.12627396E+02  -7.11646042E+01   2.09352814E+02  -1.72597229E+00   2.10752518E+02   4.46726465E+00   3.97814059E+00
             3593                2   2.09479660E+02   2.10777969E+02   2.10777969E+02  -1.52695286E+00   4.24280167E+00   2.10777969E+02   2.10777969E+02   4.24280167E+00  -1.52695286E+00   2.12304932E+02  -7.11646042E+01   2.09300766E+02  -1.49383843E+00   2.10744858E+02   4.24280167E+00   2.65139246E+00
             3593                3   2.10207108E+02   2.11237747E+02   2.11237747E+02  -2.56606460E+00   4.82213449E+00   2.11237747E+02   2.11237747E+02   4.82213449E+00  -2.56606460E+00   2.13803802E+02  -7.11646042E+01   2.09914688E+02  -2.50851274E+00   2.11180191E+02   4.82213449E+00   3.50730085E+00
             3593                4   2.10107681E+02   2.11180161E+02   2.11180161E+02  -2.28008509E+00   4.59373713E+00   2.11180161E+02   2.11180161E+02   4.59373713E+00  -2.28008509E+00   2.13460236E+02  -7.11646042E+01   2.09854462E+02  -2.25690985E+00   2.11156982E+02   4.59373713E+00   2.22394943E+00
             3594                1   1.32306992E+02   1.51350372E+02   1.51350372E+02   1.46852388E+01   2.38813572E+01   1.51350372E+02   1.51350372E+02   2.38813572E+01   1.46852388E+01   1.36665131E+02  -6.33056602E+01   1.31585037E+02   3.21486130E+01   1.33886993E+02   2.38813572E+01   4.56252708E+01
             3594                2   1.34548645E+02   1.52794159E+02   1.52794159E+02   1.32414427E+01   2.38813572E+01   1.52794159E+02   1.52794159E+02   2.38813572E+01   1.32414427E+01   1.39552719E+02  -6.33056526E+01   1.33597214E+02   2.87042255E+01   1.37331375E+02   2.38813572E+01   4.38038292E+01
             3594                3   1.36123642E+02   1.53805099E+02   1.53805099E+02   1.22304974E+01   2.38813572E+01   1.53805099E+02   1.53805099E+02   2.38813572E+01   1.22304974E+01   1.41574600E+02  -6.33056526E+01   1.34995026E+02   3.14235973E+01   1.34612000E+02   2.38813572E+01   4.84652519E+01
             3594                4   1.37834045E+02   1.54899887E+02   1.54899887E+02   1.11357079E+01   2.38813572E+01   1.54899887E+02   1.54899887E+02   2.38813572E+01   1.11357079E+01   1.43764191E+02  -6.33056526E+01   1.36498779E+02   2.84136715E+01   1.37621933E+02   2.38813572E+01   4.67485199E+01
             3595                1   4.80838013E+01   4.75962143E+01   4.75962143E+01  -2.11376190E-01  -7.59119451E-01   4.75962143E+01   4.75962143E+01  -2.11376190E-01  -7.59119451E-01   4.83553352E+01  -1.55419054E+01   4.80767822E+01   1.26436532E+00   4.61204720E+01  -7.59119451E-01   8.26884937E+00
             3595                2   4.84004478E+01   4.78082886E+01   4.78082886E+01  -4.23451334E-01  -7.59119451E-01   4.78082886E+01   4.78082886E+01  -4.23451334E-01  -7.59119451E-01   4.85674095E+01  -1.55419054E+01   4.83978310E+01   1.11028492E+00   4.62745514E+01  -7.59119451E-01   8.46300793E+00
             3595                3   4.78779564E+01   4.74580879E+01   4.74580879E+01  -7.32525513E-02  -7.59119451E-01   4.74580879E+01   4.74580879E+01  -7.32525513E-02  -7.59119451E-01   4.82172050E+01  -1.55419044E+01   4.78669052E+01   1.45444274E+00   4.59303932E+01  -7.59119451E-01   8.38328552E+00
             3595                4   4.81942673E+01   4.76702538E+01   4.76702538E+01  -2.85417795E-01  -7.59119451E-01   4.76702538E+01   4.76702538E+01  -2.85417795E-01  -7.59119451E-01   4.84293709E+01  -1.55419044E+01   4.81890297E+01   1.30246544E+00   4.60823708E+01  -7.59119451E-01   8.58059120E+00
             3596                1   2.14050903E+02   2.18432800E+02   2.18432800E+02  -1.16532314E+00   1.03978367E+01   2.18432800E+02   2.18432800E+02   1.03978367E+01  -1.16532314E+00   2.19598114E+02  -7.58884354E+01   2.13346497E+02  -1.16253245E+00   2.18430008E+02   1.03978367E+01   7.82245398E-01
             3596                2   2.13923462E+02   2.18377594E+02   2.18377594E+02  -5.56510270E-01   9.84421635E+00   2.18377594E+02   2.18377594E+02   9.84421635E+00  -5.56510270E-01   2.18934113E+02  -7.58884354E+01   2.13353470E+02  -5.52612305E-01   2.18373703E+02   9.84421635E+00   9.23787951E-01
             3596                3   2.14037979E+02   2.18427612E+02   2.18427612E+02  -1.09876621E+00   1.03364697E+01   2.18427612E+02   2.18427612E+02   1.03364697E+01  -1.09876621E+00   2.19526367E+02  -7.58884354E+01   2.13349075E+02  -1.09782445E+00   2.18426666E+02   1.03364697E+01  -4.54774082E-01
             3596                4   2.13909897E+02   2.18371796E+02   2.18371796E+02  -4.86552894E-01   9.78005886E+00   2.18371796E+02   2.18371796E+02   9.78005886E+00  -4.86552894E-01   2.18858337E+02  -7.58884354E+01   2.13354523E+02  -4.86031413E-01   2.18371277E+02   9.78005886E+00  -3.35619688E-01
             3597                1   9.08206253E+01   8.92898483E+01   8.92898483E+01  -1.50502491E+00  -1.55651617E+00   8.92898483E+01   8.92898483E+01  -1.50502491E+00  -1.55651617E+00   9.08463593E+01  -2.87427673E+01   9.08205948E+01   4.38380671E+00   8.34010162E+01  -1.55651617E+00   2.23606167E+01
             3597                2   9.01665955E+01   8.88531723E+01   8.88531723E+01  -1.06835032E+00  -1.55651617E+00   8.88531723E+01   8.88531723E+01  -1.06835032E+00  -1.55651617E+00   9.04096832E+01  -2.87427673E+01   9.01636276E+01   4.37540817E+00   8.34094162E+01  -1.55651617E+00   2.14447250E+01
             3597                3   9.19162827E+01   9.00190430E+01   9.00190430E+01  -2.23422194E+00  -1.55651617E+00   9.00190430E+01   9.00190430E+01  -1.55651617E+00  -2.23422194E+00   9.22532654E+01  -2.87427673E+01   9.19106674E+01   3.55832911E+00   8.42264938E+01  -1.55651617E+00   2.23791847E+01
             3597                4   9.13003387E+01   8.96094666E+01   8.96094666E+01  -1.82464552E+00  -1.55651617E+00   8.96094666E+01   8.96094666E+01  -1.55651617E+00  -1.82464552E+00   9.14341125E+01  -2.87427673E+01   9.12994614E+01   3.52957463E+00   8.42552490E+01  -1.55651617E+00   2.14683590E+01
             3598                1   7.64710236E+01   7.83988190E+01   7.83988190E+01   1.39745867E+00   2.46939802E+00   7.83988190E+01   7.83988190E+01   2.46939802E+00   1.39745867E+00   7.70013657E+01  -2.74218922E+01   7.64541168E+01   2.21043510E+01   5.76919250E+01   2.46939802E+00   3.41421089E+01
             3598                2   7.60451355E+01   7.81166000E+01   7.81166000E+01   1.67968035E+00   2.46939802E+00   7.81166000E+01   7.81166000E+01   2.46939802E+00   1.67968035E+00   7.64369202E+01  -2.74218922E+01   7.60359039E+01   2.27875118E+01   5.70087662E+01   2.46939802E+00   3.41742172E+01
             3598                3   7.55592651E+01   7.77940140E+01   7.77940140E+01   2.00226760E+00   2.46939802E+00   7.77940140E+01   7.77940140E+01   2.46939802E+00   2.00226760E+00   7.57917480E+01  -2.74218922E+01   7.55560074E+01   2.20851288E+01   5.77111473E+01   2.46939802E+00   3.34483757E+01
             3598                4   7.51544037E+01   7.75246964E+01   7.75246964E+01   2.27158260E+00   2.46939802E+00   7.75246964E+01   7.75246964E+01   2.46939802E+00   2.27158260E+00   7.52531128E+01  -2.74218922E+01   7.51538086E+01   2.27278786E+01   5.70683975E+01   2.46939802E+00   3.34804420E+01
             3599                1   4.73441391E+01   4.03124199E+01   4.03124199E+01  -4.02491283E+00  -9.55314445E+00   4.03124199E+01   4.03124199E+01  -4.02491283E+00  -9.55314445E+00   4.98655624E+01  -8.91145420E+00   4.66096992E+01   8.68092358E-01   3.54194145E+01  -9.55314445E+00   1.38924894E+01
             3599                2   4.65960503E+01   3.97776299E+01   3.97776299E+01  -3.49012256E+00  -9.55314445E+00   3.97776299E+01   3.97776299E+01  -3.49012256E+00  -9.55314445E+00   4.93307724E+01  -8.91145420E+00   4.56959572E+01   1.52168143E+00   3.47658234E+01  -9.55314445E+00   1.38467093E+01
             3599                3   4.69073753E+01   4.00007401E+01   4.00007401E+01  -3.71323586E+00  -9.55314445E+00   4.00007401E+01   4.00007401E+01  -3.71323586E+00  -9.55314445E+00   4.95538864E+01  -8.91145420E+00   4.60788574E+01   7.49745190E-01   3.55377617E+01  -9.55314445E+00   1.32354231E+01
             3599                4   4.61503868E+01   3.94568138E+01   3.94568138E+01  -3.16931319E+00  -9.55314445E+00   3.94568138E+01   3.94568138E+01  -3.16931319E+00  -9.55314445E+00   4.90099602E+01  -8.91145229E+00   4.51409950E+01   1.40343630E+00   3.48840675E+01  -9.55314445E+00   1.31912289E+01
             3600                1   7.58803482E+01   7.08429108E+01   7.08429108E+01  -4.28470659E+00  -5.76840973E+00   7.08429108E+01   7.08429108E+01  -4.28470659E+00  -5.76840973E+00   7.66113205E+01  -2.02632656E+01   7.58477020E+01   2.65260744E+00   6.39055977E+01  -5.76840973E+00   2.17498856E+01
             3600                2   7.66372833E+01   7.13516846E+01   7.13516846E+01  -4.79348135E+00  -5.76840973E+00   7.13516846E+01   7.13516846E+01  -4.79348135E+00  -5.76840973E+00   7.71200943E+01  -2.02632656E+01   7.66233292E+01   2.61185622E+00   6.39463501E+01  -5.76840973E+00   2.25619488E+01
             3600                3   7.43275986E+01   6.97934113E+01   6.97934113E+01  -3.23520327E+00  -5.76840973E+00   6.97934113E+01   6.97934113E+01  -3.23520327E+00  -5.76840973E+00   7.55618210E+01  -2.02632656E+01   7.42303848E+01   3.69897723E+00   6.28592300E+01  -5.76840973E+00   2.14081917E+01
             3600                4   7.53410110E+01   7.04792786E+01   7.04792786E+01  -3.92107630E+00  -5.76840973E+00   7.04792786E+01   7.04792786E+01  -3.92107630E+00  -5.76840973E+00   7.62476883E+01  -2.02632656E+01   7.52900314E+01   3.62156987E+00   6.29366379E+01  -5.76840973E+00   2.24562683E+01
             3601                1   1.67449646E+01   7.03452492E+00   7.03452492E+00   6.45413637E-01  -1.19644060E+01   7.03452492E+00  -1.19644060E+01   6.45413637E-01  -1.19644060E+01   1.89989300E+01   1.42815590E+00  -1.35648651E+01   3.31416678E+00   4.36577129E+00  -1.19644060E+01   3.15098667E+00
             3601                2   1.67633972E+01   7.06658840E+00   7.06658840E+00   6.13350093E-01  -1.19644060E+01   7.06658840E+00  -1.19644060E+01   6.13350093E-01  -1.19644060E+01   1.90309944E+01   1.42815590E+00  -1.35116053E+01   3.29830480E+00   4.38163328E+00  -1.19644060E+01   3.18082857E+00
             3601                3   1.67507763E+01   7.04466438E+00   7.04466438E+00   6.35273933E-01  -1.19644060E+01   7.04466438E+00  -1.19644060E+01   6.35273933E-01  -1.19644060E+01   1.90090714E+01   1.42815590E+00  -1.35481243E+01   3.34055924E+00   4.33937883E+00  -1.19644060E+01   3.16554284E+00
             3601                4   1.67694111E+01   7.07698727E+00   7.07698727E+00   6.02950931E-01  -1.19644060E+01   7.07698727E+00  -1.19644060E+01   6.02950931E-01  -1.19644060E+01   1.90413933E+01   1.42815590E+00  -1.34941254E+01   3.32633615E+00   4.35360193E+00  -1.19644060E+01   3.19600821E+00
             3602                1   1.03918869E+02   1.06887154E+02   1.06887154E+02   2.55078459E+00   3.39087558E+00   1.06887154E+02   1.06887154E+02   3.39087558E+00   2.55078459E+00   1.04336365E+02  -3.76096039E+01   1.03911224E+02   4.91391516E+00   1.04524017E+02   3.39087558E+00   1.55234118E+01
             3602                2   1.04106537E+02   1.07011726E+02   1.07011726E+02   2.42620802E+00   3.39087558E+00   1.07011726E+02   1.07011726E+02   3.39087558E+00   2.42620802E+00   1.04585518E+02  -3.76096039E+01   1.04096481E+02   4.92788506E+00   1.04510048E+02   3.39087558E+00   1.59806442E+01
             3602                3   1.03276054E+02   1.06459892E+02   1.06459892E+02   2.97804117E+00   3.39087558E+00   1.06459892E+02   1.06459892E+02   3.39087558E+00   2.97804117E+00   1.03481850E+02  -3.76096039E+01   1.03274193E+02   5.35925913E+00   1.04078674E+02   3.39087558E+00   1.55158882E+01
             3602                4   1.03467911E+02   1.06587502E+02   1.06587502E+02   2.85042620E+00   3.39087558E+00   1.06587502E+02   1.06587502E+02   3.39087558E+00   2.85042620E+00   1.03737076E+02  -3.76096001E+01   1.03464737E+02   5.37060881E+00   1.04067322E+02   3.39087558E+00   1.59713717E+01
             3603                1   1.52832909E+01   4.77249241E+00   4.77249241E+00   6.31412625E-01  -1.21546144E+01   4.77249241E+00  -1.21546144E+01   6.31412625E-01  -1.21546144E+01   1.69271069E+01   2.25023651E+00  -1.39348621E+01   2.03215194E+00   3.37175274E+00  -1.21546144E+01   1.95920968E+00
             3603                2   1.52686014E+01   4.73604679E+00   4.73604679E+00   6.67858243E-01  -1.21546144E+01   4.73604679E+00  -1.21546144E+01   6.67858243E-01  -1.21546144E+01   1.68906612E+01   2.25023651E+00  -1.39691133E+01   2.29719353E+00   3.10671115E+00  -1.21546144E+01   1.99341655E+00
             3603                3   1.51840734E+01   4.51289177E+00   4.51289177E+00   8.91013324E-01  -1.21546144E+01   4.51289177E+00  -1.21546144E+01   8.91013324E-01  -1.21546144E+01   1.66675053E+01   2.25023651E+00  -1.41624060E+01   2.03652096E+00   3.36738372E+00  -1.21546144E+01   1.68425107E+00
             3603                4   1.51677256E+01   4.46663523E+00   4.46663523E+00   9.37269747E-01  -1.21546144E+01   4.46663523E+00  -1.21546144E+01   9.37269747E-01  -1.21546144E+01   1.66212502E+01   2.25023651E+00  -1.41990633E+01   2.29860091E+00   3.10530376E+00  -1.21546144E+01   1.71796763E+00
             3604                1   3.48883934E+01   3.95553818E+01   3.95553818E+01   3.39966559E+00   6.09009409E+00   3.95553818E+01   3.95553818E+01   6.09009409E+00   3.39966559E+00   3.61557159E+01  -1.63483810E+01   3.46538467E+01   5.85129690E+00   3.71037521E+01   6.09009409E+00   9.09010315E+00
             3604                2   3.51134644E+01   3.97000580E+01   3.97000580E+01   3.25498891E+00   6.09009409E+00   3.97000580E+01   3.97000580E+01   6.09009409E+00   3.25498891E+00   3.64450684E+01  -1.63483810E+01   3.48545609E+01   5.78382301E+00   3.71712265E+01   6.09009409E+00   9.26112843E+00
             3604                3   3.47063942E+01   3.94382286E+01   3.94382286E+01   3.51681805E+00   6.09009409E+00   3.94382286E+01   3.94382286E+01   6.09009409E+00   3.51681805E+00   3.59214134E+01  -1.63483810E+01   3.44907799E+01   6.02954340E+00   3.69255028E+01   6.09009409E+00   9.16225243E+00
             3604                4   3.49340858E+01   3.95847740E+01   3.95847740E+01   3.37027431E+00   6.09009409E+00   3.95847740E+01   3.95847740E+01   6.09009409E+00   3.37027431E+00   3.62145004E+01  -1.63483810E+01   3.46946754E+01   5.95969343E+00   3.69953537E+01   6.09009409E+00   9.33110046E+00
             3605                1   2.12748199E+02   2.15557892E+02   2.15557892E+02  -1.35785758E+00   7.23777246E+00   2.15557892E+02   2.15557892E+02   7.23777246E+00  -1.35785758E+00   2.16915741E+02  -7.38125992E+01   2.12356979E+02  -1.32119668E+00   2.15521225E+02   7.23777246E+00   2.81971478E+00
             3605                2   2.12672440E+02   2.15517029E+02   2.15517029E+02  -1.09112275E+00   7.01189852E+00   2.15517029E+02   2.15517029E+02   7.01189852E+00  -1.09112275E+00   2.16608154E+02  -7.38125992E+01   2.12324707E+02  -1.08013928E+00   2.15506042E+02   7.01189852E+00   1.54240322E+00
             3605                3   2.13062195E+02   2.15741882E+02   2.15741882E+02  -2.03987598E+00   7.73578930E+00   2.15741882E+02   2.15741882E+02   7.73578930E+00  -2.03987598E+00   2.17781769E+02  -7.38125992E+01   2.12556732E+02  -2.01365829E+00   2.15715668E+02   7.73578930E+00   2.38943529E+00
             3605                4   2.13003525E+02   2.15713470E+02   2.15713470E+02  -1.78616452E+00   7.51050043E+00   2.15713470E+02   2.15713470E+02   7.51050043E+00  -1.78616452E+00   2.17499634E+02  -7.38125992E+01   2.12546326E+02  -1.78041089E+00   2.15707718E+02   7.51050043E+00   1.11866283E+00
             3606                1   4.67947731E+01   4.00248032E+01   4.00248032E+01  -3.03653550E+00  -9.77319431E+00   4.00248032E+01   4.00248032E+01  -3.03653550E+00  -9.77319431E+00   4.97979965E+01  -9.07169056E+00   4.56846886E+01   3.26829076E+00   3.37199745E+01  -9.77319431E+00   1.52231216E+01
             3606                2   4.76325417E+01   4.06287003E+01   4.06287003E+01  -3.64043117E+00  -9.77319431E+00   4.06287003E+01   4.06287003E+01  -3.64043117E+00  -9.77319431E+00   5.04018936E+01  -9.07169247E+00   4.67319298E+01   2.53930140E+00   3.44489670E+01  -9.77319431E+00   1.53421745E+01
             3606                3   4.73412285E+01   4.04193878E+01   4.04193878E+01  -3.43112063E+00  -9.77319431E+00   4.04193878E+01   4.04193878E+01  -3.43112063E+00  -9.77319431E+00   5.01925812E+01  -9.07169056E+00   4.63710403E+01   3.44659042E+00   3.35416756E+01  -9.77319431E+00   1.59464169E+01
             3606                4   4.81980095E+01   4.10330353E+01   4.10330353E+01  -4.04476929E+00  -9.77319431E+00   4.10330353E+01   4.10330353E+01  -4.04476929E+00  -9.77319431E+00   5.08062286E+01  -9.07169056E+00   4.74230652E+01   2.70905328E+00   3.42792130E+01  -9.77319431E+00   1.60882988E+01
             3607                1   2.12850906E+02   2.15636353E+02   2.15636353E+02  -1.84569097E+00   7.74052668E+00   2.15636353E+02   2.15636353E+02   7.74052668E+00  -1.84569097E+00   2.17482040E+02  -7.38437271E+01   2.12364395E+02  -1.78355563E+00   2.15574219E+02   7.74052668E+00   3.67556858E+00
             3607                2   2.12764099E+02   2.15592880E+02   2.15592880E+02  -1.49223936E+00   7.43055296E+00   2.15592880E+02   2.15592880E+02   7.43055296E+00  -1.49223936E+00   2.17085129E+02  -7.38437347E+01   2.12342514E+02  -1.46932018E+00   2.15569962E+02   7.43055296E+00   2.23071694E+00
             3607                3   2.13220383E+02   2.15852142E+02   2.15852142E+02  -2.59363818E+00   8.27268600E+00   2.15852142E+02   2.15852142E+02   8.27268600E+00  -2.59363818E+00   2.18445770E+02  -7.38437271E+01   2.12596054E+02  -2.54915857E+00   2.15807663E+02   8.27268600E+00   3.11660600E+00
             3607                4   2.13127411E+02   2.15805878E+02   2.15805878E+02  -2.25180101E+00   7.97710323E+00   2.15805878E+02   2.15805878E+02   7.97710323E+00  -2.25180101E+00   2.18057678E+02  -7.38437271E+01   2.12574081E+02  -2.23881435E+00   2.15792892E+02   7.97710323E+00   1.68269432E+00
             3608                1   1.39072159E+02   1.67883133E+02   1.67883133E+02   2.64273891E+01   3.13238678E+01   1.67883133E+02   1.67883133E+02   3.13238678E+01   2.64273891E+01   1.41455734E+02  -7.52114639E+01   1.38878021E+02   2.80491600E+01   1.66261353E+02   3.13238678E+01   1.50591869E+01
             3608                2   1.38536911E+02   1.67532104E+02   1.67532104E+02   2.67784100E+01   3.13238678E+01   1.67532104E+02   1.67532104E+02   3.13238678E+01   2.67784100E+01   1.40753693E+02  -7.52114639E+01   1.38368973E+02   2.83395023E+01   1.65971008E+02   3.13238678E+01   1.47408695E+01
             3608                3   1.39289291E+02   1.68025406E+02   1.68025406E+02   2.62851067E+01   3.13238678E+01   1.68025406E+02   1.68025406E+02   3.13238678E+01   2.62851067E+01   1.41740295E+02  -7.52114639E+01   1.39084015E+02   2.78722172E+01   1.66438293E+02   3.13238678E+01   1.49144020E+01
             3608                4   1.38930420E+02   1.67790207E+02   1.67790207E+02   2.65203075E+01   3.13238678E+01   1.67790207E+02   1.67790207E+02   3.13238678E+01   2.65203075E+01   1.41269897E+02  -7.52114639E+01   1.38743393E+02   2.80488377E+01   1.66261673E+02   3.13238678E+01   1.46150475E+01
             3609                1   1.40263481E+01   3.15405607E+00   3.15405607E+00   8.53037715E-01  -1.18805237E+01   3.15405607E+00  -1.18805237E+01   8.53037715E-01  -1.18805237E+01   1.50345802E+01   2.62447667E+00  -1.35919552E+01   2.01169252E+00   1.99540150E+00  -1.18805237E+01   1.15048039E+00
             3609                2   1.40463305E+01   3.23263717E+00   3.23263717E+00   7.74456859E-01  -1.18805237E+01   3.23263717E+00  -1.18805237E+01   7.74456859E-01  -1.18805237E+01   1.51131611E+01   2.62447667E+00  -1.35496645E+01   2.14094090E+00   1.86615312E+00  -1.18805237E+01   1.22138667E+00
             3609                3   1.39936485E+01   3.01263666E+00   3.01263666E+00   9.94457603E-01  -1.18805237E+01   3.01263666E+00  -1.18805237E+01   9.94457603E-01  -1.18805237E+01   1.48931608E+01   2.62447643E+00  -1.36604681E+01   2.06165433E+00   1.94543982E+00  -1.18805237E+01   1.00741518E+00
             3609                4   1.40130959E+01   3.09890532E+00   3.09890532E+00   9.08188581E-01  -1.18805237E+01   3.09890532E+00  -1.18805237E+01   9.08188581E-01  -1.18805237E+01   1.49794292E+01   2.62447667E+00  -1.36198244E+01   2.19270468E+00   1.81438935E+00  -1.18805237E+01   1.07890189E+00
             3610                1   7.65198364E+01   7.21723328E+01   7.21723328E+01  -3.59332299E+00  -5.08001328E+00   7.21723328E+01   7.21723328E+01  -3.59332299E+00  -5.08001328E+00   7.72523499E+01  -2.11663322E+01   7.64873276E+01   4.81782389E+00   6.37611847E+01  -5.08001328E+00   2.38018646E+01
             3610                2   7.55227127E+01   7.14993668E+01   7.14993668E+01  -2.92035413E+00  -5.08001328E+00   7.14993668E+01   7.14993668E+01  -2.92035413E+00  -5.08001328E+00   7.65793762E+01  -2.11663322E+01   7.54531860E+01   4.80156040E+00   6.37774467E+01  -5.08001328E+00   2.26943779E+01
             3610                3   7.77351685E+01   7.29883270E+01   7.29883270E+01  -4.40932035E+00  -5.08001328E+00   7.29883270E+01   7.29883270E+01  -4.40932035E+00  -5.08001328E+00   7.80683441E+01  -2.11663322E+01   7.77286530E+01   3.77993608E+00   6.47990723E+01  -5.08001328E+00   2.38068352E+01
             3610                4   7.68321686E+01   7.23824768E+01   7.23824768E+01  -3.80346727E+00  -5.08001328E+00   7.23824768E+01   7.23824768E+01  -3.80346727E+00  -5.08001328E+00   7.74624939E+01  -2.11663322E+01   7.68083038E+01   3.73316240E+00   6.48458481E+01  -5.08001328E+00   2.27460861E+01
             3611                1   3.51117020E+01   2.86039658E+01   2.86039658E+01  -1.34958971E+00  -1.00354414E+01   2.86039658E+01   2.86039658E+01  -1.34958971E+00  -1.00354414E+01   3.86394081E+01  -5.73964453E+00   3.25602493E+01   7.53277302E+00   1.97216015E+01  -1.00354414E+01   1.36807156E+01
             3611                2   3.53251038E+01   2.87703152E+01   2.87703152E+01  -1.51593888E+00  -1.00354414E+01   2.87703152E+01   2.87703152E+01  -1.51593888E+00  -1.00354414E+01   3.88057556E+01  -5.73964453E+00   3.28923416E+01   7.18053722E+00   2.00738373E+01  -1.00354414E+01   1.37023716E+01
             3611                3   3.55195770E+01   2.89211979E+01   2.89211979E+01  -1.66682482E+00  -1.00354414E+01   2.89211979E+01   2.89211979E+01  -1.66682482E+00  -1.00354414E+01   3.89566383E+01  -5.73964453E+00   3.31909523E+01   7.58620024E+00   1.96681728E+01  -1.00354414E+01   1.40503836E+01
             3611                4   3.57325211E+01   2.90856571E+01   2.90856571E+01  -1.83128583E+00  -1.00354414E+01   2.90856571E+01   2.90856571E+01  -1.83128583E+00  -1.00354414E+01   3.91210976E+01  -5.73964310E+00   3.35137100E+01   7.23305416E+00   2.00213184E+01  -1.00354414E+01   1.40740690E+01
             3612                1   9.42366943E+01   9.91350861E+01   9.91350861E+01   3.18605137E+00   6.70955801E+00   9.91350861E+01   9.91350861E+01   6.70955801E+00   3.18605137E+00   9.59490356E+01  -3.63435631E+01   9.40883179E+01   2.04404316E+01   8.18807068E+01   6.70955801E+00   3.68487091E+01
             3612                2   9.29578247E+01   9.82960587E+01   9.82960587E+01   4.02507496E+00   6.70955801E+00   9.82960587E+01   9.82960587E+01   6.70955801E+00   4.02507496E+00   9.42709885E+01  -3.63435631E+01   9.28705521E+01   2.19399567E+01   8.03811798E+01   6.70955801E+00   3.69852753E+01
             3612                3   9.23933411E+01   9.79246445E+01   9.79246445E+01   4.39648962E+00   6.70955801E+00   9.79246445E+01   9.79246445E+01   6.70955801E+00   4.39648962E+00   9.35281601E+01  -3.63435631E+01   9.23281631E+01   1.96751175E+01   8.26460190E+01   6.70955801E+00   3.45766602E+01
             3612                4   8.98213120E+01   9.62233963E+01   9.62233963E+01   6.09773779E+00   6.70955801E+00   9.62233963E+01   9.62233963E+01   6.70955801E+00   6.09773779E+00   9.01256638E+01  -3.63435631E+01   8.98166275E+01   2.15301800E+01   8.07909546E+01   6.70955801E+00   3.39514198E+01
             3613                1   3.53388634E+01   4.10437622E+01   4.10437622E+01   3.49854565E+00   8.42909622E+00   4.10437622E+01   4.10437622E+01   8.42909622E+00   3.49854565E+00   3.75452194E+01  -1.76571350E+01   3.45522995E+01   6.28185797E+00   3.82604523E+01   8.42909622E+00   9.83632183E+00
             3613                2   3.59351158E+01   4.14173470E+01   4.14173470E+01   3.12496638E+00   8.42909622E+00   4.14173470E+01   4.14173470E+01   8.42909622E+00   3.12496638E+00   3.82923813E+01  -1.76571369E+01   3.50381622E+01   6.00525856E+00   3.85370522E+01   8.42909622E+00   1.00993671E+01
             3613                3   3.52191353E+01   4.09686127E+01   4.09686127E+01   3.57369924E+00   8.42909622E+00   4.09686127E+01   4.09686127E+01   8.42909622E+00   3.57369924E+00   3.73949127E+01  -1.76571369E+01   3.44540710E+01   6.54994917E+00   3.79923630E+01   8.42909622E+00   1.01211939E+01
             3613                4   3.58143044E+01   4.13417435E+01   4.13417435E+01   3.20057082E+00   8.42909622E+00   4.13417435E+01   4.13417435E+01   8.42909622E+00   3.20057082E+00   3.81411705E+01  -1.76571369E+01   3.49401550E+01   6.27420378E+00   3.82681084E+01   8.42909622E+00   1.03819437E+01
             3614                1   1.88967636E+02   1.91081161E+02   1.91081161E+02   1.86642408E+00   2.36158133E+00   1.91081161E+02   1.91081161E+02   2.36158133E+00   1.86642408E+00   1.89214737E+02  -6.51030579E+01   1.88966187E+02   1.86711776E+00   1.91080475E+02   2.36158133E+00   3.60584766E-01
             3614                2   1.89038376E+02   1.91128250E+02   1.91128250E+02   1.81940556E+00   2.36151791E+00   1.91128250E+02   1.91128250E+02   2.36151791E+00   1.81940556E+00   1.89308853E+02  -6.51030579E+01   1.89036636E+02   1.82167292E+00   1.91125992E+02   2.36151791E+00   6.54806495E-01
             3614                3   1.88531052E+02   1.90790375E+02   1.90790375E+02   2.15699768E+00   2.36181283E+00   1.90790375E+02   1.90790375E+02   2.36181283E+00   2.15699768E+00   1.88633377E+02  -6.51030655E+01   1.88530792E+02   2.15789580E+00   1.90789474E+02   2.36181283E+00   4.12095964E-01
             3614                4   1.88602814E+02   1.90838181E+02   1.90838181E+02   2.10924578E+00   2.36174917E+00   1.90838181E+02   1.90838181E+02   2.36174917E+00   2.10924578E+00   1.88728943E+02  -6.51030655E+01   1.88602432E+02   2.11187935E+00   1.90835556E+02   2.36174917E+00   7.04744935E-01
             3615                1   1.21058670E+02   1.36778275E+02   1.36778275E+02   1.24984045E+01   1.92209396E+01   1.36778275E+02   1.36778275E+02   1.92209396E+01   1.24984045E+01   1.24279861E+02  -5.61658745E+01   1.20637619E+02   2.77565079E+01   1.21520157E+02   1.92209396E+01   4.07856064E+01
             3615                2   1.21685890E+02   1.37185303E+02   1.37185303E+02   1.20913715E+01   1.92209396E+01   1.37185303E+02   1.37185303E+02   1.92209396E+01   1.20913715E+01   1.25093933E+02  -5.61658745E+01   1.21214622E+02   2.67016373E+01   1.22575027E+02   1.92209396E+01   4.01770592E+01
             3615                3   1.22310799E+02   1.37590286E+02   1.37590286E+02   1.16863747E+01   1.92209396E+01   1.37590286E+02   1.37590286E+02   1.92209396E+01   1.16863747E+01   1.25903908E+02  -5.61658630E+01   1.21787033E+02   2.74385033E+01   1.21838158E+02   1.92209396E+01   4.16548271E+01
             3615                4   1.22897316E+02   1.37969894E+02   1.37969894E+02   1.13067551E+01   1.92209396E+01   1.37969894E+02   1.37969894E+02   1.92209396E+01   1.13067551E+01   1.26663147E+02  -5.61658630E+01   1.22322029E+02   2.65940971E+01   1.22682564E+02   1.92209396E+01   4.12630539E+01
             3616                1   4.58322792E+01   3.92726631E+01   3.92726631E+01  -3.13480949E+00  -9.35009003E+00   3.92726631E+01   3.92726631E+01  -3.13480949E+00  -9.35009003E+00   4.86227531E+01  -8.92925549E+00   4.48694572E+01   1.01817214E+00   3.51196823E+01  -9.35009003E+00   1.26043739E+01
             3616                2   4.65589218E+01   3.97939568E+01   3.97939568E+01  -3.65610075E+00  -9.35009003E+00   3.97939568E+01   3.97939568E+01  -3.65610075E+00  -9.35009003E+00   4.91440468E+01  -8.92925549E+00   4.57657585E+01   4.15250808E-01   3.57226028E+01  -9.35009003E+00   1.26619358E+01
             3616                3   4.61984329E+01   3.95358963E+01   3.95358963E+01  -3.39804649E+00  -9.35009003E+00   3.95358963E+01   3.95358963E+01  -3.39804649E+00  -9.35009003E+00   4.88859863E+01  -8.92925358E+00   4.53237686E+01   1.11107349E+00   3.50267792E+01  -9.35009003E+00   1.31629066E+01
             3616                4   4.69065285E+01   4.00417900E+01   4.00417900E+01  -3.90393329E+00  -9.35009003E+00   4.00417900E+01   4.00417900E+01  -3.90393329E+00  -9.35009003E+00   4.93918800E+01  -8.92925549E+00   4.61871796E+01   5.03592432E-01   3.56342621E+01  -9.35009003E+00   1.32009716E+01
             3617                1   4.41374054E+01   4.40495148E+01   4.40495148E+01   1.32547349E-01  -3.05077165E-01   4.40495148E+01   4.40495148E+01   1.32547349E-01  -3.05077165E-01   4.43545914E+01  -1.46256609E+01   4.41325226E+01   1.92992377E+00   4.22521362E+01  -3.05077165E-01   8.70084858E+00
             3617                2   4.39500999E+01   4.39239235E+01   4.39239235E+01   2.58134276E-01  -3.05077165E-01   4.39239235E+01   4.39239235E+01   2.58134276E-01  -3.05077165E-01   4.42290001E+01  -1.46256599E+01   4.39419785E+01   2.10174298E+00   4.20803146E+01  -3.05077165E-01   8.78087044E+00
             3617                3   4.38843384E+01   4.38797836E+01   4.38797836E+01   3.02275419E-01  -3.05077165E-01   4.38797836E+01   4.38797836E+01   3.02275419E-01  -3.05077165E-01   4.41848602E+01  -1.46256609E+01   4.38748779E+01   2.03328657E+00   4.21487732E+01  -3.05077165E-01   8.51097965E+00
             3617                4   4.37071114E+01   4.37607155E+01   4.37607155E+01   4.21340883E-01  -3.05077165E-01   4.37607155E+01   4.37607155E+01   4.21340883E-01  -3.05077165E-01   4.40657921E+01  -1.46256599E+01   4.36935272E+01   2.19832706E+00   4.19837303E+01  -3.05077165E-01   8.59393692E+00
             3618                1   5.08000031E+01   4.39336815E+01   4.39336815E+01  -3.78936386E+00  -9.46635056E+00   4.39336815E+01   4.39336815E+01  -3.78936386E+00  -9.46635056E+00   5.34000320E+01  -1.02259893E+01   5.00788918E+01   3.22791004E+00   3.69164085E+01  -9.46635056E+00   1.69009914E+01
             3618                2   5.02508888E+01   4.35429077E+01   4.35429077E+01  -3.39859104E+00  -9.46635056E+00   4.35429077E+01   4.35429077E+01  -3.39859104E+00  -9.46635056E+00   5.30092583E+01  -1.02259893E+01   4.94166183E+01   3.07171583E+00   3.70726013E+01  -9.46635056E+00   1.61821213E+01
             3618                3   5.17471161E+01   4.46026878E+01   4.46026878E+01  -4.45837069E+00  -9.46635056E+00   4.46026878E+01   4.46026878E+01  -4.45837069E+00  -9.46635056E+00   5.40690384E+01  -1.02259893E+01   5.11976585E+01   2.48544383E+00   3.76588745E+01  -9.46635056E+00   1.71012955E+01
             3618                4   5.11802826E+01   4.42030373E+01   4.42030373E+01  -4.05872250E+00  -9.46635056E+00   4.42030373E+01   4.42030373E+01  -4.05872250E+00  -9.46635056E+00   5.36693878E+01  -1.02259874E+01   5.05315628E+01   2.33356643E+00   3.78107491E+01  -9.46635056E+00   1.63597584E+01
             3619                1   2.07938293E+02   2.27742401E+02   2.27742401E+02   2.03228760E+00   4.39680710E+01   2.27742401E+02   2.27742401E+02   4.39680710E+01   2.03228760E+00   2.25710114E+02  -9.12475891E+01   1.98086136E+02   2.25952506E+00   2.27515167E+02   4.39680710E+01   7.15802813E+00
             3619                2   2.07415009E+02   2.27542175E+02   2.27542175E+02   2.89713717E+00   4.33034592E+01   2.27542175E+02   2.27542175E+02   4.33034592E+01   2.89713717E+00   2.24645035E+02  -9.12475891E+01   1.98267807E+02   3.55907559E+00   2.26880234E+02   4.33034592E+01   1.21763897E+01
             3619                3   2.06803680E+02   2.27338028E+02   2.27338028E+02   4.08522224E+00   4.23195229E+01   2.27338028E+02   2.27338028E+02   4.23195229E+01   4.08522224E+00   2.23252808E+02  -9.12475891E+01   1.98616882E+02   4.19089651E+00   2.27232346E+02   4.23195229E+01   4.85616016E+00
             3619                4   2.06159210E+02   2.27056961E+02   2.27056961E+02   5.06540728E+00   4.16203995E+01   2.27056961E+02   2.27056961E+02   4.16203995E+01   5.06540728E+00   2.21991562E+02  -9.12475891E+01   1.98670593E+02   5.51334476E+00   2.26609024E+02   4.16203995E+01   9.96188736E+00
             3620                1   1.88921753E+02   1.91355072E+02   1.91355072E+02   2.18369603E+00   2.68394637E+00   1.91355072E+02   1.91355072E+02   2.68394637E+00   2.18369603E+00   1.89171387E+02  -6.54075699E+01   1.88920258E+02   2.18369699E+00   1.91355072E+02   2.68394637E+00   2.94662546E-02
             3620                2   1.88945480E+02   1.91370880E+02   1.91370880E+02   2.16790962E+00   2.68392539E+00   1.91370880E+02   1.91370880E+02   2.68392539E+00   2.16790962E+00   1.89202972E+02  -6.54075699E+01   1.88943909E+02   2.16841769E+00   1.91370377E+02   2.68392539E+00   3.08055788E-01
             3620                3   1.88500183E+02   1.91074295E+02   1.91074295E+02   2.46425319E+00   2.68416595E+00   1.91074295E+02   1.91074295E+02   2.68416595E+00   2.46425319E+00   1.88610031E+02  -6.54075699E+01   1.88499878E+02   2.46426606E+00   1.91074280E+02   2.68416595E+00   4.49377969E-02
             3620                4   1.88527649E+02   1.91092590E+02   1.91092590E+02   2.44597745E+00   2.68414330E+00   1.91092590E+02   1.91092590E+02   2.68414330E+00   2.44597745E+00   1.88646622E+02  -6.54075699E+01   1.88527313E+02   2.44653678E+00   1.91092041E+02   2.68414330E+00   3.23763549E-01
             3621                1   3.40647278E+01   2.71065750E+01   2.71065750E+01  -1.53694618E+00  -1.05618610E+01   2.71065750E+01   2.71065750E+01  -1.53694618E+00  -1.05618610E+01   3.76684380E+01  -5.00258970E+00   3.12005100E+01   1.72613847E+00   2.38434906E+01  -1.05618610E+01   9.10046864E+00
             3621                2   3.46772041E+01   2.75884323E+01   2.75884323E+01  -2.01880479E+00  -1.05618610E+01   2.75884323E+01   2.75884323E+01  -2.01880479E+00  -1.05618610E+01   3.81502953E+01  -5.00258875E+00   3.21792374E+01   1.18370891E+00   2.43859196E+01  -1.05618610E+01   9.19573116E+00
             3621                3   3.43956375E+01   2.73678246E+01   2.73678246E+01  -1.79819560E+00  -1.05618610E+01   2.73678246E+01   2.73678246E+01  -1.79819560E+00  -1.05618610E+01   3.79296875E+01  -5.00258970E+00   3.17346249E+01   1.86279786E+00   2.37068310E+01  -1.05618610E+01   9.66300964E+00
             3621                4   3.49912949E+01   2.78327770E+01   2.78327770E+01  -2.26314664E+00  -1.05618610E+01   2.78327770E+01   2.78327770E+01  -2.26314664E+00  -1.05618610E+01   3.83946381E+01  -5.00258970E+00   3.26652184E+01   1.31749058E+00   2.42521381E+01  -1.05618610E+01   9.74380016E+00
             3622                1   3.56235313E+01   3.93289337E+01   3.93289337E+01   2.67608762E+00   4.83269882E+00   3.93289337E+01   3.93289337E+01   4.83269882E+00   2.67608762E+00   3.66528435E+01  -1.56125727E+01   3.54762154E+01   4.80087376E+00   3.72041473E+01   4.83269882E+00   8.56532001E+00
             3622                2   3.57642097E+01   3.94200363E+01   3.94200363E+01   2.58498645E+00   4.83269882E+00   3.94200363E+01   3.94200363E+01   4.83269882E+00   2.58498645E+00   3.68350525E+01  -1.56125746E+01   3.56047707E+01   4.76290035E+00   3.72421227E+01   4.83269882E+00   8.68793964E+00
             3622                3   3.54811935E+01   3.92366562E+01   3.92366562E+01   2.76836419E+00   4.83269882E+00   3.92366562E+01   3.92366562E+01   4.83269882E+00   2.76836419E+00   3.64682922E+01  -1.56125727E+01   3.53456993E+01   4.92771578E+00   3.70773048E+01   4.83269882E+00   8.60726738E+00
             3622                4   3.56215897E+01   3.93276749E+01   3.93276749E+01   2.67734599E+00   4.83269882E+00   3.93276749E+01   3.93276749E+01   4.83269882E+00   2.67734599E+00   3.66503296E+01  -1.56125727E+01   3.54744377E+01   4.89011002E+00   3.71149101E+01   4.83269882E+00   8.72938728E+00
             3623                1   2.08136215E+02   2.08630539E+02   2.08630539E+02  -2.30479789E+00   3.41120458E+00   2.08630539E+02   2.08630539E+02   3.41120458E+00  -2.30479789E+00   2.10935333E+02  -6.99123154E+01   2.07959503E+02  -2.25140190E+00   2.08577148E+02   3.41120458E+00   3.35557294E+00
             3623                2   2.07278091E+02   2.08071396E+02   2.08071396E+02  -1.50272727E+00   3.16828871E+00   2.08071396E+02   2.08071396E+02   3.16828871E+00  -1.50272727E+00   2.09574112E+02  -6.99123154E+01   2.07159622E+02  -1.43764329E+00   2.08006302E+02   3.16828871E+00   3.69282079E+00
             3623                3   2.07997025E+02   2.08542404E+02   2.08542404E+02  -2.08508205E+00   3.27963114E+00   2.08542404E+02   2.08542404E+02   3.27963114E+00  -2.08508205E+00   2.10627487E+02  -6.99123154E+01   2.07841278E+02  -2.06155300E+00   2.08518875E+02   3.27963114E+00   2.22600508E+00
             3623                4   2.07137482E+02   2.07981400E+02   2.07981400E+02  -1.28469634E+00   3.04025030E+00   2.07981400E+02   2.07981400E+02   3.04025030E+00  -1.28469634E+00   2.09266098E+02  -6.99123154E+01   2.07035858E+02  -1.25351977E+00   2.07950226E+02   3.04025030E+00   2.55385470E+00
             3624                1   5.53283119E+01   4.82273636E+01   4.82273636E+01  -4.80866003E+00  -9.13877583E+00   4.82273636E+01   4.82273636E+01  -4.80866003E+00  -9.13877583E+00   5.73661423E+01  -1.14266434E+01   5.49451485E+01   2.12759376E+00   4.12911110E+01  -9.13877583E+00   1.78818264E+01
             3624                2   5.43794823E+01   4.75648537E+01   4.75648537E+01  -4.14615202E+00  -9.13877583E+00   4.75648537E+01   4.75648537E+01  -4.14615202E+00  -9.13877583E+00   5.67036285E+01  -1.14266424E+01   5.38602257E+01   2.92610955E+00   4.04925919E+01  -9.13877583E+00   1.77678604E+01
             3624                3   5.47824059E+01   4.78468399E+01   4.78468399E+01  -4.42813873E+00  -9.13877583E+00   4.78468399E+01   4.78468399E+01  -4.42813873E+00  -9.13877583E+00   5.69856148E+01  -1.14266424E+01   5.43239403E+01   1.99046397E+00   4.14282379E+01  -9.13877583E+00   1.71561604E+01
             3624                4   5.37924728E+01   4.71522484E+01   4.71522484E+01  -3.73354816E+00  -9.13877583E+00   4.71522484E+01   4.71522484E+01  -3.73354816E+00  -9.13877583E+00   5.62910233E+01  -1.14266424E+01   5.31763496E+01   2.80777121E+00   4.06109314E+01  -9.13877583E+00   1.70314808E+01
             3625                1   8.75725708E+01   8.41639099E+01   8.41639099E+01  -3.19577193E+00  -3.62000871E+00   8.41639099E+01   8.41639099E+01  -3.19577193E+00  -3.62000871E+00   8.77839203E+01  -2.57827091E+01   8.75702667E+01   1.76871800E+00   7.91994247E+01  -3.62000871E+00   2.02249813E+01
             3625                2   8.71239090E+01   8.38638153E+01   8.38638153E+01  -2.89567232E+00  -3.62000871E+00   8.38638153E+01   8.38638153E+01  -2.89567232E+00  -3.62000871E+00   8.74838181E+01  -2.57827091E+01   8.71171341E+01   1.79015386E+00   7.91779861E+01  -3.62000871E+00   1.96107845E+01
             3625                3   8.82548065E+01   8.46192474E+01   8.46192474E+01  -3.65109825E+00  -3.62000871E+00   8.46192474E+01   8.46192474E+01  -3.62000871E+00  -3.65109825E+00   8.82703400E+01  -2.57827129E+01   8.82547913E+01   1.28044140E+00   7.96877060E+01  -3.62000871E+00   2.02728539E+01
             3625                4   8.79769287E+01   8.44339294E+01   8.44339294E+01  -3.46578836E+00  -3.62000871E+00   8.44339294E+01   8.44339294E+01  -3.46578836E+00  -3.62000871E+00   8.80539398E+01  -2.57827091E+01   8.79766235E+01   1.23963392E+00   7.97285080E+01  -3.62000871E+00   1.97854519E+01
             3626                1   1.00968758E+02   1.01016205E+02   1.01016205E+02  -2.19246358E-01   3.16274285E-01   1.01016205E+02   1.01016205E+02   3.16274285E-01  -2.19246358E-01   1.01235451E+02  -3.37044106E+01   1.00965561E+02   1.56559062E+00   9.92313690E+01   3.16274285E-01   1.33230276E+01
             3626                2   1.00454338E+02   1.00673874E+02   1.00673874E+02   1.23082116E-01   3.16274285E-01   1.00673874E+02   1.00673874E+02   3.16274285E-01   1.23082116E-01   1.00550797E+02  -3.37044106E+01   1.00453918E+02   1.91876364E+00   9.88781967E+01   3.16274285E-01   1.33166285E+01
             3626                3   1.00819252E+02   1.00916779E+02   1.00916779E+02  -1.19816497E-01   3.16274285E-01   1.00916779E+02   1.00916779E+02   3.16274285E-01  -1.19816497E-01   1.01036591E+02  -3.37044106E+01   1.00817131E+02   1.56619573E+00   9.92307663E+01   3.16274285E-01   1.29424105E+01
             3626                4   1.00309975E+02   1.00577705E+02   1.00577705E+02   2.19256312E-01   3.16274285E-01   1.00577705E+02   1.00577705E+02   3.16274285E-01   2.19256312E-01   1.00358444E+02  -3.37044106E+01   1.00309868E+02   1.91810560E+00   9.88788528E+01   3.16274285E-01   1.29463444E+01
             3627                1   2.13587952E+02   2.17078110E+02   2.17078110E+02  -1.27553415E+00   8.59834385E+00   2.17078110E+02   2.17078110E+02   8.59834385E+00  -1.27553415E+00   2.18353653E+02  -7.48003082E+01   2.13073547E+02  -1.27514732E+00   2.17077728E+02   8.59834385E+00  -2.90933996E-01
             3627                2   2.13594650E+02   2.17080048E+02   2.17080048E+02  -1.33111084E+00   8.65198231E+00   2.17080048E+02   2.17080048E+02   8.65198231E+00  -1.33111084E+00   2.18411148E+02  -7.48003006E+01   2.13068802E+02  -1.32771027E+00   2.17076645E+02   8.65198231E+00   8.61459494E-01
             3627                3   2.13389465E+02   2.16969925E+02   2.16969925E+02  -6.66837275E-01   8.09783745E+00   2.16969925E+02   2.16969925E+02   8.09783745E+00  -6.66837275E-01   2.17636765E+02  -7.48003082E+01   2.12983902E+02  -6.66659057E-01   2.16969742E+02   8.09783745E+00  -1.98341802E-01
             3627                4   2.13396866E+02   2.16972488E+02   2.16972488E+02  -7.25254834E-01   8.15366936E+00   2.16972488E+02   2.16972488E+02   8.15366936E+00  -7.25254834E-01   2.17697754E+02  -7.48003006E+01   2.12980667E+02  -7.21002877E-01   2.16968246E+02   8.15366936E+00   9.61482108E-01
             3628                1   1.87079041E+02   1.89685410E+02   1.89685410E+02   2.63056445E+00   2.58219481E+00   1.89685410E+02   1.89685410E+02   2.63056445E+00   2.58219481E+00   1.87103226E+02  -6.49660568E+01   1.87079025E+02   2.63061380E+00   1.89685364E+02   2.58219481E+00   9.74967554E-02
             3628                2   1.87055237E+02   1.89669540E+02   1.89669540E+02   2.64642072E+00   2.58221388E+00   1.89669540E+02   1.89669540E+02   2.64642072E+00   2.58221388E+00   1.87087326E+02  -6.49660568E+01   1.87055206E+02   2.64642549E+00   1.89669540E+02   2.58221388E+00   2.20732894E-02
             3628                3   1.87188766E+02   1.89758575E+02   1.89758575E+02   2.55747199E+00   2.58213973E+00   1.89758575E+02   1.89758575E+02   2.58213973E+00   2.55747199E+00   1.87201096E+02  -6.49660568E+01   1.87188751E+02   2.55750346E+00   1.89758530E+02   2.58213973E+00   8.47059637E-02
             3628                4   1.87163757E+02   1.89741898E+02   1.89741898E+02   2.57412696E+00   2.58215952E+00   1.89741898E+02   1.89741898E+02   2.58215952E+00   2.57412696E+00   1.87167770E+02  -6.49660568E+01   1.87163757E+02   2.57412362E+00   1.89741898E+02   2.58215952E+00   7.72641646E-03
             3629                1   8.55320358E+01   8.12310715E+01   8.12310715E+01  -4.07783937E+00  -4.52235413E+00   8.12310715E+01   8.12310715E+01  -4.07783937E+00  -4.52235413E+00   8.57534256E+01  -2.42102909E+01   8.55294266E+01   8.47958028E-01   7.63052673E+01  -4.52235413E+00   1.98985214E+01
             3629                2   8.51269226E+01   8.09600677E+01   8.09600677E+01  -3.80684638E+00  -4.52235413E+00   8.09600677E+01   8.09600677E+01  -3.80684638E+00  -4.52235413E+00   8.54824219E+01  -2.42102890E+01   8.51201553E+01   1.02035105E+00   7.61328735E+01  -4.52235413E+00   1.96439438E+01
             3629                3   8.58748398E+01   8.14600449E+01   8.14600449E+01  -4.30682659E+00  -4.52235413E+00   8.14600449E+01   8.14600449E+01  -4.30682659E+00  -4.52235413E+00   8.59823990E+01  -2.42102890E+01   8.58742371E+01   5.03938973E-01   7.66492844E+01  -4.52235413E+00   1.97347584E+01
             3629                4   8.52806854E+01   8.10629807E+01   8.10629807E+01  -3.90975523E+00  -4.52235413E+00   8.10629807E+01   8.10629807E+01  -3.90975523E+00  -4.52235413E+00   8.55853348E+01  -2.42102909E+01   8.52757416E+01   8.02468479E-01   7.63507614E+01  -4.52235413E+00   1.94475040E+01
             3630                1   3.91672935E+01   3.30210152E+01   3.30210152E+01  -1.69416428E+00  -9.44073963E+00   3.30210152E+01   3.30210152E+01  -1.69416428E+00  -9.44073963E+00   4.24617538E+01  -7.29537058E+00   3.73849869E+01   8.30554962E+00   2.30213013E+01  -9.44073963E+00   1.57209282E+01
             3630                2   3.94566078E+01   3.32380714E+01   3.32380714E+01  -1.91122437E+00  -9.44073963E+00   3.32380714E+01   3.32380714E+01  -1.91122437E+00  -9.44073963E+00   4.26788139E+01  -7.29536963E+00   3.77891846E+01   7.82912493E+00   2.34977245E+01  -9.44073963E+00   1.57318792E+01
             3630                3   3.97196045E+01   3.34344482E+01   3.34344482E+01  -2.10759783E+00  -9.44073963E+00   3.34344482E+01   3.34344482E+01  -2.10759783E+00  -9.44073963E+00   4.28751869E+01  -7.29537058E+00   3.81517525E+01   8.36212921E+00   2.29647217E+01  -9.44073963E+00   1.62018623E+01
             3630                4   4.00106812E+01   3.36507874E+01   3.36507874E+01  -2.32393742E+00  -9.44073963E+00   3.36507874E+01   3.36507874E+01  -2.32393742E+00  -9.44073963E+00   4.30915298E+01  -7.29537058E+00   3.85478935E+01   7.88513279E+00   2.34417171E+01  -9.44073963E+00   1.62186127E+01
             3631                1   3.61434898E+01   3.86455917E+01   3.86455917E+01   1.69976187E+00   3.36177921E+00   3.86455917E+01   3.86455917E+01   3.36177921E+00   1.69976187E+00   3.69458275E+01  -1.45690432E+01   3.60573654E+01   3.36907363E+00   3.69762802E+01   3.36177921E+00   7.67381573E+00
             3631                2   3.60973625E+01   3.86155014E+01   3.86155014E+01   1.72985220E+00   3.36177921E+00   3.86155014E+01   3.86155014E+01   3.36177921E+00   1.72985220E+00   3.68856468E+01  -1.45690432E+01   3.60142250E+01   3.40819597E+00   3.69371567E+01   3.36177921E+00   7.68699837E+00
             3631                3   3.61068306E+01   3.86216774E+01   3.86216774E+01   1.72367513E+00   3.36177921E+00   3.86216774E+01   3.86216774E+01   3.36177921E+00   1.72367513E+00   3.68980026E+01  -1.45690432E+01   3.60230827E+01   3.37861395E+00   3.69667397E+01   3.36177921E+00   7.63708496E+00
             3631                4   3.60608559E+01   3.85916786E+01   3.85916786E+01   1.75367236E+00   3.36177921E+00   3.85916786E+01   3.85916786E+01   3.36177921E+00   1.75367236E+00   3.68380089E+01  -1.45690432E+01   3.59800491E+01   3.41753411E+00   3.69278183E+01   3.36177921E+00   7.65015745E+00
             3632                1   3.33491440E+01   4.35325203E+01   4.35325203E+01   1.00865622E+01   1.02810402E+01   4.35325203E+01   4.35325203E+01   1.02810402E+01   1.00865622E+01   3.34459610E+01  -2.13000412E+01   3.33478699E+01   1.01756449E+01   4.34434395E+01   1.02810402E+01   1.72380209E+00
             3632                2   3.33339195E+01   4.35223999E+01   4.35223999E+01   1.00966845E+01   1.02810402E+01   4.35223999E+01   4.35223999E+01   1.02810402E+01   1.00966845E+01   3.34257126E+01  -2.13000412E+01   3.33327713E+01   1.02151842E+01   4.34039001E+01   1.02810402E+01   1.98667049E+00
             3632                3   3.29434853E+01   4.32623215E+01   4.32623215E+01   1.03567629E+01   1.02810402E+01   4.32623215E+01   4.32623215E+01   1.03567629E+01   1.02810402E+01   3.29812813E+01  -2.13000412E+01   3.29432869E+01   1.04419785E+01   4.31771049E+01   1.02810402E+01   1.67236376E+00
             3632                4   3.29285088E+01   4.32523232E+01   4.32523232E+01   1.03667583E+01   1.02810402E+01   4.32523232E+01   4.32523232E+01   1.03667583E+01   1.02810402E+01   3.29712830E+01  -2.13000412E+01   3.29282570E+01   1.04810839E+01   4.31380005E+01   1.02810402E+01   1.93560004E+00
             3633                1   9.70060120E+01   9.99356537E+01   9.99356537E+01   2.51189947E+00   3.35284972E+00   9.99356537E+01   9.99356537E+01   3.35284972E+00   2.51189947E+00   9.74237595E+01  -3.52668037E+01   9.69978104E+01   1.00862350E+01   9.23613205E+01   3.35284972E+00   2.60873470E+01
             3633                2   9.62285233E+01   9.94188766E+01   9.94188766E+01   3.02867770E+00   3.35284972E+00   9.94188766E+01   9.94188766E+01   3.35284972E+00   3.02867770E+00   9.63901978E+01  -3.52668037E+01   9.62272949E+01   1.00481739E+01   9.23993835E+01   3.35284972E+00   2.50466995E+01
             3633                3   9.83869095E+01   1.00850243E+02   1.00850243E+02   1.59730911E+00   3.35284972E+00   1.00850243E+02   1.00850243E+02   3.35284972E+00   1.59730911E+00   9.92529373E+01  -3.52668037E+01   9.83516617E+01   9.07655621E+00   9.33710022E+01   3.35284972E+00   2.61991959E+01
             3633                4   9.76322479E+01   1.00350922E+02   1.00350922E+02   2.09663153E+00   3.35284972E+00   1.00350922E+02   1.00350922E+02   3.35284972E+00   2.09663153E+00   9.82542953E+01  -3.52668037E+01   9.76140518E+01   9.02869129E+00   9.34188614E+01   3.35284972E+00   2.51605129E+01
             3634                1   7.83386536E+01   7.22933960E+01   7.22933960E+01  -5.43474960E+00  -6.64181995E+00   7.22933960E+01   7.22933960E+01  -5.43474960E+00  -6.64181995E+00   7.89352112E+01  -2.00722752E+01   7.83177261E+01  -1.48974752E+00   6.83483887E+01  -6.64181995E+00   1.70609131E+01
             3634                2   7.78459778E+01   7.19619904E+01   7.19619904E+01  -5.10334682E+00  -6.64181995E+00   7.19619904E+01   7.19619904E+01  -5.10334682E+00  -6.64181995E+00   7.86038132E+01  -2.00722752E+01   7.78117599E+01  -1.43968320E+00   6.82983246E+01  -6.64181995E+00   1.63987541E+01
             3634                3   7.91830597E+01   7.28596878E+01   7.28596878E+01  -6.00104189E+00  -6.64181995E+00   7.28596878E+01   7.28596878E+01  -6.00104189E+00  -6.64181995E+00   7.95015030E+01  -2.00722752E+01   7.91772232E+01  -2.14496136E+00   6.90036011E+01  -6.64181995E+00   1.70065918E+01
             3634                4   7.86949463E+01   7.25325928E+01   7.25325928E+01  -5.67396116E+00  -6.64181995E+00   7.25325928E+01   7.25325928E+01  -5.67396116E+00  -6.64181995E+00   7.91744156E+01  -2.00722713E+01   7.86815567E+01  -2.09645486E+00   6.89550934E+01  -6.64181995E+00   1.63396950E+01
             3635                1   3.88513107E+01   3.19982738E+01   3.19982738E+01  -2.14377928E+00  -1.02752209E+01   3.19982738E+01   3.19982738E+01  -2.14377928E+00  -1.02752209E+01   4.22734947E+01  -6.52642441E+00   3.68630943E+01   5.30020666E+00   2.45542870E+01  -1.02752209E+01   1.40975189E+01
             3635                2   3.88003502E+01   3.19595966E+01   3.19595966E+01  -2.10510349E+00  -1.02752209E+01   3.19595966E+01   3.19595966E+01  -2.10510349E+00  -1.02752209E+01   4.22348175E+01  -6.52642393E+00   3.67895584E+01   5.12045193E+00   2.47340412E+01  -1.02752209E+01   1.39257927E+01
             3635                3   3.91786690E+01   3.22458649E+01   3.22458649E+01  -2.39136982E+00  -1.02752209E+01   3.22458649E+01   3.22458649E+01  -2.39136982E+00  -1.02752209E+01   4.25210876E+01  -6.52642488E+00   3.73308754E+01   5.22268772E+00   2.46318073E+01  -1.02752209E+01   1.43441992E+01
             3635                4   3.91896057E+01   3.22541122E+01   3.22541122E+01  -2.39961982E+00  -1.02752209E+01   3.22541122E+01   3.22541122E+01  -2.39961982E+00  -1.02752209E+01   4.25293350E+01  -6.52642441E+00   3.73463745E+01   5.03095388E+00   2.48235397E+01  -1.02752209E+01   1.42226477E+01
             3636                1   3.62326508E+01   3.90450554E+01   3.90450554E+01   2.05023241E+00   3.62598872E+00   3.90450554E+01   3.90450554E+01   3.62598872E+00   2.05023241E+00   3.69948235E+01  -1.49070921E+01   3.61554375E+01   3.90461516E+00   3.71906738E+01   3.62598872E+00   8.07240772E+00
             3636                2   3.62932281E+01   3.90845985E+01   3.90845985E+01   2.01069355E+00   3.62598872E+00   3.90845985E+01   3.90845985E+01   3.62598872E+00   2.01069355E+00   3.70739059E+01  -1.49070930E+01   3.62122192E+01   3.90306759E+00   3.71922226E+01   3.62598872E+00   8.15945148E+00
             3636                3   3.61062279E+01   3.89624672E+01   3.89624672E+01   2.13281822E+00   3.62598872E+00   3.89624672E+01   3.89624672E+01   3.62598872E+00   2.13281822E+00   3.68296509E+01  -1.49070921E+01   3.60366631E+01   3.99819493E+00   3.70970917E+01   3.62598872E+00   8.07598686E+00
             3636                4   3.61674957E+01   3.90025024E+01   3.90025024E+01   2.09278822E+00   3.62598872E+00   3.90025024E+01   3.90025024E+01   3.62598872E+00   2.09278822E+00   3.69097137E+01  -1.49070930E+01   3.60942688E+01   3.99627161E+00   3.70990181E+01   3.62598872E+00   8.16295433E+00
             3637                1   1.38992233E+01   2.02487755E+00   2.02487755E+00   6.36327088E-01  -1.25165043E+01   2.02487755E+00  -1.25165043E+01   6.36327088E-01  -1.25165043E+01   1.45413818E+01   3.28509998E+00  -1.37418785E+01   1.25942564E+00   1.40177894E+00  -1.25165043E+01   6.90617085E-01
             3637                2   1.39049559E+01   2.06213737E+00   2.06213737E+00   5.99067211E-01  -1.25165043E+01   2.06213737E+00  -1.25165043E+01   5.99067211E-01  -1.25165043E+01   1.45786419E+01   3.28509998E+00  -1.37301817E+01   9.68392015E-01   1.69281256E+00  -1.25165043E+01   6.35568500E-01
             3637                3   1.39540558E+01   2.32614636E+00   2.32614636E+00   3.35058093E-01  -1.25165043E+01   2.32614636E+00  -1.25165043E+01   3.35058093E-01  -1.25165043E+01   1.48426504E+01   3.28509998E+00  -1.36289625E+01   1.23560178E+00   1.42560279E+00  -1.25165043E+01   9.91001070E-01
             3637                4   1.39577894E+01   2.34343910E+00   2.34343910E+00   3.17765564E-01  -1.25165043E+01   2.34343910E+00  -1.25165043E+01   3.17765564E-01  -1.25165043E+01   1.48599434E+01   3.28509998E+00  -1.36211910E+01   9.44525182E-01   1.71667945E+00  -1.25165043E+01   9.36366737E-01
             3638                1   1.75817585E+01   7.44731140E+00   7.44731140E+00   3.74987334E-01  -1.25692902E+01   7.44731140E+00  -1.25692902E+01   3.74987334E-01  -1.25692902E+01   2.00166016E+01   1.58233058E+00  -1.37884169E+01   1.97230375E+00   5.84999466E+00  -1.25692902E+01   2.95724869E+00
             3638                2   1.77287979E+01   7.68409586E+00   7.68409586E+00   1.38202876E-01  -1.25692902E+01   7.68409586E+00  -1.25692902E+01   1.38202876E-01  -1.25692902E+01   2.02533855E+01   1.58233058E+00  -1.33228016E+01   1.58776617E+00   6.23453236E+00  -1.25692902E+01   2.97271180E+00
             3638                3   1.77735043E+01   7.75356817E+00   7.75356817E+00   6.87302500E-02  -1.25692902E+01   7.75356817E+00  -1.25692902E+01   6.87302500E-02  -1.25692902E+01   2.03228588E+01   1.58233058E+00  -1.31737728E+01   2.03540134E+00   5.78689718E+00  -1.25692902E+01   3.35346889E+00
             3638                4   1.79172421E+01   7.96999550E+00   7.96999550E+00  -1.47697404E-01  -1.25692902E+01   7.96999550E+00  -1.25692902E+01  -1.47697404E-01  -1.25692902E+01   2.05392857E+01   1.58233070E+00  -1.26673889E+01   1.64990497E+00   6.17239332E+00  -1.25692902E+01   3.37060952E+00
             3639                1   1.31941071E+02   1.45646896E+02   1.45646896E+02   6.37199354E+00   2.25274773E+01   1.45646896E+02   1.45646896E+02   2.25274773E+01   6.37199354E+00   1.39274902E+02  -5.81821251E+01   1.29687851E+02   4.22770920E+01   1.09741806E+02   2.25274773E+01   6.09221039E+01
             3639                2   1.28613388E+02   1.43539902E+02   1.43539902E+02   8.47899628E+00   2.25274773E+01   1.43539902E+02   1.43539902E+02   2.25274773E+01   8.47899628E+00   1.35060898E+02  -5.81821251E+01   1.26869987E+02   4.24298820E+01   1.09589012E+02   2.25274773E+01   5.85898819E+01
             3639                3   1.33334381E+02   1.46525955E+02   1.46525955E+02   5.49292994E+00   2.25274773E+01   1.46525955E+02   1.46525955E+02   2.25274773E+01   5.49292994E+00   1.41033035E+02  -5.81821251E+01   1.30852661E+02   3.97696877E+01   1.12249207E+02   2.25274773E+01   6.04918060E+01
             3639                4   1.29995529E+02   1.44416351E+02   1.44416351E+02   7.60253716E+00   2.25274773E+01   1.44416351E+02   1.44416351E+02   2.25274773E+01   7.60253716E+00   1.36813812E+02  -5.81821251E+01   1.28046661E+02   3.99644432E+01   1.12054451E+02   2.25274773E+01   5.81400261E+01
             3640                1   1.42658981E+02   1.61023590E+02   1.61023590E+02   1.18579483E+01   2.59114971E+01   1.61023590E+02   1.61023590E+02   2.59114971E+01   1.18579483E+01   1.49165649E+02  -6.62643509E+01   1.41089005E+02   3.23913269E+01   1.40490219E+02   2.59114971E+01   5.13931427E+01
             3640                2   1.46720215E+02   1.63605164E+02   1.63605164E+02   9.27638340E+00   2.59114971E+01   1.63605164E+02   1.63605164E+02   2.59114971E+01   9.27638340E+00   1.54328781E+02  -6.62643509E+01   1.44575714E+02   3.11311951E+01   1.41750351E+02   2.59114971E+01   5.38070030E+01
             3640                3   1.40550995E+02   1.59677353E+02   1.59677353E+02   1.32041912E+01   2.59114971E+01   1.59677353E+02   1.59677353E+02   2.59114971E+01   1.32041912E+01   1.46473160E+02  -6.62643509E+01   1.39249817E+02   3.52948151E+01   1.37586731E+02   2.59114971E+01   5.24183922E+01
             3640                4   1.44862778E+02   1.62426361E+02   1.62426361E+02   1.04551811E+01   2.59114971E+01   1.62426361E+02   1.62426361E+02   2.59114971E+01   1.04551811E+01   1.51971176E+02  -6.62643509E+01   1.42990005E+02   3.43764992E+01   1.38505051E+02   2.59114971E+01   5.53454704E+01
             3641                1   9.14373093E+01   9.24408493E+01   9.24408493E+01   1.07003272E+00   9.37190533E-01   9.24408493E+01   9.24408493E+01   1.07003272E+00   9.37190533E-01   9.15036545E+01  -3.14826889E+01   9.14370880E+01   8.53667831E+00   8.49741974E+01   9.37190533E-01   2.50296421E+01
             3641                2   9.27282791E+01   9.33001175E+01   9.33001175E+01   2.10761070E-01   9.37190533E-01   9.33001175E+01   9.33001175E+01   9.37190533E-01   2.10761070E-01   9.30893555E+01  -3.14826889E+01   9.27218781E+01   7.46229029E+00   8.60485916E+01   9.37190533E-01   2.49490547E+01
             3641                3   9.23343735E+01   9.30383530E+01   9.30383530E+01   4.72526014E-01   9.37190533E-01   9.30383530E+01   9.30383530E+01   9.37190533E-01   4.72526014E-01   9.25658264E+01  -3.14826889E+01   9.23317413E+01   8.59618855E+00   8.49146881E+01   9.37190533E-01   2.61912174E+01
             3641                4   9.35901337E+01   9.38716125E+01   9.38716125E+01  -3.60734820E-01   9.37190533E-01   9.38716125E+01   9.38716125E+01   9.37190533E-01  -3.60734820E-01   9.42323456E+01  -3.14826889E+01   9.35698853E+01   7.51789141E+00   8.59929886E+01   9.37190533E-01   2.60834942E+01
             3642                1   1.28273306E+01   1.61628282E+00   1.61628282E+00   8.43152404E-01  -1.15801268E+01   1.61628282E+00  -1.15801268E+01   8.43152404E-01  -1.15801268E+01   1.31964092E+01   3.04023051E+00  -1.27747526E+01   1.46282518E+00   9.96609986E-01  -1.15801268E+01   3.08372319E-01
             3642                2   1.28516617E+01   1.82780004E+00   1.82780004E+00   6.31634891E-01  -1.15801268E+01   1.82780004E+00  -1.15801268E+01   6.31634891E-01  -1.15801268E+01   1.34079266E+01   3.04023051E+00  -1.27255182E+01   1.50056553E+00   9.58869576E-01  -1.15801268E+01   5.33239305E-01
             3642                3   1.28404140E+01   1.74096835E+00   1.74096835E+00   7.18466818E-01  -1.15801268E+01   1.74096835E+00  -1.15801268E+01   7.18466818E-01  -1.15801268E+01   1.33210955E+01   3.04023051E+00  -1.27483368E+01   1.68033147E+00   7.79103696E-01  -1.15801268E+01   2.41504639E-01
             3642                4   1.28632946E+01   1.90604246E+00   1.90604246E+00   5.53392589E-01  -1.15801268E+01   1.90604246E+00  -1.15801268E+01   5.53392589E-01  -1.15801268E+01   1.34861689E+01   3.04023051E+00  -1.27018118E+01   1.71854770E+00   7.40887403E-01  -1.15801268E+01   4.67397571E-01
             3643                1   1.82808857E+01   1.05130739E+01   1.05130739E+01   8.68942887E-02  -1.05953579E+01   1.05130739E+01  -1.05953579E+01   8.68942887E-02  -1.05953579E+01   2.11084309E+01  -1.53668725E-03  -5.04436541E+00   6.44542599E+00   4.15454245E+00  -1.05953579E+01   5.08569241E+00
             3643                2   1.85745468E+01   1.08483152E+01   1.08483152E+01  -2.48345956E-01  -1.05953579E+01   1.08483152E+01   1.08483152E+01  -2.48345956E-01  -1.05953579E+01   2.14436722E+01  -1.53700507E-03   7.29205513E+00   6.21035480E+00   4.38961411E+00  -1.05953579E+01   5.47313404E+00
             3643                3   1.85130539E+01   1.07793779E+01   1.07793779E+01  -1.79408938E-01  -1.05953579E+01   1.07793779E+01   1.07793779E+01  -1.79408938E-01  -1.05953579E+01   2.13747349E+01  -1.53700507E-03   6.53427744E+00   6.80300426E+00   3.79696441E+00  -1.05953579E+01   5.26922035E+00
             3643                4   1.87708111E+01   1.10642843E+01   1.10642843E+01  -4.64314938E-01  -1.05953579E+01   1.10642843E+01   1.10642843E+01  -4.64314938E-01  -1.05953579E+01   2.16596413E+01  -1.53700507E-03   9.03388214E+00   6.58549404E+00   4.01447487E+00  -1.05953579E+01   5.61912918E+00
             3644                1   1.55306763E+02   1.72311783E+02   1.72311783E+02   7.78335905E+00   2.82576771E+01   1.72311783E+02   1.72311783E+02   2.82576771E+01   7.78335905E+00   1.64528427E+02  -6.94509354E+01   1.52226059E+02   3.90905647E+01   1.41004578E+02   2.82576771E+01   6.45816040E+01
             3644                2   1.51704010E+02   1.70039474E+02   1.70039474E+02   1.00556631E+01   2.82576771E+01   1.70039474E+02   1.70039474E+02   2.82576771E+01   1.00556631E+01   1.59983810E+02  -6.94509354E+01   1.49217621E+02   3.98340759E+01   1.40261063E+02   2.82576771E+01   6.22680511E+01
             3644                3   1.56998352E+02   1.73375229E+02   1.73375229E+02   6.71992302E+00   2.82576771E+01   1.73375229E+02   1.73375229E+02   2.82576771E+01   6.71992302E+00   1.66655304E+02  -6.94509430E+01   1.53621887E+02   3.66095047E+01   1.43485641E+02   2.82576771E+01   6.39364586E+01
             3644                4   1.53431198E+02   1.71130142E+02   1.71130142E+02   8.96501923E+00   2.82576771E+01   1.71130142E+02   1.71130142E+02   2.82576771E+01   8.96501923E+00   1.62165115E+02  -6.94509430E+01   1.50666061E+02   3.74145737E+01   1.42680573E+02   2.82576771E+01   6.16777802E+01
             3645                1   5.94556770E+01   5.23891106E+01   5.23891106E+01  -5.40247250E+00  -8.60149860E+00   5.23891106E+01   5.23891106E+01  -5.40247250E+00  -8.60149860E+00   6.09906082E+01  -1.27950468E+01   5.92615776E+01  -4.15819466E-01   4.74024582E+01  -8.60149860E+00   1.62271309E+01
             3645                2   5.86204414E+01   5.18145638E+01   5.18145638E+01  -4.82792711E+00  -8.60149860E+00   5.18145638E+01   5.18145638E+01  -4.82792711E+00  -8.60149860E+00   6.04160614E+01  -1.27950468E+01   5.83462334E+01   2.64333487E-01   4.67223053E+01  -8.60149860E+00   1.62020721E+01
             3645                3   5.90499725E+01   5.21104584E+01   5.21104584E+01  -5.12381649E+00  -8.60149860E+00   5.21104584E+01   5.21104584E+01  -5.12381649E+00  -8.60149860E+00   6.07119560E+01  -1.27950478E+01   5.88189011E+01  -4.82576162E-01   4.74692154E+01  -8.60149860E+00   1.56236038E+01
             3645                4   5.82007446E+01   5.15245476E+01   5.15245476E+01  -4.53790665E+00  -8.60149860E+00   5.15245476E+01   5.15245476E+01  -4.53790665E+00  -8.60149860E+00   6.01260452E+01  -1.27950478E+01   5.78802795E+01   1.94151372E-01   4.67924881E+01  -8.60149860E+00   1.55852003E+01
             3646                1   5.48788681E+01   5.60530472E+01   5.60530472E+01   2.13172793E+00   2.64303416E-01   5.60530472E+01   5.60530472E+01   2.13172793E+00   2.64303416E-01   5.57887459E+01  -1.94830265E+01   5.48073082E+01   2.73311691E+01   3.08536072E+01   2.64303416E-01   2.69030724E+01
             3646                2   5.71368713E+01   5.75737495E+01   5.75737495E+01   6.11026943E-01   2.64303416E-01   5.75737495E+01   5.75737495E+01   6.11026943E-01   2.64303416E-01   5.73094444E+01  -1.94830265E+01   5.71345024E+01   2.52695255E+01   3.29152489E+01   2.64303416E-01   2.82236366E+01
             3646                3   5.60799713E+01   5.68647041E+01   5.68647041E+01   1.32007027E+00   2.64303416E-01   5.68647041E+01   5.68647041E+01   1.32007027E+00   2.64303416E-01   5.66004028E+01  -1.94830265E+01   5.60576019E+01   2.89952984E+01   2.91894760E+01   2.64303416E-01   2.77721481E+01
             3646                4   5.81945877E+01   5.82788658E+01   5.82788658E+01  -9.40894559E-02   2.64303416E-01   5.82788658E+01   5.82788658E+01   2.64303416E-01  -9.40894559E-02   5.83729553E+01  -1.94830265E+01   5.81921005E+01   2.73893890E+01   3.07953873E+01   2.64303416E-01   2.91367512E+01
             3647                1   1.06028587E+02   1.13570419E+02   1.13570419E+02   6.76034307E+00   8.34099770E+00   1.13570419E+02   1.13570419E+02   8.34099770E+00   6.76034307E+00   1.06810081E+02  -4.28905907E+01   1.06002068E+02   1.24757118E+01   1.07855057E+02   8.34099770E+00   2.40373287E+01
             3647                2   1.06757408E+02   1.14052231E+02   1.14052231E+02   6.27853251E+00   8.34099770E+00   1.14052231E+02   1.14052231E+02   8.34099770E+00   6.27853251E+00   1.07773697E+02  -4.28905907E+01   1.06712563E+02   1.18950825E+01   1.08435684E+02   8.34099770E+00   2.39535084E+01
             3647                3   1.06356567E+02   1.13787369E+02   1.13787369E+02   6.54339409E+00   8.34099770E+00   1.13787369E+02   1.13787369E+02   8.34099770E+00   6.54339409E+00   1.07243973E+02  -4.28905907E+01   1.06322372E+02   1.25224905E+01   1.07808273E+02   8.34099770E+00   2.46063519E+01
             3647                4   1.07067093E+02   1.14256653E+02   1.14256653E+02   6.07411575E+00   8.34099770E+00   1.14256653E+02   1.14256653E+02   8.34099770E+00   6.07411575E+00   1.08182533E+02  -4.28905907E+01   1.07013077E+02   1.19515333E+01   1.08379234E+02   8.34099770E+00   2.45212078E+01
             3648                1   4.08537521E+01   3.44768829E+01   3.44768829E+01  -2.02284551E+00  -9.65456581E+00   3.44768829E+01   3.44768829E+01  -2.02284551E+00  -9.65456581E+00   4.41314468E+01  -7.59982347E+00   3.92015762E+01   7.08400774E+00   2.53700275E+01  -9.65456581E+00   1.57943945E+01
             3648                2   4.11330261E+01   3.46847992E+01   3.46847992E+01  -2.23076797E+00  -9.65456581E+00   3.46847992E+01   3.46847992E+01  -2.23076797E+00  -9.65456581E+00   4.43393669E+01  -7.59982252E+00   3.95834656E+01   6.61144829E+00   2.58425865E+01  -9.65456581E+00   1.57553368E+01
             3648                3   4.13871803E+01   3.48732185E+01   3.48732185E+01  -2.41918564E+00  -9.65456581E+00   3.48732185E+01   3.48732185E+01  -2.41918564E+00  -9.65456581E+00   4.45277824E+01  -7.59982252E+00   3.99269142E+01   7.12345600E+00   2.53305779E+01  -9.65456581E+00   1.62728615E+01
             3648                4   4.16709518E+01   3.50827141E+01   3.50827141E+01  -2.62868023E+00  -9.65456581E+00   3.50827141E+01   3.50827141E+01  -2.62868023E+00  -9.65456581E+00   4.47372780E+01  -7.59982252E+00   4.03059616E+01   6.64533901E+00   2.58086948E+01  -9.65456581E+00   1.62397270E+01
             3649                1   1.89242294E+02   1.90639786E+02   1.90639786E+02   1.10697627E+00   1.68933737E+00   1.90639786E+02   1.90639786E+02   1.68933737E+00   1.10697627E+00   1.89532806E+02  -6.44786987E+01   1.89240295E+02   1.11246300E+00   1.90634308E+02   1.68933737E+00   1.01921785E+00
             3649                2   1.88777512E+02   1.90330276E+02   1.90330276E+02   1.41624260E+00   1.68959248E+00   1.90330276E+02   1.90330276E+02   1.68959248E+00   1.41624260E+00   1.88914032E+02  -6.44787064E+01   1.88777069E+02   1.42270625E+00   1.90323822E+02   1.68959248E+00   1.10438323E+00
             3649                3   1.89118271E+02   1.90557220E+02   1.90557220E+02   1.18945372E+00   1.68944955E+00   1.90557220E+02   1.90557220E+02   1.68944955E+00   1.18945372E+00   1.89367767E+02  -6.44787064E+01   1.89116776E+02   1.19201171E+00   1.90554657E+02   1.68944955E+00   6.96647584E-01
             3649                4   1.88653854E+02   1.90247894E+02   1.90247894E+02   1.49851930E+00   1.68970394E+00   1.90247894E+02   1.90247894E+02   1.68970394E+00   1.49851930E+00   1.88749374E+02  -6.44787064E+01   1.88653641E+02   1.50176835E+00   1.90244644E+02   1.68970394E+00   7.83300519E-01
             3650                1   3.76739311E+01   4.53324928E+01   4.53324928E+01   7.55235004E+00   7.76567650E+00   4.53324928E+01   4.53324928E+01   7.76567650E+00   7.55235004E+00   3.77801437E+01  -2.02168407E+01   3.76725693E+01   7.76232433E+00   4.51225166E+01   7.76567650E+00   2.80870271E+00
             3650                2   3.76408234E+01   4.53104782E+01   4.53104782E+01   7.57436228E+00   7.76567650E+00   4.53104782E+01   4.53104782E+01   7.76567650E+00   7.57436228E+00   3.77361183E+01  -2.02168407E+01   3.76397285E+01   7.82243395E+00   4.50624084E+01   7.76567650E+00   3.04954028E+00
             3650                3   3.72772636E+01   4.50683327E+01   4.50683327E+01   7.81651068E+00   7.76567650E+00   4.50683327E+01   4.50683327E+01   7.81651068E+00   7.76567650E+00   3.73026543E+01  -2.02168407E+01   3.72771835E+01   8.01981544E+00   4.48650246E+01   7.76567650E+00   2.74448705E+00
             3650                4   3.72452774E+01   4.50469894E+01   4.50469894E+01   7.83785391E+00   7.76567650E+00   4.50469894E+01   4.50469894E+01   7.83785391E+00   7.76567650E+00   3.72813110E+01  -2.02168407E+01   3.72451172E+01   8.07905769E+00   4.48057823E+01   7.76567650E+00   2.98611474E+00
             3651                1   9.59158478E+01   9.77864685E+01   9.77864685E+01   9.89783466E-01   2.77642655E+00   9.77864685E+01   9.77864685E+01   2.77642655E+00   9.89783466E-01   9.67966843E+01  -3.38508949E+01   9.58783951E+01   9.65787601E+00   8.91183777E+01   2.77642655E+00   2.76388626E+01
             3651                2   9.45783997E+01   9.69010162E+01   9.69010162E+01   1.87524772E+00   2.77642655E+00   9.69010162E+01   9.69010162E+01   2.77642655E+00   1.87524772E+00   9.50257645E+01  -3.38508949E+01   9.45687332E+01   1.08171606E+01   8.79590988E+01   2.77642655E+00   2.77444477E+01
             3651                3   9.49377594E+01   9.71393127E+01   9.71393127E+01   1.63694084E+00   2.77642655E+00   9.71393127E+01   9.71393127E+01   2.77642655E+00   1.63694084E+00   9.55023727E+01  -3.38508949E+01   9.49223709E+01   9.63341713E+00   8.91428375E+01   2.77642655E+00   2.64525738E+01
             3651                4   9.36252213E+01   9.62675171E+01   9.62675171E+01   2.50874233E+00   2.77642655E+00   9.62675171E+01   9.62675171E+01   2.77642655E+00   2.50874233E+00   9.37587738E+01  -3.38508949E+01   9.36243591E+01   1.07462053E+01   8.80300522E+01   2.77642655E+00   2.65420208E+01
             3652                1   8.90803680E+01   8.64739151E+01   8.64739151E+01  -2.47619224E+00  -2.73614216E+00   8.64739151E+01   8.64739151E+01  -2.47619224E+00  -2.73614216E+00   8.92100601E+01  -2.70871944E+01   8.90795212E+01   2.91826272E+00   8.10794601E+01  -2.73614216E+00   2.12305794E+01
             3652                2   8.84545822E+01   8.60556183E+01   8.60556183E+01  -2.05788827E+00  -2.73614216E+00   8.60556183E+01   8.60556183E+01  -2.05788827E+00  -2.73614216E+00   8.87917557E+01  -2.70871944E+01   8.84487305E+01   2.93771124E+00   8.10600128E+01  -2.73614216E+00   2.03770447E+01
             3652                3   9.01352158E+01   8.71767960E+01   8.71767960E+01  -3.17907524E+00  -2.73614216E+00   8.71767960E+01   8.71767960E+01  -2.73614216E+00  -3.17907524E+00   9.03558731E+01  -2.70871906E+01   9.01327744E+01   2.14967585E+00   8.18480453E+01  -2.73614216E+00   2.12858677E+01
             3652                4   8.95727768E+01   8.68023682E+01   8.68023682E+01  -2.80464625E+00  -2.73614216E+00   8.68023682E+01   8.68023682E+01  -2.73614216E+00  -2.80464625E+00   8.96070099E+01  -2.70871906E+01   8.95727234E+01   2.14195323E+00   8.18557663E+01  -2.73614216E+00   2.04641418E+01
             3653                1   9.90211639E+01   1.03673813E+02   1.03673813E+02   4.05430412E+00   5.26204062E+00   1.03673813E+02   1.03673813E+02   5.26204062E+00   4.05430412E+00   9.96195068E+01  -3.76633873E+01   9.90045929E+01   1.24953957E+01   9.52327271E+01   5.26204062E+00   2.77424774E+01
             3653                2   9.80853119E+01   1.03052719E+02   1.03052719E+02   4.67540073E+00   5.26204062E+00   1.03052719E+02   1.03052719E+02   5.26204062E+00   4.67540073E+00   9.83773193E+01  -3.76633873E+01   9.80813675E+01   1.24567089E+01   9.52714081E+01   5.26204062E+00   2.65510006E+01
             3653                3   1.00672272E+02   1.04765106E+02   1.04765106E+02   2.96301413E+00   5.26204062E+00   1.04765106E+02   1.04765106E+02   5.26204062E+00   2.96301413E+00   1.01802094E+02  -3.76633873E+01   1.00613174E+02   1.12981234E+01   9.64299927E+01   5.26204062E+00   2.79116058E+01
             3653                4   9.98042297E+01   1.04192078E+02   1.04192078E+02   3.53604078E+00   5.26204062E+00   1.04192078E+02   1.04192078E+02   5.26204062E+00   3.53604078E+00   1.00656036E+02  -3.76633873E+01   9.97706451E+01   1.12198391E+01   9.65082779E+01   5.26204062E+00   2.67278900E+01
             3654                1   9.33222504E+01   9.11589127E+01   9.11589127E+01  -2.27704501E+00  -2.04922009E+00   9.11589127E+01   9.11589127E+01  -2.04922009E+00  -2.27704501E+00   9.34359589E+01  -2.89442158E+01   9.33216248E+01   1.46402001E+00   8.74178467E+01  -2.04922009E+00   1.83181438E+01
             3654                2   9.37164536E+01   9.14212112E+01   9.14212112E+01  -2.53934503E+00  -2.04922009E+00   9.14212112E+01   9.14212112E+01  -2.04922009E+00  -2.53934503E+00   9.39605560E+01  -2.89442158E+01   9.37135696E+01   1.45891011E+00   8.74229584E+01  -2.04922009E+00   1.89655495E+01
             3654                3   9.25297470E+01   9.06304703E+01   9.06304703E+01  -1.74860311E+00  -2.04922009E+00   9.06304703E+01   9.06304703E+01  -1.74860311E+00  -2.04922009E+00   9.26796875E+01  -2.89442158E+01   9.25286484E+01   2.04647756E+00   8.68353882E+01  -2.04922009E+00   1.83353062E+01
             3654                4   9.29329529E+01   9.08995132E+01   9.08995132E+01  -2.01764798E+00  -2.04922009E+00   9.08995132E+01   9.08995132E+01  -2.01764798E+00  -2.04922009E+00   9.29487381E+01  -2.89442158E+01   9.29329376E+01   2.03232002E+00   8.68495483E+01  -2.04922009E+00   1.89712715E+01
             3655                1   7.96288605E+01   8.50261078E+01   8.50261078E+01   3.22566962E+00   7.76284313E+00   8.50261078E+01   8.50261078E+01   7.76284313E+00   3.22566962E+00   8.18004379E+01  -3.20048714E+01   7.93372498E+01   3.69886894E+01   5.12630882E+01   7.76284313E+00   4.02726746E+01
             3655                2   7.87616806E+01   8.44625168E+01   8.44625168E+01   3.78925800E+00   7.76284313E+00   8.44625168E+01   8.44625168E+01   7.76284313E+00   3.78925800E+00   8.06732635E+01  -3.20048714E+01   7.85356903E+01   3.63780861E+01   5.18736916E+01   7.76284313E+00   3.95855446E+01
             3655                3   8.07708435E+01   8.57658463E+01   8.57658463E+01   2.48593140E+00   7.76284313E+00   8.57658463E+01   8.57658463E+01   7.76284313E+00   2.48593140E+00   8.32799149E+01  -3.20048714E+01   8.03816452E+01   3.63975029E+01   5.18542747E+01   7.76284313E+00   4.09164772E+01
             3655                4   7.99333267E+01   8.52236023E+01   8.52236023E+01   3.02817845E+00   7.76284313E+00   8.52236023E+01   8.52236023E+01   7.76284313E+00   3.02817845E+00   8.21954193E+01  -3.20048714E+01   7.96169205E+01   3.57765617E+01   5.24752159E+01   7.76284313E+00   4.02406578E+01
             3656                1   9.20631104E+01   8.94613953E+01   8.94613953E+01  -2.84526992E+00  -2.35620666E+00   8.94613953E+01   8.94613953E+01  -2.35620666E+00  -2.84526992E+00   9.23066635E+01  -2.80866394E+01   9.20601883E+01   1.80580306E+00   8.48103256E+01  -2.35620666E+00   2.01913948E+01
             3656                2   9.12279510E+01   8.89052582E+01   8.89052582E+01  -2.28913903E+00  -2.35620666E+00   8.89052582E+01   8.89052582E+01  -2.28913903E+00  -2.35620666E+00   9.12614670E+01  -2.80866375E+01   9.12278976E+01   2.44121790E+00   8.41749039E+01  -2.35620666E+00   2.02238865E+01
             3656                3   9.15723953E+01   8.91348343E+01   8.91348343E+01  -2.51870704E+00  -2.35620666E+00   8.91348343E+01   8.91348343E+01  -2.35620666E+00  -2.51870704E+00   9.16535416E+01  -2.80866394E+01   9.15720749E+01   1.81233406E+00   8.48037949E+01  -2.35620666E+00   1.94472923E+01
             3656                4   9.06658783E+01   8.85300217E+01   8.85300217E+01  -1.91389430E+00  -2.35620666E+00   8.85300217E+01   8.85300217E+01  -1.91389430E+00  -2.35620666E+00   9.08862305E+01  -2.80866394E+01   9.06634521E+01   2.47937012E+00   8.41367569E+01  -2.35620666E+00   1.94433346E+01
             3657                1   1.17553268E+02   1.32640579E+02   1.32640579E+02   1.37601767E+01   1.64609871E+01   1.32640579E+02   1.32640579E+02   1.64609871E+01   1.37601767E+01   1.18880402E+02  -5.42872467E+01   1.17483437E+02   1.66871490E+01   1.29713608E+02   1.64609871E+01   1.84226074E+01
             3657                2   1.16886749E+02   1.32200806E+02   1.32200806E+02   1.41999369E+01   1.64609871E+01   1.32200806E+02   1.32200806E+02   1.64609871E+01   1.41999369E+01   1.18000870E+02  -5.42872429E+01   1.16837540E+02   1.72322292E+01   1.29168518E+02   1.64609871E+01   1.86713181E+01
             3657                3   1.17223984E+02   1.32423416E+02   1.32423416E+02   1.39773417E+01   1.64609871E+01   1.32423416E+02   1.32423416E+02   1.64609871E+01   1.39773417E+01   1.18446075E+02  -5.42872467E+01   1.17164772E+02   1.67126789E+01   1.29688080E+02   1.64609871E+01   1.77906628E+01
             3657                4   1.16514397E+02   1.31954803E+02   1.31954803E+02   1.44459553E+01   1.64609871E+01   1.31954803E+02   1.31954803E+02   1.64609871E+01   1.44459553E+01   1.17508842E+02  -5.42872467E+01   1.16475189E+02   1.72356567E+01   1.29165100E+02   1.64609871E+01   1.78894424E+01
             3658                1   9.48952713E+01   9.61874008E+01   9.61874008E+01   1.05111504E+00   1.53499508E+00   9.61874008E+01   9.61874008E+01   1.53499508E+00   1.05111504E+00   9.51362839E+01  -3.29245033E+01   9.48924942E+01   7.95375729E+00   8.92847595E+01   1.53499508E+00   2.46788445E+01
             3658                2   9.42254868E+01   9.57414856E+01   9.57414856E+01   1.49702919E+00   1.53499508E+00   9.57414856E+01   9.57414856E+01   1.53499508E+00   1.49702919E+00   9.42444611E+01  -3.29245033E+01   9.42254639E+01   7.87927055E+00   8.93592453E+01   1.53499508E+00   2.36803303E+01
             3658                3   9.61779022E+01   9.70384750E+01   9.70384750E+01   2.00043529E-01   1.53499508E+00   9.70384750E+01   9.70384750E+01   1.53499508E+00   2.00043529E-01   9.68384323E+01  -3.29245033E+01   9.61570511E+01   7.00488710E+00   9.02336273E+01   1.53499508E+00   2.47520657E+01
             3658                4   9.54910126E+01   9.65831528E+01   9.65831528E+01   6.55361295E-01   1.53499508E+00   9.65831528E+01   9.65831528E+01   1.53499508E+00   6.55361295E-01   9.59277954E+01  -3.29245033E+01   9.54819031E+01   6.94066858E+00   9.02978516E+01   1.53499508E+00   2.37366886E+01
             3659                1   1.09934731E+02   1.19256561E+02   1.19256561E+02   8.02535725E+00   1.06658831E+01   1.19256561E+02   1.19256561E+02   1.06658831E+01   8.02535725E+00   1.11231209E+02  -4.59826012E+01   1.09863350E+02   1.40662918E+01   1.13215630E+02   1.06658831E+01   2.52080841E+01
             3659                2   1.09329880E+02   1.18857697E+02   1.18857697E+02   8.42422867E+00   1.06658831E+01   1.18857697E+02   1.18857697E+02   1.06658831E+01   8.42422867E+00   1.10433464E+02  -4.59826012E+01   1.09278152E+02   1.45494347E+01   1.12732483E+02   1.06658831E+01   2.52766685E+01
             3659                3   1.09687447E+02   1.19093575E+02   1.19093575E+02   8.18834400E+00   1.06658831E+01   1.19093575E+02   1.19093575E+02   1.06658831E+01   8.18834400E+00   1.10905235E+02  -4.59826012E+01   1.09624474E+02   1.40052195E+01   1.13276703E+02   1.06658831E+01   2.47241936E+01
             3659                4   1.09083496E+02   1.18695030E+02   1.18695030E+02   8.58689404E+00   1.06658831E+01   1.18695030E+02   1.18695030E+02   1.06658831E+01   8.58689404E+00   1.10108131E+02  -4.59826012E+01   1.09038918E+02   1.44856176E+01   1.12796303E+02   1.06658831E+01   2.47931976E+01
             3660                1   6.13246689E+01   5.48431053E+01   5.48431053E+01  -4.88064480E+00  -7.96600628E+00   5.48431053E+01   5.48431053E+01  -4.88064480E+00  -7.96600628E+00   6.28091125E+01  -1.39988174E+01   6.11496735E+01  -1.13187015E+00   5.10943298E+01  -7.96600628E+00   1.44857712E+01
             3660                2   6.20784149E+01   5.53578072E+01   5.53578072E+01  -5.39534616E+00  -7.96600628E+00   5.53578072E+01   5.53578072E+01  -5.39534616E+00  -7.96600628E+00   6.33238106E+01  -1.39988174E+01   6.19584885E+01  -1.72743762E+00   5.16898956E+01  -7.96600628E+00   1.44700909E+01
             3660                3   6.17529106E+01   5.51358414E+01   5.51358414E+01  -5.17338133E+00  -7.96600628E+00   5.51358414E+01   5.51358414E+01  -5.17338133E+00  -7.96600628E+00   6.31018486E+01  -1.39988174E+01   6.16105995E+01  -1.14209044E+00   5.11045494E+01  -7.96600628E+00   1.50622950E+01
             3660                4   6.24862556E+01   5.56352768E+01   5.56352768E+01  -5.67281771E+00  -7.96600628E+00   5.56352768E+01   5.56352768E+01  -5.67281771E+00  -7.96600628E+00   6.36012840E+01  -1.39988174E+01   6.23914757E+01  -1.73589528E+00   5.16983566E+01  -7.96600628E+00   1.50288305E+01
             3661                1   7.02353516E+01   7.01115265E+01   7.01115265E+01   6.24204695E-01  -8.48690331E-01   7.01115265E+01   7.01115265E+01   6.24204695E-01  -8.48690331E-01   7.09602203E+01  -2.32956791E+01   7.02005997E+01   1.75534592E+01   5.31822739E+01  -8.48690331E-01   2.98289948E+01
             3661                2   7.07061462E+01   7.04283829E+01   7.04283829E+01   3.07347894E-01  -8.48690331E-01   7.04283829E+01   7.04283829E+01   3.07347894E-01  -8.48690331E-01   7.12770767E+01  -2.32956791E+01   7.06848831E+01   1.66264191E+01   5.41093140E+01  -8.48690331E-01   2.96310329E+01
             3661                3   7.14395523E+01   7.09205093E+01   7.09205093E+01  -1.84772506E-01  -8.48690331E-01   7.09205093E+01   7.09205093E+01  -1.84772506E-01  -8.48690331E-01   7.17691956E+01  -2.32956791E+01   7.14326096E+01   1.74799824E+01   5.32557487E+01  -8.48690331E-01   3.07248077E+01
             3661                4   7.19488907E+01   7.12612457E+01   7.12612457E+01  -5.25511980E-01  -8.48690331E-01   7.12612457E+01   7.12612457E+01  -5.25511980E-01  -8.48690331E-01   7.21099319E+01  -2.32956791E+01   7.19472580E+01   1.65632629E+01   5.41724701E+01  -8.48690331E-01   3.05732155E+01
             3662                1   1.76423599E+02   1.98888824E+02   1.98888824E+02   1.29782705E+01   3.38000717E+01   1.98888824E+02   1.98888824E+02   3.38000717E+01   1.29782705E+01   1.85910553E+02  -8.18890610E+01   1.73626968E+02   2.95647297E+01   1.82302368E+02   3.38000717E+01   5.29951591E+01
             3662                2   1.72903122E+02   1.96657028E+02   1.96657028E+02   1.52100649E+01   3.38000717E+01   1.96657028E+02   1.96657028E+02   3.38000717E+01   1.52100649E+01   1.81446960E+02  -8.18890610E+01   1.70632996E+02   3.12181568E+01   1.80648941E+02   3.38000717E+01   5.14622231E+01
             3662                3   1.77545242E+02   1.99597977E+02   1.99597977E+02   1.22691317E+01   3.38000717E+01   1.99597977E+02   1.99597977E+02   3.38000717E+01   1.22691317E+01   1.87328842E+02  -8.18890610E+01   1.74571823E+02   2.76732578E+01   1.84193848E+02   3.38000717E+01   5.14621315E+01
             3662                4   1.74028610E+02   1.97371536E+02   1.97371536E+02   1.44955721E+01   3.38000717E+01   1.97371536E+02   1.97371536E+02   3.38000717E+01   1.44955721E+01   1.82875961E+02  -8.18890610E+01   1.71594940E+02   2.93423710E+01   1.82524734E+02   3.38000717E+01   4.99469337E+01
             3663                1   4.76007614E+01   4.54199600E+01   4.54199600E+01  -1.46083796E+00  -2.86949277E+00   4.54199600E+01   4.54199600E+01  -1.46083796E+00  -2.86949277E+00   4.82894516E+01  -1.36965437E+01   4.75538292E+01   4.48229462E-01   4.35108910E+01  -2.86949277E+00   9.26574993E+00
             3663                2   4.75141449E+01   4.53613091E+01   4.53613091E+01  -1.40219104E+00  -2.86949277E+00   4.53613091E+01   4.53613091E+01  -1.40219104E+00  -2.86949277E+00   4.82308006E+01  -1.36965418E+01   4.74631310E+01   4.55585957E-01   4.35035324E+01  -2.86949277E+00   9.13371754E+00
             3663                3   4.78224945E+01   4.55699196E+01   4.55699196E+01  -1.61080241E+00  -2.86949277E+00   4.55699196E+01   4.55699196E+01  -1.61080241E+00  -2.86949277E+00   4.84394150E+01  -1.36965418E+01   4.77852020E+01   3.05927813E-01   4.36531906E+01  -2.86949277E+00   9.31444263E+00
             3663                4   4.77031021E+01   4.54892082E+01   4.54892082E+01  -1.53008842E+00  -2.86949277E+00   4.54892082E+01   4.54892082E+01  -1.53008842E+00  -2.86949277E+00   4.83586998E+01  -1.36965418E+01   4.76607666E+01   3.21679771E-01   4.36374397E+01  -2.86949277E+00   9.14547539E+00
             3664                1   6.45015869E+01   5.77877960E+01   5.77877960E+01  -5.60029554E+00  -7.77241468E+00   5.77877960E+01   5.77877960E+01  -5.60029554E+00  -7.77241468E+00   6.55602112E+01  -1.48050280E+01   6.44192200E+01  -2.15214586E+00   5.43396454E+01  -7.77241468E+00   1.43764362E+01
             3664                2   6.49122543E+01   5.80660477E+01   5.80660477E+01  -5.87854767E+00  -7.77241468E+00   5.80660477E+01   5.80660477E+01  -5.87854767E+00  -7.77241468E+00   6.58384628E+01  -1.48050280E+01   6.48500519E+01  -2.16675615E+00   5.43542557E+01  -7.77241468E+00   1.49523125E+01
             3664                3   6.37186813E+01   5.72554436E+01   5.72554436E+01  -5.06794357E+00  -7.77241468E+00   5.72554436E+01   5.72554436E+01  -5.06794357E+00  -7.77241468E+00   6.50278549E+01  -1.48050280E+01   6.35893555E+01  -1.52993047E+00   5.37174301E+01  -7.77241468E+00   1.44216309E+01
             3664                4   6.41591644E+01   5.75552673E+01   5.75552673E+01  -5.36776781E+00  -7.77241468E+00   5.75552673E+01   5.75552673E+01  -5.36776781E+00  -7.77241468E+00   6.53276825E+01  -1.48050280E+01   6.40576553E+01  -1.55903673E+00   5.37465363E+01  -7.77241468E+00   1.50050163E+01
             3665                1   4.89348717E+01   4.92312317E+01   4.92312317E+01   3.29516888E-01   2.63268501E-01   4.92312317E+01   4.92312317E+01   3.29516888E-01   2.63268501E-01   4.89679642E+01  -1.66080055E+01   4.89347725E+01   1.48067021E+00   4.80800781E+01   2.63268501E-01   7.41405773E+00
             3665                2   4.87574768E+01   4.91128159E+01   4.91128159E+01   4.47932959E-01   2.63268501E-01   4.91128159E+01   4.91128159E+01   4.47932959E-01   2.63268501E-01   4.88495483E+01  -1.66080055E+01   4.87566910E+01   1.65908945E+00   4.79016609E+01   2.63268501E-01   7.58114958E+00
             3665                3   4.85735664E+01   4.89898949E+01   4.89898949E+01   5.70853889E-01   2.63268501E-01   4.89898949E+01   4.89898949E+01   5.70853889E-01   2.63268501E-01   4.87266273E+01  -1.66080055E+01   4.85713730E+01   1.67118752E+00   4.78895607E+01   2.63268501E-01   7.21570539E+00
             3665                4   4.83886452E+01   4.88661423E+01   4.88661423E+01   6.94607019E-01   2.63268501E-01   4.88661423E+01   4.88661423E+01   6.94607019E-01   2.63268501E-01   4.86028748E+01  -1.66080055E+01   4.83843231E+01   1.85619819E+00   4.77045517E+01   2.63268501E-01   7.38960743E+00
             3666                1   2.14052231E+02   2.17765503E+02   2.17765503E+02  -2.41749549E+00   1.04220371E+01   2.17765503E+02   2.17765503E+02   1.04220371E+01  -2.41749549E+00   2.20182999E+02  -7.52566833E+01   2.13183258E+02  -2.38483691E+00   2.17732849E+02   1.04220371E+01   2.68117595E+00
             3666                2   2.13786926E+02   2.17628677E+02   2.17628677E+02  -1.63990569E+00   9.78127480E+00   2.17628677E+02   2.17628677E+02   9.78127480E+00  -1.63990569E+00   2.19268585E+02  -7.52566833E+01   2.13098892E+02  -1.58886385E+00   2.17577637E+02   9.78127480E+00   3.34492660E+00
             3666                3   2.13968216E+02   2.17731140E+02   2.17731140E+02  -2.02786803E+00   1.00667686E+01   2.17731140E+02   2.17731140E+02   1.00667686E+01  -2.02786803E+00   2.19759018E+02  -7.52566833E+01   2.13197098E+02  -2.02237058E+00   2.17725647E+02   1.00667686E+01   1.09925008E+00
             3666                4   2.13698090E+02   2.17589401E+02   2.17589401E+02  -1.23294258E+00   9.41356945E+00   2.17589401E+02   2.17589401E+02   9.41356945E+00  -1.23294258E+00   2.18822342E+02  -7.52566757E+01   2.13100159E+02  -1.21856117E+00   2.17575027E+02   9.41356945E+00   1.77355683E+00
             3667                1   1.87759460E+02   1.89298843E+02   1.89298843E+02   1.50305057E+00   1.57575166E+00   1.89298843E+02   1.89298843E+02   1.57575166E+00   1.50305057E+00   1.87795792E+02  -6.41258774E+01   1.87759430E+02   1.50576150E+00   1.89296127E+02   1.57575166E+00   7.14341700E-01
             3667                2   1.87634415E+02   1.89215485E+02   1.89215485E+02   1.58628881E+00   1.57586038E+00   1.89215485E+02   1.89215485E+02   1.58628881E+00   1.57586038E+00   1.87639618E+02  -6.41258774E+01   1.87634399E+02   1.58765996E+00   1.89214111E+02   1.57586038E+00   5.07544100E-01
             3667                3   1.88059311E+02   1.89498657E+02   1.89498657E+02   1.30339110E+00   1.57559264E+00   1.89498657E+02   1.89498657E+02   1.57559264E+00   1.30339110E+00   1.88195267E+02  -6.41258774E+01   1.88058868E+02   1.30556881E+00   1.89496475E+02   1.57559264E+00   6.40718520E-01
             3667                4   1.87936569E+02   1.89416870E+02   1.89416870E+02   1.38505566E+00   1.57570040E+00   1.89416870E+02   1.89416870E+02   1.57570040E+00   1.38505566E+00   1.88031815E+02  -6.41258774E+01   1.87936356E+02   1.38605022E+00   1.89415878E+02   1.57570040E+00   4.31825101E-01
             3668                1   1.49741791E+02   1.78732544E+02   1.78732544E+02   2.64561386E+01   3.16610851E+01   1.78732544E+02   1.78732544E+02   3.16610851E+01   2.64561386E+01   1.52276413E+02  -7.89499283E+01   1.49538055E+02   2.76177387E+01   1.77570953E+02   3.16610851E+01   1.32489462E+01
             3668                2   1.50266678E+02   1.79076477E+02   1.79076477E+02   2.61122189E+01   3.16610851E+01   1.79076477E+02   1.79076477E+02   3.16610851E+01   2.61122189E+01   1.52964249E+02  -7.89499283E+01   1.50035904E+02   2.73410931E+01   1.77847595E+02   3.16610851E+01   1.36551790E+01
             3668                3   1.48994431E+02   1.78242249E+02   1.78242249E+02   2.69464455E+01   3.16610851E+01   1.78242249E+02   1.78242249E+02   3.16610851E+01   2.69464455E+01   1.51295807E+02  -7.89499283E+01   1.48826462E+02   2.81053371E+01   1.77083359E+02   3.16610851E+01   1.31905890E+01
             3668                4   1.49523666E+02   1.78589523E+02   1.78589523E+02   2.65991650E+01   3.16610851E+01   1.78589523E+02   1.78589523E+02   3.16610851E+01   2.65991650E+01   1.51990356E+02  -7.89499283E+01   1.49330719E+02   2.78255692E+01   1.77363129E+02   3.16610851E+01   1.35976667E+01
             3669                1   4.74727936E+01   4.59682007E+01   4.59682007E+01  -1.10275853E+00  -1.89647806E+00   4.59682007E+01   4.59682007E+01  -1.10275853E+00  -1.89647806E+00   4.78646774E+01  -1.43229876E+01   4.74578590E+01   7.05746114E-01   4.41596947E+01  -1.89647806E+00   9.04750443E+00
             3669                2   4.72060013E+01   4.57886391E+01   4.57886391E+01  -9.23194230E-01  -1.89647806E+00   4.57886391E+01   4.57886391E+01  -9.23194230E-01  -1.89647806E+00   4.76851158E+01  -1.43229895E+01   4.71834145E+01   9.32520866E-01   4.39329224E+01  -1.89647806E+00   9.12360764E+00
             3669                3   4.72169151E+01   4.57959900E+01   4.57959900E+01  -9.30550933E-01  -1.89647806E+00   4.57959900E+01   4.57959900E+01  -9.30550933E-01  -1.89647806E+00   4.76924706E+01  -1.43229876E+01   4.71946793E+01   7.96257377E-01   4.40691833E+01  -1.89647806E+00   8.81509495E+00
             3669                4   4.69629669E+01   4.56247482E+01   4.56247482E+01  -7.59308517E-01  -1.89647806E+00   4.56247482E+01   4.56247482E+01  -7.59308517E-01  -1.89647806E+00   4.75212288E+01  -1.43229876E+01   4.69319763E+01   1.01349390E+00   4.38519478E+01  -1.89647806E+00   8.89308071E+00
             3670                1   6.36563148E+01   5.66997986E+01   5.66997986E+01  -5.76435852E+00  -8.08520031E+00   5.66997986E+01   5.66997986E+01  -5.76435852E+00  -8.08520031E+00   6.47849960E+01  -1.42834129E+01   6.35610237E+01  -1.54502070E+00   5.24804611E+01  -8.08520031E+00   1.56765604E+01
             3670                2   6.29246063E+01   5.62015648E+01   5.62015648E+01  -5.26612425E+00  -8.08520031E+00   5.62015648E+01   5.62015648E+01  -5.26612425E+00  -8.08520031E+00   6.42867661E+01  -1.42834129E+01   6.27822914E+01  -9.13634300E-01   5.18490753E+01  -8.08520031E+00   1.57668409E+01
             3670                3   6.32831802E+01   5.64460068E+01   5.64460068E+01  -5.51056576E+00  -8.08520031E+00   5.64460068E+01   5.64460068E+01  -5.51056576E+00  -8.08520031E+00   6.45312042E+01  -1.42834129E+01   6.31651840E+01  -1.55433285E+00   5.24897728E+01  -8.08520031E+00   1.51480312E+01
             3670                4   6.25358543E+01   5.59359245E+01   5.59359245E+01  -5.00048876E+00  -8.08520031E+00   5.59359245E+01   5.59359245E+01  -5.00048876E+00  -8.08520031E+00   6.40211258E+01  -1.42834120E+01   6.23643379E+01  -9.25863326E-01   5.18613014E+01  -8.08520031E+00   1.52213793E+01
             3671                1   5.28073463E+01   4.58559532E+01   4.58559532E+01  -4.69431353E+00  -8.95083523E+00   4.58559532E+01   4.58559532E+01  -4.69431353E+00  -8.95083523E+00   5.48067894E+01  -1.07369347E+01   5.24193039E+01  -8.70794617E-03   4.11703491E+01  -8.95083523E+00   1.46595936E+01
             3671                2   5.20642776E+01   4.53367653E+01   4.53367653E+01  -4.17512465E+00  -8.95083523E+00   4.53367653E+01   4.53367653E+01  -4.17512465E+00  -8.95083523E+00   5.42876015E+01  -1.07369347E+01   5.15680428E+01   6.40596807E-01   4.05210419E+01  -8.95083523E+00   1.46712084E+01
             3671                3   5.23634834E+01   4.55462341E+01   4.55462341E+01  -4.38459492E+00  -8.95083523E+00   4.55462341E+01   4.55462341E+01  -4.38459492E+00  -8.95083523E+00   5.44970703E+01  -1.07369347E+01   5.19127197E+01  -8.13047588E-02   4.12429466E+01  -8.95083523E+00   1.40124397E+01
             3671                4   5.16032295E+01   4.50128670E+01   4.50128670E+01  -3.85122681E+00  -8.95083523E+00   4.50128670E+01   4.50128670E+01  -3.85122681E+00  -8.95083523E+00   5.39637032E+01  -1.07369347E+01   5.10317001E+01   5.70009708E-01   4.05916290E+01  -8.95083523E+00   1.40175762E+01
             3672                1   4.64130020E+01   4.48606377E+01   4.48606377E+01  -9.66413438E-01  -2.11691761E+00   4.48606377E+01   4.48606377E+01  -9.66413438E-01  -2.11691761E+00   4.69775581E+01  -1.39257698E+01   4.63809013E+01   9.30536032E-01   4.29636917E+01  -2.11691761E+00   9.12869740E+00
             3672                2   4.62104416E+01   4.47237625E+01   4.47237625E+01  -8.29536855E-01  -2.11691761E+00   4.47237625E+01   4.47237625E+01  -8.29536855E-01  -2.11691761E+00   4.68406792E+01  -1.39257698E+01   4.61700668E+01   9.76967990E-01   4.29172592E+01  -2.11691761E+00   8.88981152E+00
             3672                3   4.66757278E+01   4.50378456E+01   4.50378456E+01  -1.14362061E+00  -2.11691761E+00   4.50378456E+01   4.50378456E+01  -1.14362061E+00  -2.11691761E+00   4.71547661E+01  -1.39257698E+01   4.66528854E+01   7.34034836E-01   4.31601906E+01  -2.11691761E+00   9.12070847E+00
             3672                4   4.64618492E+01   4.48936157E+01   4.48936157E+01  -9.99386847E-01  -2.11691761E+00   4.48936157E+01   4.48936157E+01  -9.99386847E-01  -2.11691761E+00   4.70105362E+01  -1.39257708E+01   4.64315948E+01   7.84322917E-01   4.31099052E+01  -2.11691761E+00   8.87007618E+00
             3673                1   2.97654514E+01   2.24098930E+01   2.24098930E+01  -9.00952876E-01  -1.11186981E+01   2.24098930E+01   2.24098930E+01  -9.00952876E-01  -1.11186981E+01   3.35285912E+01  -3.46341395E+00   2.53435822E+01   5.00665712E+00   1.65022831E+01  -1.11186981E+01   1.01396017E+01
             3673                2   2.99856548E+01   2.25965405E+01   2.25965405E+01  -1.08760309E+00  -1.11186981E+01   2.25965405E+01   2.25965405E+01  -1.08760309E+00  -1.11186981E+01   3.37152405E+01  -3.46341324E+00   2.57839546E+01   4.63323116E+00   1.68757076E+01  -1.11186981E+01   1.01373129E+01
             3673                3   3.01844082E+01   2.27636738E+01   2.27636738E+01  -1.25473475E+00  -1.11186981E+01   2.27636738E+01   2.27636738E+01  -1.25473475E+00  -1.11186981E+01   3.38823738E+01  -3.46341395E+00   2.61715622E+01   5.08026838E+00   1.64286709E+01  -1.11186981E+01   1.05841599E+01
             3673                4   3.04009380E+01   2.29443779E+01   2.29443779E+01  -1.43543756E+00  -1.11186981E+01   2.29443779E+01   2.29443779E+01  -1.43543756E+00  -1.11186981E+01   3.40630760E+01  -3.46341395E+00   2.65839577E+01   4.68715477E+00   1.68217850E+01  -1.11186981E+01   1.05726786E+01
             3674                1   1.88037582E+02   1.88419342E+02   1.88419342E+02   3.30356210E-01   4.33197200E-01   1.88419342E+02   1.88419342E+02   4.33197200E-01   3.30356210E-01   1.88088989E+02  -6.30609627E+01   1.88037521E+02   3.35577965E-01   1.88414124E+02   4.33197200E-01   9.90388572E-01
             3674                2   1.87826050E+02   1.88278336E+02   1.88278336E+02   4.71196920E-01   4.33377028E-01   1.88278336E+02   1.88278336E+02   4.71196920E-01   4.33377028E-01   1.87844955E+02  -6.30609703E+01   1.87826035E+02   4.74310756E-01   1.88275223E+02   4.33377028E-01   7.63909876E-01
             3674                3   1.88353119E+02   1.88629578E+02   1.88629578E+02   1.20298408E-01   4.33020860E-01   1.88629578E+02   1.88629578E+02   4.33020860E-01   1.20298408E-01   1.88509277E+02  -6.30609627E+01   1.88352539E+02   1.24282710E-01   1.88625595E+02   4.33020860E-01   8.66652012E-01
             3674                4   1.88145050E+02   1.88490967E+02   1.88490967E+02   2.58749217E-01   4.33198273E-01   1.88490967E+02   1.88490967E+02   4.33198273E-01   2.58749217E-01   1.88232208E+02  -6.30609703E+01   1.88144867E+02   2.60936230E-01   1.88488770E+02   4.33198273E-01   6.42241836E-01
             3675                1   4.37583733E+01   4.69251328E+01   4.69251328E+01   3.10829234E+00   3.22545958E+00   4.69251328E+01   4.69251328E+01   3.22545958E+00   3.10829234E+00   4.38168411E+01  -1.77529621E+01   4.37580185E+01   4.13583183E+00   4.58975906E+01   3.22545958E+00   6.63082027E+00
             3675                2   4.34064484E+01   4.66905136E+01   4.66905136E+01   3.34290910E+00   3.22545958E+00   4.66905136E+01   4.66905136E+01   3.34290910E+00   3.22545958E+00   4.34650574E+01  -1.77529621E+01   4.34060936E+01   4.33551502E+00   4.56979103E+01   3.22545958E+00   6.48396349E+00
             3675                3   4.38507690E+01   4.69866257E+01   4.69866257E+01   3.04679990E+00   3.22545958E+00   4.69866257E+01   4.69866257E+01   3.22545958E+00   3.04679990E+00   4.39398232E+01  -1.77529621E+01   4.38499489E+01   4.01610374E+00   4.60173187E+01   3.22545958E+00   6.45380259E+00
             3675                4   4.34959297E+01   4.67502289E+01   4.67502289E+01   3.28319621E+00   3.22545958E+00   4.67502289E+01   4.67502289E+01   3.28319621E+00   3.22545958E+00   4.35247688E+01  -1.77529621E+01   4.34958420E+01   4.22194338E+00   4.58114815E+01   3.22545958E+00   6.31848764E+00
             3676                1   9.11767731E+01   9.28103180E+01   9.28103180E+01   1.30182672E+00   1.96892476E+00   9.28103180E+01   9.28103180E+01   1.96892476E+00   1.30182672E+00   9.15084915E+01  -3.20270233E+01   9.11712799E+01   1.15708036E+01   8.25413437E+01   1.96892476E+00   2.88833256E+01
             3676                2   9.01072235E+01   9.20985031E+01   9.20985031E+01   2.01364994E+00   1.96892476E+00   9.20985031E+01   9.20985031E+01   2.01364994E+00   1.96892476E+00   9.01295776E+01  -3.20270271E+01   9.01071930E+01   1.14528255E+01   8.26593246E+01   1.96892476E+00   2.75903759E+01
             3676                3   9.27109604E+01   9.38266907E+01   9.38266907E+01   2.85462230E-01   1.96892476E+00   9.38266907E+01   9.38266907E+01   1.96892476E+00   2.85462230E-01   9.35412292E+01  -3.20270271E+01   9.26765594E+01   1.02967825E+01   8.38153687E+01   1.96892476E+00   2.89178963E+01
             3676                4   9.16759720E+01   9.31416245E+01   9.31416245E+01   9.70527709E-01   1.96892476E+00   9.31416245E+01   9.31416245E+01   1.96892476E+00   9.70527709E-01   9.21710968E+01  -3.20270271E+01   9.16637421E+01   1.01442795E+01   8.39678726E+01   1.96892476E+00   2.75934238E+01
             3677                1   4.44575348E+01   4.35381241E+01   4.35381241E+01  -4.12878156E-01  -1.40919769E+00   4.35381241E+01   4.35381241E+01  -4.12878156E-01  -1.40919769E+00   4.49473190E+01  -1.39053488E+01   4.44324074E+01   1.45815444E+00   4.16670914E+01  -1.40919769E+00   8.87315750E+00
             3677                2   4.42244530E+01   4.33807945E+01   4.33807945E+01  -2.55545586E-01  -1.40919769E+00   4.33807945E+01   4.33807945E+01  -2.55545586E-01  -1.40919769E+00   4.47899895E+01  -1.39053497E+01   4.41905785E+01   1.53048408E+00   4.15947647E+01  -1.40919769E+00   8.64556885E+00
             3677                3   4.46822128E+01   4.36894951E+01   4.36894951E+01  -5.64248204E-01  -1.40919769E+00   4.36894951E+01   4.36894951E+01  -5.64248204E-01  -1.40919769E+00   4.50986938E+01  -1.39053497E+01   4.46642303E+01   1.27456629E+00   4.18506813E+01  -1.40919769E+00   8.83137608E+00
             3677                4   4.44484749E+01   4.35320129E+01   4.35320129E+01  -4.06766355E-01  -1.40919769E+00   4.35320129E+01   4.35320129E+01  -4.06766355E-01  -1.40919769E+00   4.49412117E+01  -1.39053497E+01   4.44230309E+01   1.34761822E+00   4.17776299E+01  -1.40919769E+00   8.60276985E+00
             3678                1   9.46620026E+01   9.50074844E+01   9.50074844E+01   3.43253106E-01   3.47709835E-01   9.50074844E+01   9.50074844E+01   3.47709835E-01   3.43253106E-01   9.46642303E+01  -3.18994827E+01   9.46620026E+01   5.39971447E+00   8.99510269E+01   3.47709835E-01   2.12860985E+01
             3678                2   9.56235275E+01   9.56474152E+01   9.56474152E+01  -2.96679676E-01   3.47709835E-01   9.56474152E+01   9.56474152E+01   3.47709835E-01  -2.96679676E-01   9.59440994E+01  -3.18994827E+01   9.56186447E+01   4.67367077E+00   9.06770706E+01   3.47709835E-01   2.12643166E+01
             3678                3   9.51210785E+01   9.53132858E+01   9.53132858E+01   3.74557488E-02   3.47709835E-01   9.53132858E+01   9.53132858E+01   3.47709835E-01   3.74557488E-02   9.52758255E+01  -3.18994827E+01   9.51199417E+01   5.44744778E+00   8.99032898E+01   3.47709835E-01   2.20493431E+01
             3678                4   9.60808029E+01   9.59510117E+01   9.59510117E+01  -6.00276351E-01   3.47709835E-01   9.59510117E+01   9.59510117E+01   3.47709835E-01  -6.00276351E-01   9.65512924E+01  -3.18994827E+01   9.60702820E+01   4.72182846E+00   9.06289139E+01   3.47709835E-01   2.20347672E+01
             3679                1   2.13811905E+02   2.17434036E+02   2.17434036E+02  -1.88618994E+00   9.59294891E+00   2.17434036E+02   2.17434036E+02   9.59294891E+00  -1.88618994E+00   2.19320236E+02  -7.50469360E+01   2.13116928E+02  -1.86690390E+00   2.17414749E+02   9.59294891E+00   2.05689859E+00
             3679                2   2.13583603E+02   2.17313370E+02   2.17313370E+02  -1.20298564E+00   9.03040600E+00   2.17313370E+02   2.17313370E+02   9.03040600E+00  -1.20298564E+00   2.18516357E+02  -7.50469284E+01   2.13030960E+02  -1.17405653E+00   2.17284439E+02   9.03040600E+00   2.51406956E+00
             3679                3   2.13750061E+02   2.17405807E+02   2.17405807E+02  -1.62429214E+00   9.35927677E+00   2.17405807E+02   2.17405807E+02   9.35927677E+00  -1.62429214E+00   2.19030090E+02  -7.50469284E+01   2.13113739E+02  -1.62196207E+00   2.17403473E+02   9.35927677E+00   7.14159787E-01
             3679                4   2.13519302E+02   2.17282440E+02   2.17282440E+02  -9.31499124E-01   8.78985023E+00   2.17282440E+02   2.17282440E+02   8.78985023E+00  -9.31499124E-01   2.18213928E+02  -7.50469284E+01   2.13020523E+02  -9.25241768E-01   2.17276184E+02   8.78985023E+00   1.16799641E+00
             3680                1   1.93424500E+02   1.93664993E+02   1.93664993E+02  -5.44469535E-01   1.03514421E+00   1.93664993E+02   1.93664993E+02   1.03514421E+00  -5.44469535E-01   1.94209473E+02  -6.47185593E+01   1.93409988E+02  -5.17791152E-01   1.93638321E+02   1.03514421E+00   2.27604294E+00
             3680                2   1.92640717E+02   1.93144241E+02   1.93144241E+02  -2.41866857E-02   1.03560603E+00   1.93144241E+02   1.93144241E+02   1.03560603E+00  -2.41866857E-02   1.93168427E+02  -6.47185516E+01   1.92634171E+02   5.51033067E-03   1.93114548E+02   1.03560603E+00   2.39484358E+00
             3680                3   1.93227448E+02   1.93534134E+02   1.93534134E+02  -4.13807064E-01   1.03533483E+00   1.93534134E+02   1.93534134E+02   1.03533483E+00  -4.13807064E-01   1.93947952E+02  -6.47185593E+01   1.93215225E+02  -3.98754835E-01   1.93519089E+02   1.03533483E+00   1.70836830E+00
             3680                4   1.92444534E+02   1.93013794E+02   1.93013794E+02   1.06086202E-01   1.03579485E+00   1.93013794E+02   1.93013794E+02   1.03579485E+00   1.06086202E-01   1.92907700E+02  -6.47185593E+01   1.92439468E+02   1.23483986E-01   1.92996384E+02   1.03579485E+00   1.83218575E+00
             3681                1   2.64082241E+01   1.91067905E+01   1.91067905E+01  -5.44831038E-01  -1.09119549E+01   1.91067905E+01   1.91067905E+01  -5.44831038E-01  -1.09119549E+01   3.00187454E+01  -2.55000186E+00   2.10386772E+01   6.26072884E+00   1.23012314E+01  -1.09119549E+01   9.35011482E+00
             3681                2   2.64779911E+01   1.91691780E+01   1.91691780E+01  -6.07218266E-01  -1.09119549E+01   1.91691780E+01   1.91691780E+01  -6.07218266E-01  -1.09119549E+01   3.00811329E+01  -2.55000186E+00   2.12056751E+01   6.23258972E+00   1.23293705E+01  -1.09119549E+01   9.40658188E+00
             3681                3   2.63983421E+01   1.90979347E+01   1.90979347E+01  -5.35975277E-01  -1.09119549E+01   1.90979347E+01   1.90979347E+01  -5.35975277E-01  -1.09119549E+01   3.00098896E+01  -2.55000186E+00   2.10148430E+01   6.31541729E+00   1.22465429E+01  -1.09119549E+01   9.35831451E+00
             3681                4   2.64618759E+01   1.91547890E+01   1.91547890E+01  -5.92828214E-01  -1.09119549E+01   1.91547890E+01   1.91547890E+01  -5.92828214E-01  -1.09119549E+01   3.00667439E+01  -2.55000186E+00   2.11672955E+01   6.30335331E+00   1.22586069E+01  -1.09119549E+01   9.41412926E+00
             3682                1   2.34391747E+01   1.55809355E+01   1.55809355E+01  -3.70140299E-02  -1.13710442E+01   1.55809355E+01   1.55809355E+01  -3.70140299E-02  -1.13710442E+01   2.69519806E+01  -1.39095914E+00   1.51699715E+01   5.38042450E+00   1.01634970E+01  -1.13710442E+01   7.43375015E+00
             3682                2   2.35403271E+01   1.56817093E+01   1.56817093E+01  -1.37787148E-01  -1.13710442E+01   1.56817093E+01   1.56817093E+01  -1.37787148E-01  -1.13710442E+01   2.70527534E+01  -1.39095938E+00   1.55553942E+01   5.22883558E+00   1.03150864E+01  -1.13710442E+01   7.48976851E+00
             3682                3   2.35351410E+01   1.56765642E+01   1.56765642E+01  -1.32641584E-01  -1.13710442E+01   1.56765642E+01   1.56765642E+01  -1.32641584E-01  -1.13710442E+01   2.70476074E+01  -1.39095938E+00   1.55360584E+01   5.45896339E+00   1.00849590E+01  -1.13710442E+01   7.55862331E+00
             3682                4   2.36859226E+01   1.58252897E+01   1.58252897E+01  -2.81367719E-01  -1.13710442E+01   1.58252897E+01   1.58252897E+01  -2.81367719E-01  -1.13710442E+01   2.71963348E+01  -1.39095938E+00   1.60813866E+01   5.30595875E+00   1.02379637E+01  -1.13710442E+01   7.66648149E+00
             3683                1   6.52104187E+01   6.09019203E+01   6.09019203E+01  -3.30414343E+00  -5.26846361E+00   6.09019203E+01   6.09019203E+01  -3.30414343E+00  -5.26846361E+00   6.61703873E+01  -1.74431057E+01   6.51437988E+01   9.69308472E+00   4.79046936E+01  -5.26846361E+00   2.57987003E+01
             3683                2   6.42407455E+01   6.02434921E+01   6.02434921E+01  -2.64571214E+00  -5.26846361E+00   6.02434921E+01   6.02434921E+01  -2.64571214E+00  -5.26846361E+00   6.55119553E+01  -1.74431057E+01   6.41201172E+01   1.07745304E+01   4.68232460E+01  -5.26846361E+00   2.57659760E+01
             3683                3   6.38608322E+01   5.99844704E+01   5.99844704E+01  -2.38669276E+00  -5.26846361E+00   5.99844704E+01   5.99844704E+01  -2.38669276E+00  -5.26846361E+00   6.52529373E+01  -1.74431057E+01   6.37142906E+01   9.66943169E+00   4.79283447E+01  -5.26846361E+00   2.46293411E+01
             3683                4   6.29988670E+01   5.93944893E+01   5.93944893E+01  -1.79671276E+00  -5.26846361E+00   5.93944893E+01   5.93944893E+01  -1.79671276E+00  -5.26846361E+00   6.46629562E+01  -1.74431057E+01   6.27830925E+01   1.06913099E+01   4.69064674E+01  -5.26846361E+00   2.46618423E+01
             3684                1   3.72792015E+01   4.48746529E+01   4.48746529E+01   7.45854092E+00   7.73388910E+00   4.48746529E+01   4.48746529E+01   7.73388910E+00   7.45854092E+00   3.74161110E+01  -2.00223618E+01   3.72769127E+01   7.84420776E+00   4.44889870E+01   7.73388910E+00   3.77907515E+00
             3684                2   3.72385979E+01   4.48476791E+01   4.48476791E+01   7.48551512E+00   7.73388910E+00   4.48476791E+01   4.48476791E+01   7.73388910E+00   7.48551512E+00   3.73621635E+01  -2.00223618E+01   3.72367325E+01   7.92141724E+00   4.44117775E+01   7.73388910E+00   4.01201200E+00
             3684                3   3.68898010E+01   4.46155624E+01   4.46155624E+01   7.71763802E+00   7.73388910E+00   4.46155624E+01   4.46155624E+01   7.73388910E+00   7.71763802E+00   3.68979225E+01  -2.00223637E+01   3.68897896E+01   8.09056377E+00   4.42426338E+01   7.73388910E+00   3.69068384E+00
             3684                4   3.68484383E+01   4.45879860E+01   4.45879860E+01   7.74521112E+00   7.73388910E+00   4.45879860E+01   4.45879860E+01   7.74521112E+00   7.73388910E+00   3.68540993E+01  -2.00223637E+01   3.68484344E+01   8.16782665E+00   4.41653709E+01   7.73388910E+00   3.92323375E+00
             3685                1   8.06313782E+01   7.78690643E+01   7.78690643E+01  -2.60180259E+00  -2.92186642E+00   7.78690643E+01   7.78690643E+01  -2.60180259E+00  -2.92186642E+00   8.07909317E+01  -2.41151333E+01   8.06299438E+01   7.14346743E+00   6.81237946E+01  -2.92186642E+00   2.62533836E+01
             3685                2   7.95640335E+01   7.71544571E+01   7.71544571E+01  -1.88719499E+00  -2.92186642E+00   7.71544571E+01   7.71544571E+01  -1.88719499E+00  -2.92186642E+00   8.00763245E+01  -2.41151333E+01   7.95488968E+01   8.07357216E+00   6.71936951E+01  -2.92186642E+00   2.62316322E+01
             3685                3   8.02106934E+01   7.75877991E+01   7.75877991E+01  -2.32053685E+00  -2.92186642E+00   7.75877991E+01   7.75877991E+01  -2.32053685E+00  -2.92186642E+00   8.05096664E+01  -2.41151333E+01   8.02056198E+01   6.91457367E+00   6.83526917E+01  -2.92186642E+00   2.55475063E+01
             3685                4   7.93490677E+01   7.70101318E+01   7.70101318E+01  -1.74286866E+00  -2.92186642E+00   7.70101318E+01   7.70101318E+01  -1.74286866E+00  -2.92186642E+00   7.99319992E+01  -2.41151333E+01   7.93293610E+01   7.65047646E+00   6.76167908E+01  -2.92186642E+00   2.55248718E+01
             3686                1   9.81360474E+01   1.04285629E+02   1.04285629E+02   5.55674744E+00   6.75336552E+00   1.04285629E+02   1.04285629E+02   6.75336552E+00   5.55674744E+00   9.87288818E+01  -3.88652458E+01   9.81196289E+01   1.57616577E+01   9.40807190E+01   6.75336552E+00   3.00562668E+01
             3686                2   9.93440170E+01   1.05084572E+02   1.05084572E+02   4.75780630E+00   6.75336552E+00   1.05084572E+02   1.05084572E+02   6.75336552E+00   4.75780630E+00   1.00326767E+02  -3.88652458E+01   9.92989044E+01   1.44807167E+01   9.53616562E+01   6.75336552E+00   2.96805229E+01
             3686                3   9.96095581E+01   1.05259789E+02   1.05259789E+02   4.58258677E+00   6.75336552E+00   1.05259789E+02   1.05259789E+02   6.75336552E+00   4.58258677E+00   1.00677200E+02  -3.88652458E+01   9.95563126E+01   1.60315952E+01   9.38107834E+01   6.75336552E+00   3.19620743E+01
             3686                4   1.00652847E+02   1.05946861E+02   1.05946861E+02   3.89551783E+00   6.75336552E+00   1.05946861E+02   1.05946861E+02   6.75336552E+00   3.89551783E+00   1.02051338E+02  -3.88652458E+01   1.00561508E+02   1.46446934E+01   9.51976852E+01   6.75336552E+00   3.13276691E+01
             3687                1   7.28862152E+01   6.98740921E+01   6.98740921E+01  -1.95702648E+00  -4.02327919E+00   6.98740921E+01   6.98740921E+01  -1.95702648E+00  -4.02327919E+00   7.38973770E+01  -2.12979298E+01   7.28202744E+01   8.91657448E+00   5.90004921E+01  -4.02327919E+00   2.57454433E+01
             3687                2   7.34858017E+01   7.02790756E+01   7.02790756E+01  -2.36200786E+00  -4.02327919E+00   7.02790756E+01   7.02790756E+01  -2.36200786E+00  -4.02327919E+00   7.43023529E+01  -2.12979298E+01   7.34435349E+01   8.09742832E+00   5.98196411E+01  -4.02327919E+00   2.55026455E+01
             3687                3   7.40090637E+01   7.06315155E+01   7.06315155E+01  -2.71445012E+00  -4.02327919E+00   7.06315155E+01   7.06315155E+01  -2.71445012E+00  -4.02327919E+00   7.46548004E+01  -2.12979298E+01   7.39830170E+01   8.77166271E+00   5.91454048E+01  -4.02327919E+00   2.66557560E+01
             3687                4   7.45814362E+01   7.10160217E+01   7.10160217E+01  -3.09895325E+00  -4.02327919E+00   7.10160217E+01   7.10160217E+01  -3.09895325E+00  -4.02327919E+00   7.50392990E+01  -2.12979298E+01   7.45685425E+01   7.86019850E+00   6.00568695E+01  -4.02327919E+00   2.63084450E+01
             3688                1   1.32705475E+02   1.55163116E+02   1.55163116E+02   1.95969620E+01   2.55164223E+01   1.55163116E+02   1.55163116E+02   2.55164223E+01   1.95969620E+01   1.35566147E+02  -6.67588272E+01   1.32407944E+02   2.53924427E+01   1.49367630E+02   2.55164223E+01   2.74241352E+01
             3688                2   1.33561768E+02   1.55721436E+02   1.55721436E+02   1.90386391E+01   2.55164223E+01   1.55721436E+02   1.55721436E+02   2.55164223E+01   1.90386391E+01   1.36682800E+02  -6.67588272E+01   1.33207642E+02   2.41587906E+01   1.50601273E+02   2.55164223E+01   2.59542141E+01
             3688                3   1.35001480E+02   1.56657944E+02   1.56657944E+02   1.81021042E+01   2.55164223E+01   1.56657944E+02   1.56657944E+02   2.55164223E+01   1.81021042E+01   1.38555847E+02  -6.67588272E+01   1.34542267E+02   2.47742062E+01   1.49985855E+02   2.55164223E+01   2.96638069E+01
             3688                4   1.35703781E+02   1.57113831E+02   1.57113831E+02   1.76462250E+01   2.55164223E+01   1.57113831E+02   1.57113831E+02   2.55164223E+01   1.76462250E+01   1.39467606E+02  -6.67588272E+01   1.35188889E+02   2.34715462E+01   1.51288513E+02   2.55164223E+01   2.79017696E+01
             3689                1   1.07969322E+02   1.19952576E+02   1.19952576E+02   9.42654800E+00   1.47358437E+01   1.19952576E+02   1.19952576E+02   1.47358437E+01   9.42654800E+00   1.10526024E+02  -4.80383186E+01   1.07675034E+02   2.91982269E+01   1.00180893E+02   1.47358437E+01   4.23599548E+01
             3689                2   1.09246429E+02   1.20782959E+02   1.20782959E+02   8.59615803E+00   1.47358437E+01   1.20782959E+02   1.20782959E+02   1.47358437E+01   8.59615803E+00   1.12186806E+02  -4.80383186E+01   1.08857239E+02   2.76200275E+01   1.01759087E+02   1.47358437E+01   4.20989265E+01
             3689                3   1.10306038E+02   1.21469978E+02   1.21469978E+02   7.90913820E+00   1.47358437E+01   1.21469978E+02   1.21469978E+02   1.47358437E+01   7.90913820E+00   1.13560844E+02  -4.80383186E+01   1.09829247E+02   2.89396267E+01   1.00439491E+02   1.47358437E+01   4.41130219E+01
             3689                4   1.11486191E+02   1.22233162E+02   1.22233162E+02   7.14596081E+00   1.47358437E+01   1.22233162E+02   1.22233162E+02   1.47358437E+01   7.14596081E+00   1.15087196E+02  -4.80383186E+01   1.10902687E+02   2.72857876E+01   1.02093330E+02   1.47358437E+01   4.37289810E+01
             3690                1   5.13432312E+01   4.86751060E+01   4.86751060E+01  -2.09552002E+00  -3.22218657E+00   4.86751060E+01   4.86751060E+01  -2.09552002E+00  -3.22218657E+00   5.18972931E+01  -1.44524660E+01   5.13154068E+01  -2.22640023E-01   4.68022270E+01  -3.22218657E+00   9.56972122E+00
             3690                2   5.09947662E+01   4.84398842E+01   4.84398842E+01  -1.86029649E+00  -3.22218657E+00   4.84398842E+01   4.84398842E+01  -1.86029649E+00  -3.22218657E+00   5.16620674E+01  -1.44524660E+01   5.09538231E+01  -7.41411373E-02   4.66537285E+01  -3.22218657E+00   9.30878735E+00
             3690                3   5.16333046E+01   4.88704720E+01   4.88704720E+01  -2.29088092E+00  -3.22218657E+00   4.88704720E+01   4.88704720E+01  -2.29088092E+00  -3.22218657E+00   5.20926590E+01  -1.44524679E+01   5.16144028E+01  -4.70803082E-01   4.70503922E+01  -3.22218657E+00   9.47655010E+00
             3690                4   5.13314133E+01   4.86671410E+01   4.86671410E+01  -2.08755064E+00  -3.22218657E+00   4.86671410E+01   4.86671410E+01  -2.08755064E+00  -3.22218657E+00   5.18893280E+01  -1.44524679E+01   5.13031883E+01  -3.53363603E-01   4.69329529E+01  -3.22218657E+00   9.22012711E+00
             3691                1   8.84117279E+01   9.12542038E+01   9.12542038E+01   2.07734776E+00   3.62799907E+00   9.12542038E+01   9.12542038E+01   3.62799907E+00   2.07734776E+00   8.91768570E+01  -3.23198509E+01   8.83811264E+01   1.66616993E+01   7.66698532E+01   3.62799907E+00   3.29830742E+01
             3691                2   8.80100021E+01   9.09884949E+01   9.09884949E+01   2.34305811E+00   3.62799907E+00   9.09884949E+01   9.09884949E+01   3.62799907E+00   2.34305811E+00   8.86454315E+01  -3.23198509E+01   8.79888916E+01   1.67709980E+01   7.65605545E+01   3.62799907E+00   3.27231636E+01
             3691                3   8.84735870E+01   9.12950821E+01   9.12950821E+01   2.03646731E+00   3.62799907E+00   9.12950821E+01   9.12950821E+01   3.62799907E+00   2.03646731E+00   8.92586136E+01  -3.23198509E+01   8.84413757E+01   1.64700260E+01   7.68615265E+01   3.62799907E+00   3.28632278E+01
             3691                4   8.81415253E+01   9.10755234E+01   9.10755234E+01   2.25602412E+00   3.62799907E+00   9.10755234E+01   9.10755234E+01   3.62799907E+00   2.25602412E+00   8.88195038E+01  -3.23198509E+01   8.81174927E+01   1.66010284E+01   7.67305222E+01   3.62799907E+00   3.26854248E+01
             3692                1   6.78375397E+01   6.48907242E+01   6.48907242E+01  -1.58878899E+00  -4.22781944E+00   6.48907242E+01   6.48907242E+01  -1.58878899E+00  -4.22781944E+00   6.91185455E+01  -1.96913700E+01   6.77219009E+01   1.08520784E+01   5.24498558E+01  -4.22781944E+00   2.59285088E+01
             3692                2   6.84331818E+01   6.52952499E+01   6.52952499E+01  -1.99331677E+00  -4.22781944E+00   6.52952499E+01   6.52952499E+01  -1.99331677E+00  -4.22781944E+00   6.95230713E+01  -1.96913700E+01   6.83510361E+01   9.98808289E+00   5.33138504E+01  -4.22781944E+00   2.57421303E+01
             3692                3   6.89208984E+01   6.56254807E+01   6.56254807E+01  -2.32355046E+00  -4.22781944E+00   6.56254807E+01   6.56254807E+01  -2.32355046E+00  -4.22781944E+00   6.98533020E+01  -1.96913700E+01   6.88616791E+01   1.08135052E+01   5.24884300E+01  -4.22781944E+00   2.68340816E+01
             3692                4   6.94813995E+01   6.60039215E+01   6.60039215E+01  -2.70199084E+00  -4.22781944E+00   6.60039215E+01   6.60039215E+01  -2.70199084E+00  -4.22781944E+00   7.02317429E+01  -1.96913700E+01   6.94436874E+01   9.91851330E+00   5.33834190E+01  -4.22781944E+00   2.66050034E+01
             3693                1   9.59669876E+01   1.00192139E+02   1.00192139E+02   3.81335449E+00   4.64231110E+00   1.00192139E+02   1.00192139E+02   4.64231110E+00   3.81335449E+00   9.63787842E+01  -3.62159348E+01   9.59589386E+01   1.29160719E+01   9.10894241E+01   4.64231110E+00   2.81859741E+01
             3693                2   9.70363922E+01   1.00900772E+02   1.00900772E+02   3.10471916E+00   4.64231110E+00   1.00900772E+02   1.00900772E+02   4.64231110E+00   3.10471916E+00   9.77960587E+01  -3.62159348E+01   9.70089798E+01   1.19313545E+01   9.20741425E+01   4.64231110E+00   2.80232105E+01
             3693                3   9.69555359E+01   1.00847282E+02   1.00847282E+02   3.15821958E+00   4.64231110E+00   1.00847282E+02   1.00847282E+02   4.64231110E+00   3.15821958E+00   9.76890640E+01  -3.62159386E+01   9.69299698E+01   1.29605379E+01   9.10449600E+01   4.64231110E+00   2.93512192E+01
             3693                4   9.79668045E+01   1.01515320E+02   1.01515320E+02   2.49017906E+00   4.64231110E+00   1.01515320E+02   1.01515320E+02   4.64231110E+00   2.49017906E+00   9.90251389E+01  -3.62159386E+01   9.79135971E+01   1.18918610E+01   9.21136398E+01   4.64231110E+00   2.90277672E+01
             3694                1   1.22540039E+02   1.40985168E+02   1.40985168E+02   1.66155777E+01   2.03605461E+01   1.40985168E+02   1.40985168E+02   2.03605461E+01   1.66155777E+01   1.24369598E+02  -5.93204346E+01   1.22411179E+02   1.93372040E+01   1.38263550E+02   2.03605461E+01   1.81956120E+01
             3694                2   1.21911522E+02   1.40572021E+02   1.40572021E+02   1.70287399E+01   2.03605461E+01   1.40572021E+02   1.40572021E+02   2.03605461E+01   1.70287399E+01   1.23543274E+02  -5.93204346E+01   1.21809013E+02   2.01339397E+01   1.37466812E+02   2.03605461E+01   1.93386803E+01
             3694                3   1.21040100E+02   1.39998123E+02   1.39998123E+02   1.76026306E+01   2.03605461E+01   1.39998123E+02   1.39998123E+02   2.03605461E+01   1.76026306E+01   1.22395493E+02  -5.93204346E+01   1.20969376E+02   1.99013691E+01   1.37699387E+02   2.03605461E+01   1.66153774E+01
             3694                4   1.20466789E+02   1.39619873E+02   1.39619873E+02   1.79808807E+01   2.03605461E+01   1.39619873E+02   1.39619873E+02   2.03605461E+01   1.79808807E+01   1.21638992E+02  -5.93204346E+01   1.20413879E+02   2.07552910E+01   1.36845459E+02   2.03605461E+01   1.81598320E+01
             3695                1   4.49433174E+01   3.77943459E+01   3.77943459E+01  -3.56697369E+00  -1.00309753E+01   3.77943459E+01   3.77943459E+01  -3.56697369E+00  -1.00309753E+01   4.78253212E+01  -8.06546497E+00   4.38792076E+01   3.69986653E+00   3.05275059E+01  -1.00309753E+01   1.57403660E+01
             3695                2   4.40339394E+01   3.71316376E+01   3.71316376E+01  -2.90426660E+00  -1.00309753E+01   3.71316376E+01   3.71316376E+01  -2.90426660E+00  -1.00309753E+01   4.71626129E+01  -8.06546497E+00   4.27074471E+01   4.49780369E+00   2.97295685E+01  -1.00309753E+01   1.55421333E+01
             3695                3   4.44605141E+01   3.74435043E+01   3.74435043E+01  -3.21613264E+00  -1.00309753E+01   3.74435043E+01   3.74435043E+01  -3.21613264E+00  -1.00309753E+01   4.74744797E+01  -8.06546497E+00   4.32620201E+01   3.43005180E+00   3.07973213E+01  -1.00309753E+01   1.50352802E+01
             3695                4   4.36612206E+01   3.68576241E+01   3.68576241E+01  -2.63025451E+00  -1.00309753E+01   3.68576241E+01   3.68576241E+01  -2.63025451E+00  -1.00309753E+01   4.68885994E+01  -8.06546497E+00   4.22153511E+01   4.02496958E+00   3.02024021E+01  -1.00309753E+01   1.47820387E+01


