Node,EE.Max.,Prin,EE.Mid.,Prin,EE.Min.,Prin,EE.EE11,EE.EE22,EE.EE33,EE.EE12,S.Mises,S.Max.,Prin,S.Mid.,Prin,S.Min.,Prin,S.Tresca,S.Pressure,S.S11,S.S22,S.S33,S.S121,59.9155E-06,11.4168E-06,-49.6848E-06,55.4471E-06,-45.2164E-06,11.4168E-06,43.3484E-06,73.1735E-06,58.5778E-06,21.2711E-06,-25.7301E-06,84.3079E-06,-18.0396E-06,55.1406E-06,-22.2929E-06,21.2711E-06,16.6724E-06
2,4.89267E-06,-720.876E-09,-2.93725E-06,653.169E-09,3.51862E-06,-2.93725E-06,4.79321E-06,5.37724E-06,4.47582E-06,157.714E-09,-1.54719E-06,6.02301E-06,-1.02878E-06,1.21467E-06,3.41887E-06,-1.54719E-06,1.84354E-06
3,333.149E-15,-25.5227E-15,-173.356E-15,-131.265E-15,291.058E-15,-25.5227E-15,279.626E-15,347.027E-15,333.732E-15,57.8306E-15,-55.8873E-15,389.619E-15,-111.892E-15,-23.5095E-15,301.354E-15,57.8306E-15,107.548E-15
4,44.9797E-15,38.2244E-15,-419.953E-15,44.7967E-15,-419.770E-15,38.2244E-15,18.4438E-15,355.071E-15,-159.678E-15,-164.875E-15,-517.319E-15,357.640E-15,280.624E-15,-159.819E-15,-517.178E-15,-164.875E-15,7.09377E-15
5,43.3259E-06,10.1673E-06,-34.9090E-06,39.6120E-06,-31.1951E-06,10.1673E-06,10.0413E-06,52.3208E-06,44.0493E-06,18.5427E-06,-16.1314E-06,60.1807E-06,-15.4869E-06,41.1925E-06,-13.2745E-06,18.5427E-06,3.86205E-06
6,33.4069E-06,6.71398E-06,-27.8006E-06,23.9377E-06,-18.3314E-06,6.71398E-06,23.6954E-06,40.9164E-06,32.8055E-06,12.2725E-06,-14.2772E-06,47.0827E-06,-10.2669E-06,25.5215E-06,-6.99317E-06,12.2725E-06,9.11361E-06
7,35.1635E-06,3.05505E-06,-29.2053E-06,29.6954E-06,-23.7371E-06,3.05505E-06,19.4474E-06,42.9122E-06,32.2489E-06,7.55002E-06,-17.2656E-06,49.5145E-06,-7.51108E-06,28.0426E-06,-13.0594E-06,7.55002E-06,7.47978E-06
8,37.3708E-06,607.198E-09,-32.0484E-06,24.9868E-06,-19.6644E-06,607.198E-09,23.5998E-06,46.2725E-06,32.1676E-06,3.88799E-06,-21.2317E-06,53.3993E-06,-4.94133E-06,22.6416E-06,-11.7056E-06,3.88799E-06,9.07684E-06
9,35.5130E-06,-988.522E-09,-30.3246E-06,15.7743E-06,-10.5859E-06,-988.522E-09,31.5783E-06,43.9726E-06,29.7407E-06,1.66260E-06,-20.9036E-06,50.6442E-06,-3.49989E-06,14.5571E-06,-5.72000E-06,1.66260E-06,12.1455E-06
10,31.9589E-06,-1.86571E-06,-25.4063E-06,12.1514E-06,-5.59885E-06,-1.86571E-06,49.2479E-06,38.4196E-06,27.2877E-06,1.26878E-06,-16.8394E-06,44.1271E-06,-3.90570E-06,12.0512E-06,-1.60286E-06,1.26878E-06,18.9415E-06
11,28.0876E-06,-2.73858E-06,-24.4769E-06,5.21120E-06,-1.60049E-06,-2.73858E-06,35.0775E-06,35.1979E-06,22.1090E-06,-1.60345E-06,-18.3253E-06,40.4343E-06,-726.774E-09,4.51176E-06,-727.997E-09,-1.60345E-06,13.4914E-06
12,22.8321E-06,-3.85044E-06,-17.7338E-06,587.781E-09,4.51046E-06,-3.85044E-06,19.7945E-06,27.7118E-06,18.2830E-06,-2.24200E-06,-12.9215E-06,31.2046E-06,-1.03983E-06,1.17202E-06,4.18946E-06,-2.24200E-06,7.61328E-06
13,11.0722E-06,-1.35336E-06,-6.59534E-06,-288.735E-09,7.77282E-06,-4.36059E-06,10.7708E-06,12.4768E-06,10.3191E-06,760.972E-09,-3.27132E-06,13.5904E-06,-2.60291E-06,1.57991E-06,7.78111E-06,-1.55228E-06,4.14260E-06
14,5.77251E-06,-244.768E-09,-4.12399E-06,1.65431E-06,3.87344E-06,-4.12399E-06,4.98519E-06,6.72122E-06,5.25025E-06,621.576E-09,-2.36244E-06,7.61270E-06,-1.16980E-06,2.08240E-06,3.78943E-06,-2.36244E-06,1.91738E-06
15,5.35064E-06,-531.738E-09,-3.59485E-06,1.23922E-06,3.57968E-06,-3.59485E-06,5.20988E-06,6.07116E-06,4.82206E-06,297.157E-09,-2.05908E-06,6.88114E-06,-1.02005E-06,1.65943E-06,3.45979E-06,-2.05908E-06,2.00380E-06
16,4.63361E-06,-1.14016E-06,-2.22973E-06,-39.3581E-09,3.53281E-06,-2.22973E-06,4.53273E-06,4.91536E-06,4.29339E-06,-147.978E-09,-986.108E-09,5.27949E-06,-1.05310E-06,698.794E-09,3.44661E-06,-986.108E-09,1.74336E-06
17,3.93432E-06,-1.12603E-06,-1.59480E-06,-84.5521E-09,2.89285E-06,-1.59480E-06,4.07487E-06,4.08484E-06,3.72650E-06,-166.083E-09,-526.674E-09,4.25317E-06,-1.01125E-06,635.054E-09,2.92536E-06,-526.674E-09,1.56726E-06
18,3.00730E-06,-867.314E-09,-1.08269E-06,-153.574E-09,2.29356E-06,-1.08269E-06,2.99576E-06,3.06667E-06,2.92329E-06,-57.1860E-09,-222.861E-09,3.14615E-06,-881.080E-09,491.845E-09,2.37426E-06,-222.861E-09,1.15221E-06
19,2.10618E-06,-596.349E-09,-692.600E-09,-32.8566E-09,1.54042E-06,-690.334E-09,2.19417E-06,2.11849E-06,2.09162E-06,12.7499E-09,-61.2893E-09,2.15291E-06,-681.026E-09,446.205E-09,1.65642E-06,-59.5464E-09,843.913E-09
20,1.29677E-06,-330.126E-09,-474.275E-09,-222.794E-09,1.04529E-06,-330.126E-09,1.21713E-06,1.31539E-06,1.28158E-06,30.1177E-09,-80.7662E-09,1.36234E-06,-410.310E-09,112.681E-09,1.08813E-06,30.1177E-09,468.125E-09
21,798.988E-09,-141.500E-09,-356.860E-09,-109.011E-09,551.140E-09,-141.500E-09,896.669E-09,819.563E-09,788.046E-09,64.5940E-09,-101.068E-09,889.114E-09,-250.524E-09,89.5853E-09,597.393E-09,64.5940E-09,344.873E-09
22,455.566E-09,-72.7744E-09,-201.032E-09,-49.1787E-09,303.712E-09,-72.7744E-09,525.539E-09,463.837E-09,455.296E-09,48.8806E-09,-49.7793E-09,505.075E-09,-151.466E-09,67.0312E-09,338.486E-09,48.8806E-09,202.131E-09
23,253.083E-09,-36.9797E-09,-109.178E-09,-51.1906E-09,195.096E-09,-36.9797E-09,259.227E-09,255.540E-09,256.367E-09,33.2419E-09,-22.2952E-09,278.662E-09,-89.1046E-09,22.3104E-09,211.762E-09,33.2419E-09,99.7028E-09
24,138.000E-09,-17.9421E-09,-61.1118E-09,-39.6669E-09,116.555E-09,-17.9421E-09,121.910E-09,139.573E-09,140.161E-09,20.2056E-09,-13.0019E-09,153.163E-09,-49.1215E-09,3.49417E-09,123.665E-09,20.2056E-09,46.8885E-09
25,72.1587E-09,-8.55056E-09,-33.2668E-09,-23.4312E-09,62.3232E-09,-8.55056E-09,61.3225E-09,73.4614E-09,73.0114E-09,10.9273E-09,-8.08518E-09,81.0965E-09,-25.2845E-09,-519.372E-12,65.4456E-09,10.9273E-09,23.5856E-09
26,31.8456E-09,-3.39051E-09,-15.8452E-09,-12.8739E-09,28.8742E-09,-3.39051E-09,22.4438E-09,32.9570E-09,31.7715E-09,4.66684E-09,-4.91368E-09,36.6852E-09,-10.5082E-09,-2.62805E-09,29.4859E-09,4.66684E-09,8.63221E-09
27,19.3116E-09,-3.06154E-09,-9.60315E-09,-5.61773E-09,15.3262E-09,-3.06154E-09,18.4806E-09,20.2097E-09,18.6899E-09,1.47975E-09,-3.55226E-09,22.2421E-09,-5.53912E-09,-486.554E-12,15.6242E-09,1.47975E-09,7.10791E-09
28,9.71705E-09,-1.72270E-09,-4.97045E-09,-3.21853E-09,7.96513E-09,-1.72270E-09,8.61323E-09,10.2813E-09,9.21921E-09,419.408E-12,-2.07886E-09,11.2981E-09,-2.51992E-09,-731.234E-12,7.87159E-09,419.408E-12,3.31278E-09
29,5.02589E-09,-1.03855E-09,-2.50262E-09,-1.56687E-09,4.09014E-09,-1.03855E-09,4.49678E-09,5.31886E-09,4.72264E-09,57.6873E-12,-1.06852E-09,5.79116E-09,-1.23727E-09,-348.715E-12,4.00283E-09,57.6873E-12,1.72953E-09
30,2.62579E-09,-602.480E-12,-1.27755E-09,-829.234E-12,2.17748E-09,-602.480E-12,2.27681E-09,2.77974E-09,2.45009E-09,-33.1964E-12,-552.478E-12,3.00257E-09,-621.472E-12,-207.623E-12,2.10524E-09,-33.1964E-12,875.695E-12
31,1.35303E-09,-330.345E-12,-637.443E-12,-447.364E-12,1.16295E-09,-330.345E-12,1.07207E-09,1.42779E-09,1.26305E-09,-31.8563E-12,-268.086E-12,1.53113E-09,-321.035E-12,-121.871E-12,1.11683E-09,-31.8563E-12,412.335E-12
32,707.908E-12,-173.773E-12,-336.550E-12,-243.975E-12,615.334E-12,-173.773E-12,547.111E-12,748.718E-12,658.537E-12,-19.6796E-12,-144.893E-12,803.429E-12,-164.655E-12,-73.6815E-12,587.325E-12,-19.6796E-12,210.427E-12
33,370.700E-12,-87.8539E-12,-185.942E-12,-139.771E-12,324.529E-12,-87.8539E-12,280.677E-12,395.946E-12,341.060E-12,-11.6737E-12,-87.1261E-12,428.186E-12,-80.7535E-12,-51.6100E-12,305.544E-12,-11.6737E-12,107.953E-12
34,191.377E-12,-40.8429E-12,-103.228E-12,-86.2349E-12,174.384E-12,-40.8429E-12,115.327E-12,206.901E-12,174.505E-12,-4.12560E-12,-52.1143E-12,226.620E-12,-39.4218E-12,-39.0426E-12,161.434E-12,-4.12560E-12,44.3566E-12
35,85.0576E-12,-19.7707E-12,-39.2178E-12,-24.7040E-12,70.5438E-12,-19.7707E-12,74.7103E-12,89.0967E-12,80.4688E-12,-168.321E-15,-15.1276E-12,95.5965E-12,-21.7243E-12,-3.96315E-12,69.3043E-12,-168.321E-15,28.7347E-12
36,41.7991E-12,-10.6556E-12,-17.1518E-12,-10.8250E-12,35.4723E-12,-10.6556E-12,35.9257E-12,43.0948E-12,40.2253E-12,-124.452E-15,-5.12154E-12,45.3469E-12,-11.6598E-12,-254.733E-15,35.3585E-12,-124.452E-15,13.8176E-12
37,17.4120E-12,-3.64809E-12,-8.97205E-12,-4.83229E-12,13.2723E-12,-3.64809E-12,14.6233E-12,18.6043E-12,16.1584E-12,-41.6621E-15,-4.13702E-12,20.2955E-12,-3.99325E-12,-952.586E-15,12.9740E-12,-41.6621E-15,5.62436E-12
38,9.24925E-12,-1.87017E-12,-5.10093E-12,-1.00619E-12,5.15451E-12,-1.87017E-12,11.3889E-12,10.0298E-12,8.42913E-12,-124.270E-15,-2.60948E-12,11.0386E-12,-1.89846E-12,540.328E-15,5.27932E-12,-124.270E-15,4.38034E-12
39,4.35455E-12,-971.165E-15,-2.24046E-12,-767.362E-15,2.88146E-12,-971.165E-15,4.69384E-12,4.66482E-12,4.00904E-12,-87.6672E-15,-1.06404E-12,5.07308E-12,-952.441E-15,69.1039E-15,2.87589E-12,-87.6672E-15,1.80532E-12
40,2.33064E-12,-447.699E-15,-1.20099E-12,-593.470E-15,1.72312E-12,-447.699E-15,2.37747E-12,2.47980E-12,2.18624E-12,49.0519E-15,-530.402E-15,2.71664E-12,-568.296E-15,-63.0800E-15,1.71892E-12,49.0519E-15,914.413E-15
41,1.21163E-12,-192.212E-15,-630.253E-15,-348.002E-15,929.382E-15,-192.212E-15,1.24925E-12,1.28250E-12,1.15655E-12,76.6651E-15,-260.290E-15,1.41683E-12,-324.307E-15,-43.1738E-15,939.429E-15,76.6651E-15,480.483E-15
42,499.154E-15,-53.1517E-15,-313.180E-15,-245.091E-15,431.065E-15,-53.1517E-15,398.957E-15,553.884E-15,460.593E-15,35.7424E-15,-164.279E-15,624.872E-15,-110.685E-15,-111.903E-15,408.217E-15,35.7424E-15,153.445E-15
43,116.727E-15,3.39311E-15,-74.9732E-15,-58.5395E-15,114.225E-15,-10.5380E-15,-7.93976E-15,133.339E-15,115.837E-15,28.6565E-15,-31.6252E-15,147.462E-15,-37.6227E-15,-18.9839E-15,113.912E-15,17.9403E-15,-3.05376E-15
44,51.2692E-15,16.0173E-15,-222.280E-15,-70.3376E-15,-106.778E-15,22.1215E-15,-239.239E-15,199.096E-15,-49.9815E-15,-77.0984E-15,-260.404E-15,210.423E-15,129.161E-15,-143.525E-15,-171.556E-15,-72.4029E-15,-92.0150E-15
45,48.4619E-15,24.1727E-15,-374.010E-15,25.3923E-15,-359.790E-15,33.0224E-15,-150.478E-15,316.089E-15,-136.592E-15,-155.276E-15,-461.570E-15,324.978E-15,251.146E-15,-154.338E-15,-450.632E-15,-148.468E-15,-57.8762E-15
46,258.885E-15,114.238E-15,-776.230E-15,257.493E-15,-774.839E-15,114.238E-15,9.07983E-15,746.957E-15,-33.4198E-15,-144.686E-15,-829.662E-15,796.243E-15,335.923E-15,-34.4901E-15,-828.592E-15,-144.686E-15,3.49224E-15
47,580.454E-15,297.579E-15,-1.47141E-12,579.709E-15,-1.47066E-12,297.579E-15,-59.9243E-15,1.48369E-12,104.172E-15,-113.424E-15,-1.47418E-12,1.57836E-12,494.478E-15,103.599E-15,-1.47361E-12,-113.424E-15,-23.0478E-15
48,1.11023E-12,674.830E-15,-2.84259E-12,1.09568E-12,-2.82805E-12,674.830E-15,-467.148E-15,2.89024E-12,243.908E-15,-91.0153E-15,-2.79673E-12,3.04063E-12,881.277E-15,232.720E-15,-2.78554E-12,-91.0153E-15,-179.672E-15
49,2.97578E-12,1.76841E-12,-6.71715E-12,2.97536E-12,-6.71672E-12,1.76841E-12,126.044E-15,7.03855E-12,1.15082E-12,222.073E-15,-6.30528E-12,7.45610E-12,1.64413E-12,1.15049E-12,-6.30495E-12,222.073E-15,48.4784E-15
50,6.56056E-12,4.22499E-12,-14.5633E-12,6.48624E-12,-14.4890E-12,4.22499E-12,-1.87062E-12,15.4870E-12,2.86711E-12,1.07052E-12,-13.3820E-12,16.2491E-12,3.14813E-12,2.80994E-12,-13.3248E-12,1.07052E-12,-719.470E-15
51,12.0109E-12,9.51004E-12,-29.7534E-12,11.5685E-12,-29.3110E-12,9.51004E-12,-6.44584E-12,31.2310E-12,4.48969E-12,2.56594E-12,-27.6367E-12,32.1264E-12,6.86034E-12,4.14941E-12,-27.2964E-12,2.56594E-12,-2.47917E-12
52,26.4287E-12,19.2676E-12,-62.5907E-12,25.9787E-12,-62.1407E-12,19.2676E-12,-10.1894E-12,65.9007E-12,10.5830E-12,5.07441E-12,-57.8935E-12,68.4765E-12,14.0787E-12,10.2368E-12,-57.5473E-12,5.07441E-12,-3.91901E-12
53,50.0750E-12,31.9039E-12,-117.350E-12,48.8685E-12,-116.144E-12,31.9039E-12,-25.2251E-12,122.425E-12,18.1125E-12,4.13475E-12,-110.676E-12,128.789E-12,29.4763E-12,17.1845E-12,-109.748E-12,4.13475E-12,-9.70195E-12
54,117.652E-12,58.9241E-12,-247.296E-12,117.477E-12,-247.121E-12,58.9241E-12,-1.46095E-12,261.120E-12,49.7019E-12,4.52641E-12,-231.028E-12,280.729E-12,58.9331E-12,49.5670E-12,-230.893E-12,4.52641E-12,-561.903E-15
55,211.228E-12,130.011E-12,-488.149E-12,206.366E-12,-483.614E-12,130.338E-12,-100.346E-12,513.227E-12,77.7275E-12,15.2531E-12,-460.255E-12,537.982E-12,122.425E-12,73.9871E-12,-456.766E-12,15.5046E-12,-38.5946E-12
56,371.666E-12,298.042E-12,-1.00430E-09,322.510E-12,-985.346E-12,328.245E-12,-236.472E-12,1.03165E-09,92.8640E-12,36.2298E-12,-965.571E-12,1.05843E-09,278.826E-12,55.0514E-12,-950.991E-12,59.4631E-12,-90.9507E-12
57,769.455E-12,696.922E-12,-2.11697E-09,732.040E-12,-2.09260E-09,709.973E-12,-422.152E-12,2.19344E-09,216.548E-12,160.754E-12,-2.00378E-09,2.22032E-09,542.158E-12,187.768E-12,-1.98503E-09,170.793E-12,-162.366E-12
58,1.54159E-09,1.39338E-09,-4.09441E-09,1.50050E-09,-4.05332E-09,1.39338E-09,-774.015E-12,4.28062E-09,516.934E-12,402.926E-12,-3.81845E-09,4.33538E-09,966.196E-12,485.326E-12,-3.78684E-09,402.926E-12,-297.698E-12
59,3.20560E-09,2.81969E-09,-8.10904E-09,3.08966E-09,-8.01439E-09,2.84097E-09,-1.80873E-09,8.56461E-09,1.26367E-09,966.822E-12,-7.43990E-09,8.70357E-09,1.73647E-09,1.17449E-09,-7.36708E-09,983.194E-12,-695.664E-12
60,6.55489E-09,4.99342E-09,-15.4459E-09,5.52951E-09,-15.2479E-09,5.82077E-09,-3.77392E-09,16.3572E-09,2.79360E-09,1.59247E-09,-14.1301E-09,16.9237E-09,3.24801E-09,2.00484E-09,-13.9778E-09,2.22889E-09,-1.45151E-09
61,11.9779E-09,11.0915E-09,-30.0120E-09,11.7634E-09,-29.7975E-09,11.0915E-09,-5.52215E-09,31.9649E-09,5.20840E-09,4.52656E-09,-27.0915E-09,32.2999E-09,5.78551E-09,5.04339E-09,-26.9265E-09,4.52656E-09,-2.12390E-09
62,24.5175E-09,20.6325E-09,-57.8484E-09,22.8302E-09,-57.4611E-09,21.9325E-09,-10.6241E-09,61.9383E-09,11.5336E-09,8.54520E-09,-51.8247E-09,63.3583E-09,10.5820E-09,10.2357E-09,-51.5268E-09,9.54518E-09,-4.08618E-09
63,54.2385E-09,44.5822E-09,-122.862E-09,53.2741E-09,-121.898E-09,44.5822E-09,-24.8161E-09,132.685E-09,27.8518E-09,20.4239E-09,-108.379E-09,136.231E-09,20.0346E-09,27.1100E-09,-107.638E-09,20.4239E-09,-9.54466E-09
64,107.152E-09,83.1962E-09,-238.477E-09,104.942E-09,-236.267E-09,83.1962E-09,-52.4663E-09,257.318E-09,54.6581E-09,36.2305E-09,-211.211E-09,265.869E-09,40.1073E-09,52.9578E-09,-209.510E-09,36.2305E-09,-20.1793E-09
65,196.322E-09,138.092E-09,-455.186E-09,146.564E-09,-444.911E-09,177.575E-09,-151.637E-09,480.992E-09,81.3403E-09,36.5485E-09,-419.820E-09,501.160E-09,100.644E-09,43.0648E-09,-411.916E-09,66.9197E-09,-58.3219E-09
66,310.402E-09,258.065E-09,-809.860E-09,255.266E-09,-807.062E-09,310.402E-09,-74.5416E-09,842.768E-09,99.5050E-09,59.2456E-09,-762.235E-09,861.740E-09,201.161E-09,57.0929E-09,-760.082E-09,99.5050E-09,-28.6698E-09
67,443.041E-09,361.066E-09,-1.22511E-06,360.722E-09,-1.21309E-06,431.369E-09,-275.892E-09,1.25326E-06,97.9162E-09,34.8580E-09,-1.18528E-06,1.28319E-06,350.834E-09,34.5934E-09,-1.17603E-06,88.9377E-09,-106.112E-09
68,570.325E-09,457.564E-09,-1.70594E-06,450.899E-09,-1.69928E-06,570.325E-09,-239.203E-09,1.70943E-06,47.5255E-09,-39.2137E-09,-1.70345E-06,1.75098E-06,565.046E-09,-44.3400E-09,-1.69832E-06,47.5255E-09,-92.0012E-09
69,739.441E-09,633.964E-09,-2.39514E-06,666.036E-09,-2.39264E-06,704.865E-09,-172.293E-09,2.37199E-06,-20.6618E-09,-101.798E-09,-2.43188E-06,2.41122E-06,851.446E-09,-77.1268E-09,-2.42995E-06,-47.2589E-09,-66.2666E-09
70,927.181E-09,801.750E-09,-3.19865E-06,915.545E-09,-3.18702E-06,801.750E-09,-425.880E-09,3.12663E-06,-134.701E-09,-231.186E-09,-3.30842E-06,3.17372E-06,1.22477E-06,-143.651E-09,-3.29947E-06,-231.186E-09,-163.800E-09
71,926.894E-09,780.457E-09,-3.62267E-06,844.040E-09,-3.61465E-06,855.292E-09,-378.445E-09,3.44473E-06,-391.998E-09,-504.641E-09,-3.89166E-06,3.49967E-06,1.59610E-06,-455.732E-09,-3.88550E-06,-447.076E-09,-145.556E-09
72,906.041E-09,835.976E-09,-4.22887E-06,835.044E-09,-4.22293E-06,901.026E-09,-274.243E-09,3.92352E-06,-737.771E-09,-791.668E-09,-4.68771E-06,3.94994E-06,2.07238E-06,-792.384E-09,-4.68313E-06,-741.629E-09,-105.478E-09
73,976.964E-09,921.502E-09,-4.95638E-06,960.825E-09,-4.94973E-06,930.988E-09,-281.359E-09,4.54299E-06,-1.01267E-06,-1.05533E-06,-5.57678E-06,4.56411E-06,2.54826E-06,-1.02508E-06,-5.57166E-06,-1.04804E-06,-108.215E-09
74,1.09593E-06,944.765E-09,-5.49782E-06,1.08896E-06,-5.49085E-06,944.765E-09,-342.960E-09,5.01503E-06,-1.15147E-06,-1.26775E-06,-6.22359E-06,5.07212E-06,2.88094E-06,-1.15684E-06,-6.21823E-06,-1.26775E-06,-131.908E-09
75,1.26538E-06,928.990E-09,-5.96054E-06,1.25921E-06,-5.95436E-06,928.990E-09,-184.950E-09,5.43444E-06,-1.19942E-06,-1.45818E-06,-6.75782E-06,5.55840E-06,3.13847E-06,-1.20417E-06,-6.75307E-06,-1.45818E-06,-71.1345E-09
76,1.26439E-06,941.932E-09,-6.08066E-06,1.25892E-06,-6.07519E-06,941.932E-09,38.5130E-09,5.53150E-06,-1.26258E-06,-1.51063E-06,-6.91263E-06,5.65004E-06,3.22861E-06,-1.26680E-06,-6.90841E-06,-1.51063E-06,14.8127E-09
77,1.28318E-06,1.19929E-06,-6.09198E-06,1.25952E-06,-6.06831E-06,1.19929E-06,-344.001E-09,5.64132E-06,-1.09534E-06,-1.15988E-06,-6.76854E-06,5.67320E-06,3.00792E-06,-1.11355E-06,-6.75034E-06,-1.15988E-06,-132.308E-09
78,2.08405E-06,1.69301E-06,-6.64732E-06,2.06503E-06,-6.62830E-06,1.69301E-06,-327.323E-09,6.57141E-06,-52.8078E-09,-353.607E-09,-6.76924E-06,6.71643E-06,2.39189E-06,-67.4400E-09,-6.75461E-06,-353.607E-09,-125.894E-09
79,3.22820E-06,2.67814E-06,-7.19379E-06,3.21487E-06,-7.18046E-06,2.67814E-06,-173.575E-09,7.81518E-06,1.74047E-06,1.31734E-06,-6.27645E-06,8.01692E-06,1.07288E-06,1.73021E-06,-6.26619E-06,1.31734E-06,-66.7597E-09
80,5.26834E-06,4.50037E-06,-8.76737E-06,5.23926E-06,-8.75465E-06,4.51674E-06,-676.284E-09,10.5271E-06,4.63027E-06,4.03953E-06,-6.16643E-06,10.7967E-06,-834.459E-09,4.60790E-06,-6.15664E-06,4.05212E-06,-260.109E-09
81,10.9260E-06,5.94403E-06,-13.4011E-06,10.8632E-06,-13.3383E-06,5.94403E-06,-2.18244E-06,17.1929E-06,10.4060E-06,6.57365E-06,-8.30723E-06,18.7132E-06,-2.89079E-06,10.3576E-06,-8.25892E-06,6.57365E-06,-839.400E-09
82,15.4549E-06,8.83106E-06,-11.0911E-06,14.1753E-06,-9.81147E-06,8.83106E-06,-2.23138E-06,18.4480E-06,19.5008E-06,14.4055E-06,-919.233E-09,20.4200E-06,-10.9957E-06,18.5165E-06,65.1207E-09,14.4055E-06,-858.225E-09
83,661.682E-09,-499.931E-09,-1.99632E-06,418.868E-09,-1.75351E-06,-499.931E-09,-1.25756E-06,1.82426E-06,-549.421E-09,-1.44297E-06,-2.59404E-06,2.04462E-06,1.52881E-06,-736.201E-09,-2.40726E-06,-1.44297E-06,-483.677E-09
84,668.145E-09,349.316E-09,-1.74898E-06,-38.6776E-09,-1.04215E-06,349.316E-09,-2.10963E-06,1.75327E-06,91.9294E-09,-153.323E-09,-1.76739E-06,1.85932E-06,609.596E-09,-451.780E-09,-1.22368E-06,-153.323E-09,-811.397E-09
85,3.14331E-06,-182.190E-09,-4.73920E-06,2.03248E-06,-3.62836E-06,-182.190E-09,4.47915E-06,5.31608E-06,1.39212E-06,-1.16596E-06,-4.67135E-06,6.06347E-06,1.48173E-06,537.634E-09,-3.81686E-06,-1.16596E-06,1.72275E-06
86,276.438E-09,123.366E-09,-462.357E-09,-113.292E-09,-72.6277E-09,123.366E-09,-697.932E-09,524.127E-09,176.556E-09,58.8089E-09,-391.747E-09,568.304E-09,52.1275E-09,-123.236E-09,-91.9557E-09,58.8089E-09,-268.435E-09
87,909.192E-09,558.503E-09,-4.07891E-06,691.917E-09,-3.86164E-06,558.503E-09,-1.91543E-06,3.71069E-06,-807.094E-09,-1.07685E-06,-4.64410E-06,3.83700E-06,2.17601E-06,-974.228E-09,-4.47696E-06,-1.07685E-06,-736.704E-09
88,880.713E-09,-426.500E-09,-851.501E-09,-440.175E-09,554.758E-09,-511.870E-09,-927.315E-09,1.21899E-06,448.267E-09,-557.281E-09,-884.206E-09,1.33247E-06,331.073E-09,-567.801E-09,197.532E-09,-622.951E-09,-356.660E-09
89,46.5617E-09,27.8830E-09,-86.6122E-09,-15.4001E-09,-29.4628E-09,32.6954E-09,-127.313E-09,96.2521E-09,28.7969E-09,14.4287E-09,-73.6445E-09,102.441E-09,10.1396E-09,-18.8660E-09,-29.6835E-09,18.1306E-09,-48.9666E-09
90,3.16934E-06,-949.549E-09,-2.52090E-06,426.657E-09,1.79314E-06,-2.52090E-06,2.76471E-06,4.15164E-06,2.26424E-06,-904.137E-09,-2.11287E-06,4.37711E-06,250.922E-09,154.482E-09,1.20562E-06,-2.11287E-06,1.06335E-06
91,1.32121E-06,473.972E-09,-5.23421E-06,1.27223E-06,-5.18523E-06,473.972E-09,-474.307E-09,4.75932E-06,-967.744E-09,-1.61946E-06,-6.01038E-06,5.04263E-06,2.86586E-06,-1.00542E-06,-5.97270E-06,-1.61946E-06,-182.426E-09
92,1.83290E-06,-631.296E-09,-1.39411E-06,-491.593E-09,1.69319E-06,-1.39411E-06,710.646E-09,2.26722E-06,1.29885E-06,-596.678E-09,-1.18346E-06,2.48232E-06,160.428E-09,-489.214E-09,1.19139E-06,-1.18346E-06,273.325E-09
93,10.9738E-09,6.97939E-09,-21.0642E-09,-405.715E-12,-9.95708E-09,7.25176E-09,-28.0763E-09,23.4585E-09,6.64656E-09,3.57394E-09,-17.9981E-09,24.6447E-09,2.59253E-09,-2.10692E-09,-9.45412E-09,3.78345E-09,-10.7986E-09
94,450.753E-09,58.9546E-09,-512.534E-09,-248.167E-09,186.386E-09,58.9546E-09,-808.355E-09,662.524E-09,345.103E-09,43.7192E-09,-395.887E-09,740.990E-09,2.35525E-09,-192.528E-09,141.743E-09,43.7192E-09,-310.906E-09
95,5.35623E-06,1.99904E-06,-5.73433E-06,4.46921E-06,-4.84731E-06,1.99904E-06,5.15684E-06,7.58289E-06,5.05534E-06,2.47288E-06,-3.47586E-06,8.53120E-06,-1.35078E-06,4.37301E-06,-2.79354E-06,2.47288E-06,1.98340E-06
96,2.34298E-09,975.301E-12,-4.18216E-09,607.954E-12,-2.79743E-09,1.32560E-09,-4.91860E-09,4.61116E-09,1.30390E-09,251.839E-12,-3.71544E-09,5.01934E-09,719.901E-12,-30.7364E-12,-2.65027E-09,521.299E-12,-1.89177E-09
97,863.793E-09,613.889E-09,-3.07839E-06,543.873E-09,-2.78459E-06,640.007E-09,-2.02354E-06,2.94277E-06,-259.027E-09,-451.261E-09,-3.29147E-06,3.03245E-06,1.33392E-06,-505.120E-09,-3.06547E-06,-431.171E-09,-778.285E-09
98,572.726E-09,483.817E-09,-1.76830E-06,292.797E-09,-1.50461E-06,500.058E-09,-1.43206E-06,1.76783E-06,29.9288E-09,-38.4625E-09,-1.77086E-06,1.80079E-06,593.131E-09,-185.401E-09,-1.56802E-06,-25.9693E-09,-550.792E-09
99,683.477E-09,11.6546E-09,-2.19124E-06,51.8157E-09,-1.55958E-06,11.6546E-09,-2.25368E-06,2.00955E-06,-337.390E-09,-854.176E-09,-2.54871E-06,2.21132E-06,1.24676E-06,-823.283E-09,-2.06282E-06,-854.176E-09,-866.801E-09
100,627.899E-12,234.392E-12,-1.15709E-09,232.701E-12,-855.919E-12,328.422E-12,-1.20125E-09,1.25914E-09,312.925E-12,10.2266E-12,-1.06014E-09,1.37307E-09,245.664E-12,8.92576E-12,-828.474E-12,82.5573E-12,-462.018E-12
101,190.134E-12,74.6831E-12,-342.080E-12,171.552E-12,-324.594E-12,75.7775E-12,-133.038E-12,379.015E-12,101.681E-12,12.8734E-12,-307.714E-12,409.395E-12,64.3864E-12,87.3881E-12,-294.263E-12,13.7152E-12,-51.1684E-12
102,5.89310E-06,-1.98706E-06,-3.94956E-06,2.58097E-06,-572.586E-09,-2.05190E-06,5.79945E-06,7.00553E-06,4.50805E-06,-1.55361E-06,-3.06323E-06,7.57128E-06,36.2637E-09,1.96026E-06,-465.556E-09,-1.60349E-06,2.23056E-06
103,1.43789E-06,-651.940E-09,-3.07376E-06,1.22095E-06,-2.85682E-06,-651.940E-09,905.167E-09,3.07626E-06,-213.823E-09,-1.82138E-06,-3.68432E-06,3.47050E-06,1.90651E-06,-380.703E-09,-3.51744E-06,-1.82138E-06,348.141E-09
104,79.9135E-12,15.4722E-12,-125.788E-12,-49.9752E-12,-5.78096E-12,25.3543E-12,-174.208E-12,141.694E-12,43.9323E-12,-5.63788E-12,-114.299E-12,158.232E-12,25.3349E-12,-55.9820E-12,-21.9865E-12,1.96375E-12,-67.0031E-12
105,1.77293E-06,984.351E-09,-5.78097E-06,1.65258E-06,-5.66062E-06,984.351E-09,1.10608E-06,5.54640E-06,-380.642E-09,-987.243E-09,-6.19134E-06,5.81070E-06,2.51974E-06,-473.220E-09,-6.09876E-06,-987.243E-09,425.417E-09
106,10.8219E-12,1.41476E-12,-14.7885E-12,-2.11749E-12,-3.21163E-12,2.77726E-12,-18.9167E-12,17.6315E-12,6.85232E-12,-383.951E-15,-12.8480E-12,19.7003E-12,2.12655E-12,-3.10106E-12,-3.94271E-12,664.131E-15,-7.27564E-12
107,2.87345E-12,1.24193E-12,-5.27322E-12,872.636E-15,-3.27241E-12,1.24193E-12,-6.86053E-12,5.77558E-12,1.54236E-12,287.342E-15,-4.72431E-12,6.26667E-12,964.872E-15,3.27033E-15,-3.18523E-12,287.342E-15,-2.63866E-12
108,8.79644E-06,373.013E-09,-7.38051E-06,6.26958E-06,-4.85365E-06,373.013E-09,9.84459E-06,10.8113E-06,7.79858E-06,1.31902E-06,-4.64523E-06,12.4438E-06,-1.49079E-06,5.85484E-06,-2.70149E-06,1.31902E-06,3.78638E-06
109,995.598E-09,643.724E-09,-5.18385E-06,843.983E-09,-5.12702E-06,738.503E-09,-1.08851E-06,4.62565E-06,-1.27908E-06,-1.54975E-06,-6.03250E-06,4.75342E-06,2.95377E-06,-1.39570E-06,-5.98878E-06,-1.47684E-06,-418.657E-09
110,542.191E-15,204.794E-15,-1.08758E-12,463.780E-15,-1.02030E-12,215.925E-15,-605.266E-15,1.15918E-12,220.571E-15,-38.9652E-15,-1.03310E-12,1.25367E-12,283.832E-15,160.255E-15,-981.347E-15,-30.4025E-15,-232.795E-15
111,855.001E-09,-160.982E-09,-532.473E-09,-435.605E-09,779.598E-09,-182.448E-09,-420.562E-09,971.623E-09,750.892E-09,-30.6326E-09,-316.395E-09,1.06729E-06,-134.622E-09,-241.881E-09,692.891E-09,-47.1447E-09,-161.755E-09
112,5.22521E-06,-1.76298E-06,-2.78967E-06,665.124E-09,2.79710E-06,-2.78967E-06,6.63634E-06,5.81740E-06,4.40740E-06,-968.127E-09,-1.75789E-06,6.16529E-06,-560.464E-09,899.647E-09,2.53963E-06,-1.75789E-06,2.55244E-06
113,69.2674E-09,22.5847E-09,-69.7807E-09,-31.8006E-09,23.8567E-09,30.0154E-09,-118.192E-09,95.7074E-09,66.0161E-09,30.1063E-09,-40.9440E-09,106.960E-09,-18.3928E-09,-11.7285E-09,31.0848E-09,35.8222E-09,-45.4584E-09
114,180.142E-09,131.529E-09,-404.738E-09,92.3238E-09,-325.026E-09,139.635E-09,-393.725E-09,433.942E-09,84.8775E-09,47.4832E-09,-365.030E-09,449.907E-09,77.5564E-09,17.3254E-09,-303.713E-09,53.7186E-09,-151.433E-09
115,945.982E-09,797.608E-09,-4.34169E-06,801.263E-09,-4.23931E-06,839.948E-09,-1.35072E-06,4.01242E-06,-771.223E-09,-885.357E-09,-4.83866E-06,4.06744E-06,2.16508E-06,-882.546E-09,-4.75991E-06,-852.788E-09,-519.507E-09
116,513.005E-09,-452.268E-09,-1.05645E-06,-229.630E-09,-101.094E-09,-664.989E-09,-1.23946E-06,1.07892E-06,-179.831E-09,-922.348E-09,-1.38710E-06,1.20727E-06,829.761E-09,-751.089E-09,-652.215E-09,-1.08598E-06,-476.714E-09
117,777.566E-09,627.433E-09,-2.53868E-06,599.411E-09,-2.39861E-06,665.520E-09,-1.31747E-06,2.49563E-06,-55.9180E-09,-171.405E-09,-2.60687E-06,2.55096E-06,944.733E-09,-192.960E-09,-2.49913E-06,-142.107E-09,-506.718E-09
118,515.293E-09,251.184E-09,-3.64274E-06,129.132E-09,-3.32188E-06,316.489E-09,-2.14734E-06,3.10309E-06,-1.26300E-06,-1.46616E-06,-4.46149E-06,3.19848E-06,2.39688E-06,-1.56005E-06,-4.21467E-06,-1.41593E-06,-825.899E-09
119,2.05189E-06,-494.772E-09,-1.18279E-06,-316.233E-09,1.87335E-06,-1.18279E-06,972.583E-09,2.27754E-06,1.79433E-06,-164.636E-09,-693.880E-09,2.48821E-06,-311.939E-09,-27.2980E-09,1.65699E-06,-693.880E-09,374.070E-09
120,1.47299E-06,-303.761E-09,-680.306E-09,-357.686E-09,1.31971E-06,-473.102E-09,1.03464E-06,1.53929E-06,1.41514E-06,48.4071E-09,-241.243E-09,1.65638E-06,-407.434E-09,6.92639E-09,1.29723E-06,-81.8555E-09,397.937E-09
121,20.1691E-09,11.4410E-09,-40.2755E-09,-36.1298E-12,-24.1663E-09,15.5371E-09,-50.5072E-09,43.5515E-09,10.5155E-09,3.80149E-09,-35.9804E-09,46.4958E-09,7.22113E-09,-5.02704E-09,-23.5887E-09,6.95233E-09,-19.4259E-09
122,924.632E-15,421.003E-15,-1.86661E-12,529.425E-15,-1.49934E-12,448.931E-15,-1.57547E-12,2.00079E-12,410.690E-15,23.2830E-15,-1.73642E-12,2.14711E-12,434.150E-15,106.685E-15,-1.45390E-12,44.7660E-15,-605.950E-15
123,864.949E-09,506.229E-09,-3.15171E-06,474.563E-09,-2.78629E-06,531.195E-09,-2.29244E-06,2.96568E-06,-361.885E-09,-637.823E-09,-3.45162E-06,3.08974E-06,1.48378E-06,-662.182E-09,-3.17053E-06,-618.619E-09,-881.707E-09
124,2.32589E-06,1.23789E-06,-4.71955E-06,1.31745E-06,-4.60086E-06,2.12765E-06,397.437E-09,5.14183E-06,1.12236E-06,285.435E-09,-4.29721E-06,5.41957E-06,963.138E-09,346.632E-09,-4.20591E-06,969.867E-09,152.860E-09
125,6.89675E-06,-2.14031E-06,-3.72327E-06,6.66965E-06,-2.11747E-06,-3.51900E-06,2.12781E-06,7.64908E-06,5.90126E-06,-1.05033E-06,-2.26799E-06,8.16925E-06,-860.981E-09,5.72656E-06,-1.03276E-06,-2.11086E-06,818.390E-09
126,17.7430E-12,3.35347E-12,-27.3413E-12,-1.00545E-12,-11.6567E-12,6.41735E-12,-37.5818E-12,31.0625E-12,10.0457E-12,-1.02320E-12,-24.6346E-12,34.6802E-12,5.20403E-12,-4.37621E-12,-12.5695E-12,1.33363E-12,-14.4545E-12
127,171.657E-09,23.0464E-09,-122.763E-09,-71.1633E-09,120.058E-09,23.0464E-09,-213.656E-09,203.489E-09,173.548E-09,59.2323E-09,-52.9287E-09,226.477E-09,-59.9506E-09,-13.2367E-09,133.856E-09,59.2323E-09,-82.1756E-09
128,969.570E-09,-744.767E-09,-1.40904E-06,633.368E-09,-500.700E-09,-1.31690E-06,216.936E-09,1.65469E-06,62.6096E-09,-1.25611E-06,-1.76709E-06,1.82970E-06,986.864E-09,-196.008E-09,-1.06837E-06,-1.69622E-06,83.4368E-09
129,178.001E-15,70.2991E-15,-486.580E-15,103.322E-15,-415.521E-15,73.9187E-15,-258.497E-15,478.399E-15,-545.015E-18,-83.3928E-15,-511.761E-15,511.216E-15,198.566E-15,-57.9904E-15,-457.100E-15,-80.6086E-15,-99.4219E-15
130,21.7607E-09,7.40988E-09,-28.6532E-09,-12.9943E-09,6.10173E-09,7.40988E-09,-37.7037E-09,35.4712E-09,17.0375E-09,5.99837E-09,-21.7425E-09,38.7799E-09,-431.115E-12,-9.69712E-09,4.99210E-09,5.99837E-09,-14.5014E-09
131,5.91447E-06,4.02511E-06,-3.09335E-06,2.08618E-06,-87.3318E-09,4.84738E-06,5.82275E-06,6.34575E-06,8.49934E-06,7.04598E-06,1.57025E-06,6.92910E-06,-5.70519E-06,5.55450E-06,3.88257E-06,7.67850E-06,2.23952E-06
132,532.156E-09,279.118E-09,-1.17528E-06,-54.3917E-09,-588.737E-09,279.118E-09,-1.55409E-06,1.23390E-06,199.345E-09,4.70054E-09,-1.11407E-06,1.31342E-06,303.342E-09,-251.846E-09,-662.881E-09,4.70054E-09,-597.727E-09
133,6.55376E-09,4.90705E-09,-14.7476E-09,4.89358E-09,-13.3376E-09,5.15716E-09,-9.88867E-09,15.8122E-09,3.14511E-09,1.87841E-09,-13.2406E-09,16.3857E-09,2.73902E-09,1.86805E-09,-12.1559E-09,2.07080E-09,-3.80334E-09
134,712.229E-09,157.705E-09,-1.56248E-06,-223.102E-09,-627.144E-09,157.705E-09,-2.12072E-06,1.58878E-06,148.325E-09,-278.232E-09,-1.60145E-06,1.74977E-06,577.118E-09,-571.160E-09,-881.962E-09,-278.232E-09,-815.661E-09
135,1.17850E-06,855.547E-09,-5.81951E-06,1.16008E-06,-5.80108E-06,855.547E-09,-113.653E-09,5.26572E-06,-1.27738E-06,-1.52580E-06,-6.66046E-06,5.38308E-06,3.15455E-06,-1.29155E-06,-6.64628E-06,-1.52580E-06,-43.7127E-09
136,1.87228E-06,179.435E-09,-4.99360E-06,1.69087E-06,-4.81218E-06,179.435E-09,1.21143E-06,4.79558E-06,-257.020E-09,-1.55921E-06,-5.53847E-06,5.28145E-06,2.45157E-06,-396.573E-09,-5.39892E-06,-1.55921E-06,465.933E-09
137,92.0186E-09,64.5603E-09,-193.261E-09,72.7202E-09,-175.368E-09,65.9654E-09,-134.870E-09,210.135E-09,49.6205E-09,28.4987E-09,-169.826E-09,219.446E-09,30.5688E-09,34.7756E-09,-156.062E-09,29.5795E-09,-51.8730E-09
138,2.62080E-06,-1.46605E-06,-2.39081E-06,1.56603E-06,-1.33603E-06,-1.46605E-06,2.93089E-06,3.61371E-06,1.30289E-06,-1.84085E-06,-2.55220E-06,3.85508E-06,1.03005E-06,491.523E-09,-1.74083E-06,-1.84085E-06,1.12726E-06
139,864.864E-09,743.196E-09,-4.60693E-06,656.772E-09,-4.52051E-06,864.864E-09,-1.31332E-06,4.16420E-06,-1.06484E-06,-1.15843E-06,-5.27392E-06,4.20908E-06,2.49906E-06,-1.22491E-06,-5.20744E-06,-1.06484E-06,-505.124E-09
140,427.632E-12,278.430E-12,-1.00109E-09,266.133E-12,-861.232E-12,300.074E-12,-689.157E-12,1.04790E-09,158.741E-12,43.9707E-12,-940.274E-12,1.09902E-09,245.854E-12,34.5115E-12,-832.693E-12,60.6198E-12,-265.060E-12
141,1.61611E-09,1.09622E-09,-3.75429E-09,1.19348E-09,-3.44466E-09,1.20923E-09,-2.29870E-09,3.95078E-09,642.038E-12,242.123E-12,-3.48904E-09,4.13108E-09,868.294E-12,316.936E-12,-3.25087E-09,329.050E-12,-884.114E-12
142,4.71044E-09,653.204E-12,-3.97369E-09,-2.02280E-09,3.50343E-09,-90.6856E-12,-2.27486E-09,6.04397E-09,4.42531E-09,1.30436E-09,-2.25479E-09,6.68010E-09,-1.15829E-09,-754.101E-12,3.49684E-09,732.137E-12,-874.947E-12
143,757.527E-09,-246.995E-12,-2.66483E-06,292.715E-09,-2.20002E-06,-246.995E-12,-2.16179E-06,2.40377E-06,-517.799E-09,-1.10070E-06,-3.15039E-06,2.63259E-06,1.58963E-06,-875.347E-09,-2.79284E-06,-1.10070E-06,-831.459E-09
144,5.18270E-06,-1.41373E-06,-3.08213E-06,1.20788E-06,2.56109E-06,-3.08213E-06,5.82251E-06,5.84410E-06,4.38295E-06,-691.228E-09,-1.97461E-06,6.35756E-06,-572.372E-09,1.32540E-06,2.36632E-06,-1.97461E-06,2.23943E-06
145,3.73197E-06,-769.402E-09,-2.07970E-06,148.875E-09,2.81369E-06,-2.07970E-06,3.55504E-06,4.07715E-06,3.38009E-06,-82.5044E-09,-1.09043E-06,4.47051E-06,-735.718E-09,623.862E-09,2.67372E-06,-1.09043E-06,1.36732E-06
146,914.418E-09,38.2267E-09,-3.76916E-06,764.877E-09,-3.61962E-06,38.2267E-09,-1.31228E-06,3.34078E-06,-921.513E-09,-1.59551E-06,-4.52427E-06,3.60275E-06,2.34710E-06,-1.03655E-06,-4.40923E-06,-1.59551E-06,-504.724E-09
147,64.6037E-09,4.55080E-09,-47.2578E-09,-34.4192E-09,51.7651E-09,4.55080E-09,-20.6064E-09,77.4373E-09,62.3279E-09,16.1334E-09,-23.7194E-09,86.0473E-09,-18.2473E-09,-13.8435E-09,52.4521E-09,16.1334E-09,-7.92553E-09
148,9.90070E-06,-1.27848E-06,-6.14562E-06,3.49906E-06,256.011E-09,-1.27848E-06,2.03576E-06,11.0057E-06,9.04473E-06,445.360E-09,-3.29860E-06,12.3433E-06,-2.06383E-06,4.12039E-06,1.62574E-06,445.360E-09,782.983E-09
149,1.19294E-09,139.392E-12,-1.02301E-09,-300.848E-12,790.940E-12,-180.772E-12,-297.679E-12,1.51063E-09,1.09610E-09,285.679E-12,-608.480E-12,1.70458E-09,-257.767E-12,-52.9671E-12,786.870E-12,39.3993E-12,-114.492E-12
150,915.873E-09,784.496E-09,-3.54830E-06,815.560E-09,-3.47641E-06,812.925E-09,-1.03126E-06,3.38523E-06,-361.595E-09,-462.654E-09,-3.79557E-06,3.43398E-06,1.53994E-06,-438.759E-09,-3.74028E-06,-440.786E-09,-396.637E-09
151,356.500E-12,30.5961E-12,-309.980E-12,-90.6296E-12,225.599E-12,-57.8539E-12,-75.9901E-12,456.845E-12,318.720E-12,68.0254E-12,-193.956E-12,512.677E-12,-64.2632E-12,-25.2252E-12,218.028E-12,-13.0837E-15,-29.2270E-12
152,387.924E-09,268.407E-09,-905.778E-09,116.952E-09,-634.806E-09,268.407E-09,-1.00668E-06,954.211E-09,154.491E-09,62.5548E-09,-840.664E-09,995.155E-09,207.873E-09,-53.9488E-09,-632.224E-09,62.5548E-09,-387.183E-09
153,3.14471E-06,1.15948E-06,-5.69427E-06,2.84635E-06,-5.39590E-06,1.15948E-06,2.63330E-06,6.21512E-06,1.61704E-06,89.9403E-09,-5.18217E-06,6.79921E-06,1.15840E-06,1.38753E-06,-4.95266E-06,89.9403E-09,1.01281E-06
154,288.524E-15,13.2683E-15,-347.248E-15,-180.189E-15,130.990E-15,3.74355E-15,-212.612E-15,448.200E-15,195.717E-15,-16.0183E-15,-293.339E-15,489.056E-15,37.8800E-15,-164.832E-15,74.5366E-15,-23.3450E-15,-81.7738E-15
155,1.10591E-06,-445.127E-09,-949.149E-09,-328.013E-09,954.700E-09,-915.058E-09,-242.885E-09,1.43752E-06,684.328E-09,-508.774E-09,-896.483E-09,1.58081E-06,240.310E-09,-418.686E-09,568.017E-09,-870.259E-09,-93.4175E-09
156,4.80742E-06,3.61104E-06,-6.91016E-06,4.50443E-06,-6.88347E-06,3.88734E-06,255.872E-09,8.60585E-06,4.56819E-06,3.64789E-06,-4.44533E-06,9.01352E-06,-1.25692E-06,4.33512E-06,-4.42480E-06,3.86043E-06,98.4124E-09
157,5.72728E-12,178.149E-15,-5.82245E-12,-318.663E-15,172.457E-15,229.176E-15,-6.92515E-12,8.11388E-12,4.45346E-12,184.905E-15,-4.43094E-12,8.88441E-12,-69.1415E-15,-197.258E-15,180.526E-15,224.157E-15,-2.66352E-12
158,696.587E-09,534.916E-09,-2.27277E-06,313.626E-09,-1.92251E-06,567.621E-09,-1.88187E-06,2.22488E-06,-64.8944E-09,-189.257E-09,-2.34902E-06,2.28412E-06,867.722E-09,-359.480E-09,-2.07959E-06,-164.100E-09,-723.795E-09
159,12.2929E-09,9.36953E-09,-27.9288E-09,8.84884E-09,-25.1984E-09,10.0832E-09,-18.5795E-09,29.9188E-09,5.84081E-09,3.59208E-09,-25.0990E-09,30.9398E-09,5.22203E-09,3.19155E-09,-22.9987E-09,4.14103E-09,-7.14597E-09
160,83.9259E-12,12.5293E-12,-98.5126E-12,-24.4111E-12,24.2563E-12,-1.90262E-12,-75.6901E-12,127.018E-12,63.3714E-12,8.45094E-12,-76.9659E-12,140.337E-12,1.71452E-12,-19.9647E-12,17.4717E-12,-2.65053E-12,-29.1116E-12
161,707.864E-09,83.6410E-09,-1.12691E-06,-401.631E-09,-17.4133E-09,83.6410E-09,-1.68078E-06,1.25674E-06,351.008E-09,-129.163E-09,-1.06035E-06,1.41136E-06,279.503E-09,-502.449E-09,-206.897E-09,-129.163E-09,-646.453E-09
162,145.887E-12,98.3380E-12,-354.862E-12,91.8928E-12,-300.868E-12,98.3380E-12,-278.954E-12,369.933E-12,48.3913E-12,11.8154E-12,-336.800E-12,385.191E-12,92.1977E-12,6.85759E-12,-295.266E-12,11.8154E-12,-107.290E-12
163,5.17852E-12,3.00209E-12,-11.0114E-12,3.17735E-12,-9.07938E-12,3.07125E-12,-8.50744E-12,11.7577E-12,2.35034E-12,676.155E-15,-10.1034E-12,12.4538E-12,2.35898E-12,810.975E-15,-8.61728E-12,729.356E-15,-3.27209E-12
164,651.512E-09,-50.8092E-09,-350.830E-09,-262.065E-09,640.986E-09,-129.048E-09,9.48007E-09,691.234E-09,645.320E-09,105.074E-09,-125.711E-09,771.032E-09,-208.228E-09,-57.4309E-09,637.223E-09,44.8902E-09,3.64619E-09
165,450.678E-09,413.828E-09,-1.30691E-06,383.153E-09,-1.24548E-06,419.916E-09,-618.595E-09,1.33814E-06,91.4396E-09,63.0939E-09,-1.26055E-06,1.35199E-06,368.674E-09,39.4972E-09,-1.21330E-06,67.7766E-09,-237.921E-09
166,11.7501E-06,-3.18521E-06,-7.36555E-06,8.30853E-06,-3.56725E-06,-3.54193E-06,-290.472E-09,13.4752E-06,9.73048E-06,-1.75823E-06,-4.97387E-06,14.7043E-06,-999.460E-09,7.08311E-06,-2.05210E-06,-2.03263E-06,-111.720E-09
167,176.187E-09,106.248E-09,-340.508E-09,-12.8502E-09,-151.471E-09,106.248E-09,-473.665E-09,374.905E-09,102.025E-09,48.2252E-09,-295.433E-09,397.458E-09,48.3942E-09,-43.3884E-09,-150.019E-09,48.2252E-09,-182.179E-09
168,634.161E-09,538.297E-09,-1.95106E-06,523.902E-09,-1.88074E-06,578.237E-09,-784.503E-09,1.95333E-06,38.6249E-09,-35.1166E-09,-1.95000E-06,1.98863E-06,648.831E-09,-46.1897E-09,-1.89591E-06,-4.39321E-09,-301.732E-09
169,15.4121E-09,-309.774E-12,-9.18296E-09,-6.90564E-09,13.1348E-09,-309.774E-12,-12.6747E-09,17.2452E-09,15.2705E-09,3.17675E-09,-3.64878E-09,18.9193E-09,-4.93283E-09,-1.89699E-09,13.5187E-09,3.17675E-09,-4.87490E-09
170,3.16791E-09,2.24057E-09,-7.21948E-09,2.34574E-09,-6.61010E-09,2.45336E-09,-4.64030E-09,7.66540E-09,1.39205E-09,678.704E-12,-6.59826E-09,7.99031E-09,1.50917E-09,759.603E-12,-6.12950E-09,842.391E-12,-1.78473E-09
171,40.0669E-12,26.9288E-12,-97.0202E-12,27.5863E-12,-84.7350E-12,27.1242E-12,-73.1501E-12,101.096E-12,13.4989E-12,3.39270E-12,-91.9527E-12,105.452E-12,25.0204E-12,3.89846E-12,-82.5026E-12,3.54298E-12,-28.1347E-12
172,23.7582E-12,14.4925E-12,-52.8990E-12,15.7684E-12,-46.1419E-12,15.7251E-12,-39.7230E-12,55.8844E-12,9.82461E-12,2.69711E-12,-49.1425E-12,58.9671E-12,12.2069E-12,3.67861E-12,-43.9447E-12,3.64527E-12,-15.2781E-12
173,828.981E-09,346.783E-09,-3.19787E-06,401.456E-09,-2.77035E-06,346.783E-09,-2.38696E-06,2.93472E-06,-528.922E-09,-899.844E-09,-3.62650E-06,3.09758E-06,1.68509E-06,-857.788E-09,-3.29764E-06,-899.844E-09,-918.062E-09
174,979.758E-09,669.788E-09,-3.86131E-06,762.931E-09,-3.64449E-06,669.788E-09,-1.95511E-06,3.61259E-06,-522.360E-09,-760.799E-09,-4.24626E-06,3.72390E-06,1.84314E-06,-689.150E-09,-4.07947E-06,-760.799E-09,-751.966E-09
175,5.71500E-06,-1.04297E-06,-5.22217E-06,1.17831E-06,-685.483E-09,-1.04297E-06,7.68971E-06,7.38095E-06,4.07876E-06,-1.11967E-06,-4.33444E-06,8.41320E-06,458.447E-09,589.007E-09,-844.681E-09,-1.11967E-06,2.95758E-06
176,1.44096E-06,1.11324E-06,-5.97756E-06,1.35897E-06,-5.94209E-06,1.15977E-06,28.3206E-09,5.58652E-06,-866.581E-09,-1.11867E-06,-6.57314E-06,5.70656E-06,2.85280E-06,-929.656E-09,-6.54585E-06,-1.08288E-06,10.8925E-09
177,1.68029E-12,86.9595E-15,-1.35577E-12,-258.054E-15,946.489E-15,-276.958E-15,-584.094E-15,2.11137E-12,1.52992E-12,304.282E-15,-805.510E-15,2.33543E-12,-342.897E-15,38.8868E-15,965.458E-15,24.3456E-15,-224.652E-15
178,1.62115E-06,-1.13684E-06,-1.85925E-06,1.08450E-06,-983.314E-09,-1.47613E-06,1.30291E-06,2.47163E-06,453.802E-09,-1.66773E-06,-2.22343E-06,2.67723E-06,1.14578E-06,40.9953E-09,-1.54963E-06,-1.92872E-06,501.120E-09
179,1.07899E-06,853.792E-09,-5.64219E-06,1.03597E-06,-5.62946E-06,884.073E-09,-479.079E-09,5.08694E-06,-1.31006E-06,-1.48328E-06,-6.48019E-06,5.17014E-06,3.09118E-06,-1.34314E-06,-6.47040E-06,-1.45999E-06,-184.261E-09
180,828.978E-12,587.771E-12,-1.99662E-09,621.653E-12,-1.82680E-09,625.271E-12,-1.17942E-09,2.08883E-09,303.134E-12,117.590E-12,-1.87040E-09,2.17354E-09,483.226E-12,143.654E-12,-1.73977E-09,146.436E-12,-453.623E-12
181,601.820E-09,-351.126E-09,-1.22036E-06,-299.353E-09,-319.189E-09,-351.126E-09,-1.70207E-06,1.24639E-06,-96.4851E-09,-829.520E-09,-1.49816E-06,1.40168E-06,808.056E-09,-789.695E-09,-804.953E-09,-829.520E-09,-654.643E-09
182,940.744E-09,-201.817E-09,-851.171E-09,-563.281E-09,652.854E-09,-201.817E-09,-1.04631E-06,1.22890E-06,658.893E-09,-220.000E-09,-719.503E-09,1.37840E-06,93.5366E-09,-498.049E-09,437.439E-09,-220.000E-09,-402.427E-09
183,2.73678E-06,-717.081E-09,-2.33699E-06,406.946E-09,1.61276E-06,-2.33699E-06,2.14791E-06,3.55431E-06,1.92217E-06,-734.650E-09,-1.98073E-06,3.90290E-06,264.405E-09,129.986E-09,1.05753E-06,-1.98073E-06,826.120E-09
184,1.99141E-06,1.60283E-06,-6.21955E-06,1.89737E-06,-6.18319E-06,1.66052E-06,175.838E-09,6.17459E-06,17.2572E-09,-281.649E-09,-6.29887E-06,6.31612E-06,2.18775E-06,-55.0808E-09,-6.27090E-06,-237.276E-09,67.6300E-09
185,120.053E-15,17.3196E-15,-240.123E-15,-150.599E-15,28.3280E-15,19.5212E-15,-260.701E-15,254.294E-15,33.0695E-15,-45.9561E-15,-243.989E-15,277.058E-15,85.6251E-15,-175.124E-15,-37.4881E-15,-44.2626E-15,-100.269E-15
186,497.253E-09,-35.6829E-09,-251.189E-09,-189.387E-09,475.981E-09,-76.2128E-09,143.728E-09,516.677E-09,503.876E-09,93.9252E-09,-71.8490E-09,575.725E-09,-175.317E-09,-24.3088E-09,487.513E-09,62.7483E-09,55.2801E-09
187,14.6003E-06,570.509E-09,-10.8047E-06,1.36761E-06,2.42801E-06,570.509E-09,2.82076E-06,16.9789E-06,13.7499E-06,2.95777E-06,-5.79238E-06,19.5423E-06,-3.63844E-06,3.57092E-06,4.38662E-06,2.95777E-06,1.08491E-06
188,203.970E-09,-13.4282E-09,-106.757E-09,-85.8757E-09,183.089E-09,-13.4282E-09,54.8917E-09,217.347E-09,205.237E-09,38.0081E-09,-33.7830E-09,239.020E-09,-69.8208E-09,-17.7208E-09,189.175E-09,38.0081E-09,21.1122E-09
189,690.610E-09,460.390E-09,-2.30772E-06,166.881E-09,-1.81351E-06,489.909E-09,-2.16959E-06,2.22404E-06,-136.102E-09,-313.195E-09,-2.44251E-06,2.30641E-06,963.937E-09,-538.971E-09,-2.06235E-06,-290.488E-09,-834.457E-09
190,704.837E-09,295.235E-09,-2.26654E-06,39.1471E-09,-1.60085E-06,295.235E-09,-2.39292E-06,2.15330E-06,-188.472E-09,-503.551E-09,-2.47415E-06,2.28567E-06,1.05539E-06,-700.541E-09,-1.96208E-06,-503.551E-09,-920.354E-09
191,9.86324E-06,2.86817E-06,-6.40648E-06,5.64623E-06,-2.18947E-06,2.86817E-06,3.83820E-06,10.9942E-06,11.2361E-06,5.85529E-06,-1.27906E-06,12.5152E-06,-5.27078E-06,7.99225E-06,1.96479E-06,5.85529E-06,1.47623E-06
192,415.831E-09,191.247E-09,-771.728E-09,-83.8698E-09,-272.028E-09,191.247E-09,-1.12734E-06,845.210E-09,224.879E-09,52.1223E-09,-688.628E-09,913.508E-09,137.209E-09,-159.506E-09,-304.243E-09,52.1223E-09,-433.592E-09
193,839.000E-09,754.722E-09,-2.95335E-06,786.110E-09,-2.90562E-06,759.876E-09,-830.072E-09,2.88581E-06,-139.018E-09,-203.847E-09,-3.05621E-06,2.91720E-06,1.13303E-06,-179.703E-09,-3.01949E-06,-199.883E-09,-319.259E-09
194,49.0029E-09,34.0836E-09,-103.286E-09,36.6580E-09,-93.9797E-09,37.1221E-09,-70.8520E-09,111.910E-09,26.0408E-09,14.5645E-09,-91.1046E-09,117.145E-09,16.8331E-09,16.5447E-09,-83.9458E-09,16.9018E-09,-27.2508E-09
195,1.01405E-06,470.248E-09,-4.77244E-06,943.914E-09,-4.70327E-06,471.213E-09,-1.10034E-06,4.26802E-06,-1.11697E-06,-1.53528E-06,-5.56811E-06,4.45114E-06,2.74012E-06,-1.17092E-06,-5.51491E-06,-1.53453E-06,-423.207E-09
196,2.16835E-09,330.311E-12,-1.85106E-09,-606.386E-12,1.48054E-09,-226.550E-12,-754.400E-12,2.76333E-09,2.04158E-09,627.703E-12,-1.05027E-09,3.09185E-09,-539.669E-12,-92.8334E-12,1.51249E-09,199.348E-12,-290.154E-12
197,314.869E-15,203.311E-15,-955.659E-15,157.032E-15,-808.913E-15,214.402E-15,-730.946E-15,939.916E-15,-10.1854E-15,-95.9988E-15,-987.515E-15,977.329E-15,364.566E-15,-131.598E-15,-874.633E-15,-87.4671E-15,-281.133E-15
198,40.5047E-12,-724.133E-15,-25.3659E-12,6.86399E-12,15.4612E-12,-7.91048E-12,21.8969E-12,45.6122E-12,39.4736E-12,7.75912E-12,-11.1961E-12,50.6696E-12,-12.0122E-12,13.5961E-12,20.2093E-12,2.23116E-12,8.42187E-12
199,431.442E-09,-349.461E-09,-1.15608E-06,-46.7355E-09,-23.6177E-09,-1.00375E-06,-499.626E-09,1.07298E-06,-287.796E-09,-888.491E-09,-1.50897E-06,1.22117E-06,895.086E-09,-655.625E-09,-637.842E-09,-1.39179E-06,-192.164E-09
200,141.966E-12,18.4387E-12,-132.587E-12,-22.2583E-12,78.7171E-12,-28.6407E-12,-8.94953E-12,191.000E-12,125.254E-12,30.2325E-12,-85.9413E-12,211.195E-12,-23.1817E-12,-1.07296E-12,76.6004E-12,-5.98249E-12,-3.44213E-12
201,1.53501E-06,625.962E-09,-5.63726E-06,1.45625E-06,-5.55849E-06,625.962E-09,463.846E-09,5.20842E-06,-824.769E-09,-1.52404E-06,-6.34190E-06,5.51713E-06,2.89690E-06,-885.358E-09,-6.28131E-06,-1.52404E-06,178.402E-09
202,913.906E-15,3.16061E-15,-682.014E-15,-141.389E-15,485.366E-15,-108.925E-15,1.02959E-15,1.10615E-12,838.612E-15,138.039E-15,-389.019E-15,1.22763E-12,-195.877E-15,26.8470E-15,508.966E-15,51.8190E-15,395.991E-18
203,2.14187E-06,-503.982E-09,-3.85263E-06,1.80836E-06,-3.51912E-06,-503.982E-09,2.03405E-06,4.06114E-06,369.857E-09,-1.66541E-06,-4.24130E-06,4.61115E-06,1.84562E-06,113.314E-09,-3.98475E-06,-1.66541E-06,782.327E-09
204,881.298E-09,500.445E-09,-4.39697E-06,700.667E-09,-4.24278E-06,526.882E-09,-1.59066E-06,3.92633E-06,-1.06163E-06,-1.35460E-06,-5.12184E-06,4.06021E-06,2.51269E-06,-1.20058E-06,-5.00323E-06,-1.33426E-06,-611.794E-09
205,1.04507E-06,899.795E-09,-5.36366E-06,1.02741E-06,-5.35014E-06,903.929E-09,-559.449E-09,4.87566E-06,-1.16849E-06,-1.28024E-06,-6.09828E-06,4.92979E-06,2.84900E-06,-1.18207E-06,-6.08788E-06,-1.27706E-06,-215.173E-09
206,2.57763E-06,541.230E-09,-5.56597E-06,2.22613E-06,-5.21447E-06,541.230E-09,2.74616E-06,5.68913E-06,570.991E-09,-995.467E-09,-5.69331E-06,6.26430E-06,2.03926E-06,300.609E-09,-5.42293E-06,-995.467E-09,1.05621E-06
207,175.931E-09,52.4509E-09,-212.299E-09,-99.5337E-09,63.1660E-09,52.4509E-09,-312.187E-09,269.531E-09,144.610E-09,49.6256E-09,-154.028E-09,298.639E-09,-13.4026E-09,-67.2856E-09,57.8680E-09,49.6256E-09,-120.072E-09
208,647.373E-12,72.7362E-12,-567.708E-12,-177.667E-12,437.103E-12,-107.035E-12,-147.951E-12,827.171E-12,585.903E-12,143.875E-12,-348.775E-12,934.678E-12,-127.001E-12,-48.7430E-12,424.157E-12,5.58965E-12,-56.9044E-12
209,27.7006E-09,17.6824E-09,-55.1762E-09,113.201E-12,-31.3840E-09,21.4776E-09,-72.0040E-09,60.2981E-09,15.6583E-09,7.95198E-09,-48.0931E-09,63.7514E-09,8.16096E-09,-5.56281E-09,-29.7914E-09,10.8714E-09,-27.6938E-09
210,14.8563E-12,-2.01628E-12,-9.25620E-12,-7.17083E-12,13.3468E-12,-2.59216E-12,9.41727E-12,16.9042E-12,13.4955E-12,516.604E-15,-5.05256E-12,18.5481E-12,-2.98652E-12,-3.44843E-12,12.3344E-12,73.6208E-15,3.62203E-12
211,850.650E-09,-618.305E-09,-2.34742E-06,675.221E-09,-2.17199E-06,-618.305E-09,-534.978E-09,2.19955E-06,-565.888E-09,-1.69585E-06,-3.02594E-06,2.46005E-06,1.76256E-06,-700.833E-09,-2.89099E-06,-1.69585E-06,-205.761E-09
212,747.057E-09,308.499E-09,-3.59520E-06,370.884E-09,-3.21902E-06,308.499E-09,-2.23059E-06,3.18941E-06,-890.518E-09,-1.22787E-06,-4.23071E-06,3.34020E-06,2.11637E-06,-1.17988E-06,-3.94135E-06,-1.22787E-06,-857.919E-09
213,246.430E-09,204.866E-09,-601.456E-09,176.105E-09,-533.589E-09,207.324E-09,-428.635E-09,637.419E-09,102.930E-09,70.9582E-09,-549.290E-09,652.220E-09,125.134E-09,48.8339E-09,-497.085E-09,72.8492E-09,-164.860E-09
214,558.281E-09,-347.115E-09,-1.78740E-06,143.191E-09,-1.37231E-06,-347.115E-09,-1.69733E-06,1.60361E-06,-479.918E-09,-1.17638E-06,-2.28429E-06,1.80437E-06,1.31353E-06,-799.218E-09,-1.96499E-06,-1.17638E-06,-652.818E-09
215,881.362E-15,653.642E-15,-2.47883E-12,580.106E-15,-2.19535E-12,671.421E-15,-1.67889E-12,2.50498E-12,133.459E-15,-41.7104E-15,-2.45130E-12,2.58476E-12,786.518E-15,-98.2768E-15,-2.23324E-12,-28.0347E-15,-645.729E-15
216,3.29291E-06,-877.484E-09,-1.46788E-06,-67.4359E-09,2.48286E-06,-1.46788E-06,3.19679E-06,3.46254E-06,3.07967E-06,-128.328E-09,-582.480E-09,3.66215E-06,-789.620E-09,494.786E-09,2.45655E-06,-582.480E-09,1.22953E-06
217,5.14816E-06,-1.17620E-06,-2.89942E-06,635.844E-09,3.33612E-06,-2.89942E-06,5.64373E-06,5.66006E-06,4.57890E-06,-285.995E-09,-1.61154E-06,6.19044E-06,-893.787E-09,1.10789E-06,3.18502E-06,-1.61154E-06,2.17067E-06
218,10.5475E-09,1.49083E-09,-8.55719E-09,-3.96868E-09,7.49587E-09,-46.0222E-12,-7.34313E-09,13.1251E-09,10.1218E-09,3.15515E-09,-4.57409E-09,14.6959E-09,-2.90097E-09,-1.04447E-09,7.77441E-09,1.97296E-09,-2.82428E-09
219,596.007E-09,444.167E-09,-1.74095E-06,159.015E-09,-1.30396E-06,444.167E-09,-1.79432E-06,1.74297E-06,54.1704E-09,-62.6293E-09,-1.74349E-06,1.79766E-06,583.984E-09,-281.977E-09,-1.40734E-06,-62.6293E-09,-690.122E-09
220,3.38586E-12,183.279E-15,-2.78257E-12,444.282E-15,831.956E-15,-489.673E-15,-2.37743E-12,4.37505E-12,3.05829E-12,594.771E-15,-1.68665E-12,4.74495E-12,-655.470E-15,795.543E-15,1.09375E-12,77.1156E-15,-914.395E-15
221,149.363E-09,83.6190E-09,-298.402E-09,87.3601E-09,-260.051E-09,107.271E-09,-235.114E-09,322.673E-09,77.1525E-09,26.5800E-09,-267.283E-09,344.435E-09,54.5167E-09,29.4578E-09,-237.782E-09,44.7738E-09,-90.4286E-09
222,138.458E-15,67.0669E-15,-565.903E-15,59.0863E-15,-513.820E-15,94.3551E-15,-355.607E-15,516.959E-15,-101.405E-15,-156.321E-15,-643.221E-15,541.816E-15,300.316E-15,-162.460E-15,-603.157E-15,-135.330E-15,-136.772E-15
223,270.501E-09,177.661E-09,-579.207E-09,61.2961E-09,-370.002E-09,177.661E-09,-702.890E-09,622.521E-09,132.474E-09,61.0588E-09,-521.147E-09,653.621E-09,109.205E-09,-28.4524E-09,-360.221E-09,61.0588E-09,-270.342E-09
224,70.5708E-12,38.0988E-12,-168.134E-12,39.8426E-12,-145.948E-12,46.6410E-12,-133.973E-12,172.686E-12,19.9788E-12,-4.99965E-12,-163.640E-12,183.619E-12,49.5537E-12,-3.65823E-12,-146.574E-12,1.57126E-12,-51.5281E-12
225,958.022E-09,710.333E-09,-5.35891E-06,931.066E-09,-5.33195E-06,710.333E-09,-765.798E-09,4.76861E-06,-1.39223E-06,-1.58276E-06,-6.25141E-06,4.85918E-06,3.07546E-06,-1.41296E-06,-6.23067E-06,-1.58276E-06,-294.538E-09
226,1.31809E-06,11.8873E-09,-4.31157E-06,1.21348E-06,-4.20696E-06,11.8873E-09,-299.338E-09,3.95846E-06,-706.237E-09,-1.71101E-06,-5.03674E-06,4.33050E-06,2.48466E-06,-786.707E-09,-4.95627E-06,-1.71101E-06,-115.130E-09
227,2.68931E-06,-761.203E-09,-1.08843E-06,-260.321E-09,2.09242E-06,-992.420E-09,2.53204E-06,2.78920E-06,2.55313E-06,-101.109E-09,-352.820E-09,2.90595E-06,-699.735E-09,284.185E-09,2.09399E-06,-278.968E-09,973.860E-09
228,8.23431E-06,-2.66957E-06,-4.09166E-06,440.754E-09,4.96536E-06,-3.93302E-06,9.20971E-06,9.03708E-06,7.18395E-06,-1.20365E-06,-2.29757E-06,9.48152E-06,-1.22758E-06,1.18890E-06,4.66937E-06,-2.17554E-06,3.54220E-06
229,12.3863E-12,7.21532E-12,-26.5803E-12,8.22678E-12,-22.9572E-12,7.75169E-12,-19.5590E-12,28.2794E-12,5.50172E-12,1.52407E-12,-24.4725E-12,29.9743E-12,5.81558E-12,2.30212E-12,-21.6855E-12,1.93666E-12,-7.52269E-12
230,972.274E-09,875.066E-09,-4.35879E-06,928.537E-09,-4.32722E-06,887.234E-09,-675.887E-09,4.06411E-06,-701.010E-09,-775.785E-09,-4.80183E-06,4.10082E-06,2.09287E-06,-734.654E-09,-4.77754E-06,-766.425E-09,-259.956E-09
231,956.684E-09,736.659E-09,-4.35414E-06,806.027E-09,-4.20349E-06,736.659E-09,-1.65527E-06,4.00341E-06,-799.167E-09,-968.417E-09,-4.88442E-06,4.08525E-06,2.21733E-06,-915.056E-09,-4.76853E-06,-968.417E-09,-636.644E-09
232,588.442E-09,67.7634E-09,-778.999E-09,-352.743E-09,162.185E-09,67.7634E-09,-1.19821E-06,938.871E-09,381.804E-09,-18.7172E-09,-670.073E-09,1.05188E-06,102.329E-09,-342.184E-09,53.9150E-09,-18.7172E-09,-460.848E-09
233,2.28362E-06,-325.821E-09,-1.55578E-06,-202.906E-09,2.16071E-06,-1.55578E-06,1.03701E-06,2.62546E-06,1.98857E-06,-18.6951E-09,-964.816E-09,2.95339E-06,-335.020E-09,75.8556E-09,1.89402E-06,-964.816E-09,398.851E-09
234,109.416E-09,-1.36791E-09,-61.5914E-09,-49.8766E-09,97.7008E-09,-1.36791E-09,19.0394E-09,119.070E-09,110.968E-09,25.7495E-09,-20.5763E-09,131.544E-09,-38.7136E-09,-11.5649E-09,101.956E-09,25.7495E-09,7.32285E-09
235,19.7166E-06,-746.830E-09,-15.1350E-06,1.01221E-06,3.56937E-06,-746.830E-09,-32.1865E-06,23.3360E-06,17.3789E-06,1.63787E-06,-9.42993E-06,26.8089E-06,-3.19563E-06,2.99098E-06,4.95803E-06,1.63787E-06,-12.3794E-06
236,15.1230E-06,8.05127E-06,-10.5272E-06,6.92302E-06,-2.32721E-06,8.05127E-06,2.86837E-06,17.7845E-06,18.9295E-06,13.4897E-06,-801.472E-09,19.7310E-06,-10.5392E-06,12.6218E-06,5.50624E-06,13.4897E-06,1.10322E-06
237,23.8019E-09,18.4276E-09,-53.8263E-09,18.1250E-09,-49.2983E-09,19.5765E-09,-35.2232E-09,57.7748E-09,11.6187E-09,7.48455E-09,-48.0953E-09,59.7140E-09,9.66404E-09,7.25179E-09,-44.6123E-09,8.36837E-09,-13.5474E-09
238,5.38295E-06,-1.16176E-06,-3.34304E-06,771.833E-09,3.44936E-06,-3.34304E-06,4.67927E-06,6.15745E-06,4.64735E-06,-387.033E-09,-2.06494E-06,6.71230E-06,-731.793E-09,1.10034E-06,3.15998E-06,-2.06494E-06,1.79972E-06
239,409.710E-15,45.1623E-15,-360.034E-15,-27.9152E-15,162.221E-15,-39.4682E-15,44.9259E-15,559.543E-15,369.876E-15,89.4542E-15,-222.236E-15,592.111E-15,-79.0314E-15,33.2408E-15,179.499E-15,24.3539E-15,17.2792E-15
240,10.9628E-06,-3.20369E-06,-5.45157E-06,5.13953E-06,1.23108E-06,-4.06305E-06,11.5792E-06,11.8631E-06,9.76422E-06,-1.13309E-06,-2.86223E-06,12.6265E-06,-1.92296E-06,5.28476E-06,2.27827E-06,-1.79414E-06,4.45353E-06
241,766.987E-09,662.649E-09,-2.46839E-06,710.225E-09,-2.44846E-06,699.483E-09,-495.241E-09,2.44991E-06,-9.29147E-09,-89.5515E-09,-2.49804E-06,2.48875E-06,865.628E-09,-52.9545E-09,-2.48271E-06,-61.2171E-09,-190.477E-09
242,331.907E-09,287.584E-09,-878.031E-09,256.083E-09,-817.560E-09,302.939E-09,-464.228E-09,914.292E-09,106.156E-09,72.0615E-09,-824.565E-09,930.722E-09,215.449E-09,47.8297E-09,-778.050E-09,83.8726E-09,-178.549E-09
243,311.626E-15,-16.0235E-15,-272.666E-15,-255.192E-15,294.152E-15,-16.0235E-15,-168.202E-15,392.002E-15,252.945E-15,906.857E-18,-196.510E-15,449.455E-15,-19.1137E-15,-183.069E-15,239.504E-15,906.857E-18,-64.6929E-15
244,2.74647E-06,-659.551E-09,-2.07267E-06,103.719E-09,1.98320E-06,-2.07267E-06,2.43953E-06,3.33527E-06,2.12089E-06,-499.125E-09,-1.58614E-06,3.70704E-06,-11.8763E-09,88.0058E-09,1.53376E-06,-1.58614E-06,938.282E-09
245,34.0020E-12,13.1472E-12,-58.1077E-12,2.47168E-12,-26.5774E-12,13.1472E-12,-76.9901E-12,65.6504E-12,19.8331E-12,3.79094E-12,-51.0205E-12,70.8536E-12,9.13215E-12,-4.42096E-12,-26.7664E-12,3.79094E-12,-29.6116E-12
246,894.096E-09,-38.5047E-09,-3.18659E-06,572.354E-09,-2.86485E-06,-38.5047E-09,-1.94163E-06,2.86131E-06,-657.043E-09,-1.37443E-06,-3.79604E-06,3.13899E-06,1.94250E-06,-904.537E-09,-3.54854E-06,-1.37443E-06,-746.779E-09
247,516.051E-09,-223.446E-09,-1.65136E-06,75.2948E-09,-1.21060E-06,-223.446E-09,-1.70182E-06,1.47799E-06,-386.933E-09,-955.777E-09,-2.05417E-06,1.66724E-06,1.13229E-06,-725.977E-09,-1.71513E-06,-955.777E-09,-654.547E-09
248,4.11011E-06,355.318E-09,-4.82514E-06,2.81284E-06,-3.52786E-06,355.318E-09,5.15961E-06,6.03736E-06,2.95410E-06,65.7989E-09,-3.91917E-06,6.87327E-06,299.755E-09,1.95620E-06,-2.92126E-06,65.7989E-09,1.98447E-06
249,5.16246E-09,2.45408E-09,-9.07655E-09,1.51114E-09,-5.98858E-09,3.01743E-09,-10.8704E-09,10.1269E-09,3.12881E-09,1.04544E-09,-7.82427E-09,10.9531E-09,1.21667E-09,320.101E-12,-5.44892E-09,1.47879E-09,-4.18091E-09
250,89.7425E-09,50.1180E-09,-152.762E-09,-24.8008E-09,-38.2192E-09,50.1180E-09,-227.625E-09,174.824E-09,61.5892E-09,31.1089E-09,-124.953E-09,186.542E-09,10.7516E-09,-26.5210E-09,-36.8428E-09,31.1089E-09,-87.5482E-09
251,1.58012E-06,-513.497E-09,-802.308E-09,-538.678E-09,1.47521E-06,-672.218E-09,368.875E-09,1.73919E-06,1.36797E-06,-242.507E-09,-464.669E-09,1.83264E-06,-220.265E-09,-261.877E-09,1.28727E-06,-364.600E-09,141.875E-09
252,301.913E-09,41.0637E-09,-290.199E-09,-171.569E-09,183.283E-09,41.0637E-09,-442.495E-09,406.760E-09,262.689E-09,62.0361E-09,-192.781E-09,455.470E-09,-43.9815E-09,-101.527E-09,171.435E-09,62.0361E-09,-170.190E-09
253,1.79214E-06,-844.583E-09,-2.23459E-06,265.193E-09,-707.635E-09,-844.583E-09,3.64186E-06,2.79106E-06,636.058E-09,-1.39219E-06,-2.46143E-06,3.09748E-06,1.07252E-06,-538.520E-09,-1.28685E-06,-1.39219E-06,1.40071E-06
254,956.502E-09,767.060E-09,-3.80041E-06,804.464E-09,-3.64837E-06,767.060E-09,-1.59330E-06,3.59008E-06,-462.409E-09,-608.134E-09,-4.12157E-06,3.65916E-06,1.73070E-06,-579.362E-09,-4.00462E-06,-608.134E-09,-612.808E-09
255,2.94277E-06,2.05646E-06,-6.25268E-06,2.46946E-06,-6.21807E-06,2.49516E-06,606.922E-09,6.76905E-06,1.54053E-06,858.750E-09,-5.53290E-06,7.07342E-06,1.04454E-06,1.17644E-06,-5.50628E-06,1.19622E-06,233.432E-09
256,23.5991E-12,-1.98997E-12,-14.6570E-12,-3.51145E-12,15.4653E-12,-5.00176E-12,11.0300E-12,26.5875E-12,22.1640E-12,2.48010E-12,-7.26377E-12,29.4278E-12,-5.79344E-12,1.30973E-12,15.9073E-12,163.341E-15,4.24231E-12
257,7.26743E-06,5.40888E-06,-7.82480E-06,6.24977E-06,-6.95369E-06,5.55543E-06,2.14965E-06,11.0017E-06,8.38927E-06,6.95962E-06,-3.22013E-06,11.6094E-06,-4.04292E-06,7.60646E-06,-2.55005E-06,7.07235E-06,826.787E-09
258,7.17165E-06,3.64565E-06,-6.52776E-06,6.61150E-06,-5.96760E-06,3.64565E-06,1.82765E-06,9.51643E-06,7.99140E-06,5.27908E-06,-2.54661E-06,10.5380E-06,-3.57462E-06,7.56051E-06,-2.11572E-06,5.27908E-06,702.944E-09
259,1.67805E-12,336.962E-15,-2.95023E-12,284.410E-15,-2.14299E-12,923.362E-15,-3.06651E-12,3.20125E-12,751.261E-15,-280.345E-15,-2.80895E-12,3.56021E-12,779.346E-15,-320.770E-15,-2.18800E-12,170.731E-15,-1.17943E-12
260,785.070E-09,249.459E-09,-1.49032E-06,-177.468E-09,-527.778E-09,249.459E-09,-2.23046E-06,1.59002E-06,340.945E-09,-71.0627E-09,-1.40935E-06,1.75030E-06,379.823E-09,-399.468E-09,-668.938E-09,-71.0627E-09,-857.869E-09
261,831.662E-09,649.754E-09,-2.87410E-06,588.025E-09,-2.66981E-06,689.095E-09,-1.67010E-06,2.78373E-06,-163.734E-09,-303.663E-09,-3.01432E-06,2.85059E-06,1.16057E-06,-351.147E-09,-2.85717E-06,-273.401E-09,-642.345E-09
262,6.45515E-06,-1.78071E-06,-3.50257E-06,776.570E-09,3.89787E-06,-3.50257E-06,7.50821E-06,7.13449E-06,5.64158E-06,-693.700E-09,-2.01820E-06,7.65978E-06,-976.559E-09,1.27344E-06,3.67444E-06,-2.01820E-06,2.88777E-06
263,2.29835E-06,1.47209E-06,-5.81053E-06,2.19284E-06,-5.75904E-06,1.52611E-06,910.208E-09,5.95712E-06,590.981E-09,-44.6009E-09,-5.64662E-06,6.23760E-06,1.70008E-06,509.820E-09,-5.60701E-06,-3.04859E-09,350.080E-09
264,310.273E-09,-23.2153E-09,-147.073E-09,-111.217E-09,287.604E-09,-36.4028E-09,125.343E-09,318.600E-09,319.432E-09,62.9025E-09,-32.3724E-09,351.804E-09,-116.654E-09,-4.79083E-09,301.994E-09,52.7582E-09,48.2088E-09
265,1.20505E-09,480.265E-12,-2.21112E-09,386.950E-12,-1.54576E-09,633.008E-12,-2.48199E-09,2.41518E-09,623.619E-12,66.0895E-12,-2.00420E-09,2.62782E-09,438.165E-12,-5.69112E-12,-1.49239E-09,183.584E-12,-954.613E-12
266,344.788E-12,123.866E-12,-618.061E-12,143.662E-12,-458.052E-12,164.984E-12,-598.929E-12,676.827E-12,179.026E-12,9.08595E-12,-561.627E-12,740.653E-12,124.505E-12,24.3130E-12,-438.544E-12,40.7150E-12,-230.357E-12
267,991.945E-09,894.211E-09,-4.93421E-06,960.757E-09,-4.91617E-06,907.363E-09,-583.601E-09,4.52166E-06,-995.456E-09,-1.07064E-06,-5.55403E-06,4.55858E-06,2.54004E-06,-1.01945E-06,-5.54016E-06,-1.06052E-06,-224.462E-09
268,637.142E-09,-37.5250E-09,-1.64996E-06,-217.946E-09,-794.875E-09,-37.5250E-09,-2.08080E-06,1.57950E-06,-115.860E-09,-634.834E-09,-1.87517E-06,1.75931E-06,875.288E-09,-773.619E-09,-1.21741E-06,-634.834E-09,-800.309E-09
269,3.27745E-06,2.19991E-06,-5.42112E-06,3.11545E-06,-5.25912E-06,2.19991E-06,988.964E-09,6.32002E-06,2.55356E-06,1.72468E-06,-4.13765E-06,6.69121E-06,-46.8638E-09,2.42894E-06,-4.01303E-06,1.72468E-06,380.371E-09
270,36.7527E-09,6.78083E-09,-35.9335E-09,-25.6747E-09,26.4939E-09,6.78083E-09,-29.8030E-09,50.5016E-09,32.6559E-09,9.60064E-09,-23.2565E-09,55.9125E-09,-6.33334E-09,-15.3652E-09,24.7645E-09,9.60064E-09,-11.4627E-09
271,145.460E-15,17.2843E-15,-426.179E-15,-158.437E-15,-166.012E-15,61.0137E-15,-516.089E-15,399.667E-15,-40.0892E-15,-138.686E-15,-479.812E-15,439.723E-15,219.529E-15,-273.856E-15,-279.683E-15,-105.048E-15,-198.496E-15
272,623.772E-09,530.996E-09,-2.11115E-06,300.966E-09,-1.84292E-06,585.571E-09,-1.60217E-06,2.06933E-06,-71.9336E-09,-143.300E-09,-2.17572E-06,2.10379E-06,796.985E-09,-320.247E-09,-1.96939E-06,-101.319E-09,-616.220E-09
273,479.994E-09,378.299E-09,-1.29854E-06,212.035E-09,-1.03058E-06,378.299E-09,-1.19683E-06,1.33184E-06,115.238E-09,37.0107E-09,-1.25286E-06,1.36810E-06,366.872E-09,-90.8842E-09,-1.04674E-06,37.0107E-09,-460.320E-09
274,2.01415E-12,1.34133E-12,-5.11718E-12,1.35553E-12,-4.71618E-12,1.59894E-12,-2.97807E-12,5.24823E-12,532.978E-15,15.4251E-15,-4.95266E-12,5.48564E-12,1.46809E-12,26.3501E-15,-4.64420E-12,213.588E-15,-1.14541E-12
275,13.4991E-06,-2.53145E-06,-10.2207E-06,1.56719E-06,1.71116E-06,-2.53145E-06,-2.64619E-06,16.1274E-06,10.8148E-06,-1.51637E-06,-7.43119E-06,18.2460E-06,-622.409E-09,1.63643E-06,1.74718E-06,-1.51637E-06,-1.01776E-06
276,757.058E-09,232.160E-09,-2.59145E-06,-26.8318E-09,-1.80756E-06,232.160E-09,-2.81680E-06,2.40168E-06,-342.010E-09,-745.777E-09,-2.91778E-06,2.57577E-06,1.33519E-06,-945.002E-09,-2.31479E-06,-745.777E-09,-1.08339E-06
277,2.11167E-06,-612.940E-09,-750.062E-09,31.7256E-09,1.41591E-06,-698.973E-09,2.39407E-06,2.15087E-06,2.05628E-06,-39.5691E-09,-145.047E-09,2.20133E-06,-623.889E-09,456.327E-09,1.52109E-06,-105.748E-09,920.798E-09
278,1.13161E-06,558.519E-09,-3.98554E-06,932.687E-09,-3.78661E-06,558.519E-09,-1.96744E-06,3.73842E-06,-453.803E-09,-894.642E-09,-4.39007E-06,3.93627E-06,1.91284E-06,-606.821E-09,-4.23705E-06,-894.642E-09,-756.708E-09
279,4.72950E-06,-988.434E-09,-3.26166E-06,3.26907E-06,139.035E-09,-2.92869E-06,538.862E-09,5.74815E-06,3.91466E-06,-483.749E-09,-2.23238E-06,6.14705E-06,-399.511E-09,2.79125E-06,383.535E-09,-1.97626E-06,207.255E-09
280,764.273E-09,-138.100E-09,-1.17928E-06,-415.368E-09,362.180E-12,-138.100E-09,-1.65016E-06,1.32387E-06,268.803E-09,-425.330E-09,-1.22624E-06,1.49504E-06,460.922E-09,-638.614E-09,-318.821E-09,-425.330E-09,-634.676E-09
281,969.136E-09,730.059E-09,-4.88143E-06,846.127E-09,-4.80262E-06,774.259E-09,-1.20969E-06,4.41235E-06,-1.09042E-06,-1.27432E-06,-5.59086E-06,4.50044E-06,2.65187E-06,-1.18504E-06,-5.53023E-06,-1.24032E-06,-465.267E-09
282,12.8705E-06,5.81541E-06,-8.33870E-06,6.40551E-06,-1.87368E-06,5.81541E-06,-2.82248E-06,14.4706E-06,15.8700E-06,10.4430E-06,-444.824E-09,16.3148E-06,-8.62270E-06,10.8969E-06,4.52826E-06,10.4430E-06,-1.08557E-06
283,9.46464E-06,1.66882E-06,-8.73044E-06,5.40845E-06,-4.67425E-06,1.66882E-06,14.9521E-06,12.1719E-06,8.66685E-06,2.67007E-06,-5.32936E-06,13.9962E-06,-2.00252E-06,5.54671E-06,-2.20921E-06,2.67007E-06,5.75082E-06

