********************************************************************************
Field Output Report, written Fri Apr 27 10:07:46 2012

Source 1
---------

   ODB: /home/lcharleux/Documents/Prog/modules/python/abapy/doc/example_code/postproc/indentation.odb
   Step: LOADING0
   Frame: Increment     10: Step Time =    1.000

Loc 1 : Integration point values from source 1

Output sorted by column "Element Label".

Field Output reported at integration points for region: I_SAMPLE.Region_1

         Element             Int           S.S11
           Label              Pt          @Loc 1
-------------------------------------------------
               1               1     1.24864E-03
               1               2    -149.652E-06
               1               3     892.497E-06
               1               4    -239.819E-06
               2               1    -1.00790E-03
               2               2    -1.22918E-03
               2               3    -1.81742E-03
               2               4    -2.03871E-03
               3               1    -5.57126E-03
               3               2    -7.88495E-03
               3               3    -6.14909E-03
               3               4    -7.57448E-03
               4               1    -1.46913E-03
               4               2    -1.96458E-03
               4               3    -1.79589E-03
               4               4    -1.55563E-03
               5               1    -279.052E-06
               5               2    -112.742E-06
               5               3    -237.106E-06
               5               4    -84.3511E-06
               6               1     7.52621E-06
               6               2    -39.8219E-06
               6               3    -15.0218E-06
               6               4    -55.0932E-06
               7               1    -73.1623E-06
               7               2    -498.921E-06
               7               3    -107.325E-06
               7               4    -522.114E-06
               8               1    -104.111E-06
               8               2    -50.8303E-06
               8               3    -99.8494E-06
               8               4    -47.9453E-06
              11               1     27.7503E-06
              11               2     16.7550E-06
              11               3     42.2174E-06
              11               4     25.9816E-06
              12               1    -6.29192E-06
              12               2    -14.0480E-06
              12               3    -19.1944E-06
              12               4    -30.6470E-06
              13               1     125.248E-06
              13               2     148.608E-06
              13               3     233.326E-06
              13               4     267.825E-06
              14               1     73.6469E-06
              14               2     7.39159E-06
              14               3     54.6300E-06
              14               4    -43.1833E-06


