********************************************************************************
Field Output Report, written Mon Oct  3 22:08:28 2016

Source 1
---------

   ODB: /home/lcharleux/Documents/Programmation/Python/Modules/argiope/doc/indentation/workdir/indentation_demo.odb
   Step: LOADING2
   Frame: Increment     50: Step Time =    1.000

Loc 1 : Nodal values from source 1

Output sorted by column "Node Label".

Field Output reported at nodes for part: I_SAMPLE
   Computation algorithm: EXTRAPOLATE_COMPUTE_AVERAGE
   Averaged at nodes
   Averaging regions: ODB_REGIONS

             Node            S.S11            S.S22            S.S33            S.S12
            Label           @Loc 1           @Loc 1           @Loc 1           @Loc 1
--------------------------------------------------------------------------------------
                1  -1.07129002E-02  -1.10697257E-03  -1.10970736E-02  -1.16405194E-03
                2   1.70323311E-03  -1.17592374E-03   1.76077592E-03   4.99977796E-06
                3   1.53477260E-04   4.76298999E-04   6.14299264E-04   4.57499045E-05
                4  -5.99952321E-03   1.93013388E-04   1.74354552E-03   2.24029223E-04
                5   1.42699253E-04   5.29856537E-04   1.42904479E-04  -9.87715521E-06
                6  -8.67434894E-04   5.82756002E-06   2.09115533E-04   2.10419112E-05
                7   6.10285000E-12   2.12569407E-11   5.98787513E-12  -6.43057330E-13
                8  -1.21331244E-11  -3.63646049E-12  -3.81224999E-12  -3.59099252E-13
                9  -1.14825945E-02  -1.58203812E-03  -1.11633614E-02  -1.31162128E-03
               10  -1.21901818E-02  -1.94488955E-03  -1.18923467E-02   2.70235236E-04
               11  -1.02972761E-02  -3.09600797E-03  -1.07055698E-02  -3.53541982E-04
               12  -9.39373206E-03  -2.35730503E-03  -9.27874446E-03  -7.27097649E-05
               13  -8.95924866E-03  -2.36704946E-03  -8.95039923E-03  -3.28638271E-04
               14  -8.49281996E-03  -2.60876794E-03  -8.46305862E-03  -1.10498804E-04
               15  -7.81886466E-03  -2.97152996E-03  -7.77986785E-03  -2.34198815E-04
               16  -6.99738599E-03  -3.29679670E-03  -6.97885174E-03  -5.95496167E-05
               17  -5.99069800E-03  -3.46992724E-03  -5.96590247E-03  -1.02681661E-04
               18  -4.83573973E-03  -3.45662259E-03  -4.84206202E-03   5.53085920E-06
               19  -3.54913599E-03  -3.22613819E-03  -3.54638905E-03  -1.48412964E-05
               20  -2.18254561E-03  -2.82941712E-03  -2.19440786E-03   3.85494022E-05
               21  -7.91613129E-04  -2.31178035E-03  -7.98023073E-04   2.45621177E-05
               22   5.81139058E-04  -1.71968550E-03   5.56461047E-04   4.22022022E-05
               23   1.73860393E-03  -1.20591128E-03   1.76565722E-03   1.37692638E-04
               24   1.81424606E-03  -1.11550500E-03   1.85576756E-03   3.22360895E-04
               25   1.73271378E-03  -1.09907659E-03   1.81842875E-03   4.81475319E-04
               26   1.73526828E-03  -1.01369980E-03   1.86281337E-03   6.24770124E-04
               27   1.72290916E-03  -8.95966194E-04   1.91590446E-03   7.56826310E-04
               28   1.70439621E-03  -7.73701933E-04   1.98444701E-03   8.80508393E-04
               29   1.65826012E-03  -6.45788328E-04   2.05096416E-03   9.90356086E-04
               30   1.56340585E-03  -4.89079335E-04   2.07771640E-03   1.08383759E-03
               31   1.43291685E-03  -2.35976026E-04   2.01932620E-03   1.13800855E-03
               32   1.31352188E-03  -1.86140933E-05   1.96338841E-03   1.17493677E-03
               33   1.17380905E-03   1.72314190E-04   1.90218457E-03   1.17674842E-03
               34   1.04781566E-03   3.08267248E-04   1.82120723E-03   1.15198398E-03
               35   9.07016569E-04   4.26731829E-04   1.72334071E-03   1.12091249E-03
               36   7.75125576E-04   5.39492117E-04   1.63703738E-03   1.07343285E-03
               37   6.58327597E-04   6.55894401E-04   1.56188104E-03   1.01063796E-03
               38   5.60432847E-04   7.52231805E-04   1.48405123E-03   9.31664486E-04
               39   4.80715535E-04   8.17797147E-04   1.40387402E-03   8.48342839E-04
               40   4.10854846E-04   8.61576409E-04   1.32608053E-03   7.65355595E-04
               41   3.49791546E-04   8.92483105E-04   1.25290139E-03   6.83511025E-04
               42   2.96566228E-04   9.13269061E-04   1.18450471E-03   6.01136184E-04
               43   2.56583560E-04   9.14931647E-04   1.11895974E-03   5.20994188E-04
               44   2.23771713E-04   9.03497159E-04   1.05528196E-03   4.45165846E-04
               45   1.99887581E-04   8.81577667E-04   9.95665207E-04   3.78435769E-04
               46   1.83460565E-04   8.50712997E-04   9.39663732E-04   3.15766636E-04
               47   1.72008527E-04   8.10207101E-04   8.85147369E-04   2.58841901E-04
               48   1.63785211E-04   7.61920121E-04   8.31666752E-04   2.06366894E-04
               49   1.58223265E-04   7.07950909E-04   7.79564376E-04   1.59945630E-04
               50   1.56049617E-04   6.49462105E-04   7.31214765E-04   1.20988756E-04
               51   1.53199144E-04   5.93428500E-04   6.88266591E-04   9.15318087E-05
               52   1.52709748E-04   5.35534462E-04   6.48607558E-04   6.60210280E-05
               53   1.02866339E-04   5.06501819E-04   6.75504794E-04   7.89348705E-05
               54   4.49218969E-05   5.35605475E-04   7.56441732E-04   1.16882293E-04
               55  -4.85733435E-05   5.46162017E-04   8.27240874E-04   1.33413050E-04
               56  -1.61175820E-04   5.97310252E-04   9.54699819E-04   1.71507971E-04
               57  -2.76320148E-04   6.01874315E-04   1.05926651E-03   2.07293560E-04
               58  -4.29404492E-04   5.88239869E-04   1.16213155E-03   2.38973022E-04
               59  -6.37635298E-04   5.66254661E-04   1.27853616E-03   2.71692028E-04
               60  -9.26465611E-04   5.25924610E-04   1.40515610E-03   2.92294892E-04
               61  -1.27859344E-03   4.21223871E-04   1.51718990E-03   3.45754815E-04
               62  -1.71231199E-03   2.86829192E-04   1.61049678E-03   4.41161596E-04
               63  -2.31576781E-03   1.54436086E-04   1.68831774E-03   5.39436238E-04
               64  -3.13923601E-03   7.32950866E-05   1.75149133E-03   6.16235309E-04
               65  -4.19352576E-03   6.11643554E-05   1.78145373E-03   5.77187515E-04
               66  -5.27012348E-03   6.98966323E-06   1.76260958E-03   4.06563922E-04
               67  -6.57087658E-03   2.60853616E-04   1.95732806E-03   2.08694677E-04
               68  -7.10586924E-03   3.20997264E-04   2.19359412E-03   2.20638467E-04
               69  -7.66822370E-03   3.93317954E-04   2.47322349E-03   2.00928465E-04
               70  -8.16364214E-03   5.13342558E-04   2.64450395E-03   6.95655835E-05
               71  -8.49440508E-03   5.83202986E-04   2.23724684E-03  -1.72068874E-04
               72  -8.89741257E-03   6.50113914E-04   1.52314804E-03  -3.38227954E-04
               73  -9.24746692E-03   6.65362808E-04   8.77067214E-04  -3.55448952E-04
               74  -9.52704623E-03   6.40984275E-04   3.18599690E-04  -4.23158606E-04
               75  -9.71517619E-03   6.79388060E-04  -1.73161912E-04  -5.17802255E-04
               76  -9.81942192E-03   7.60428724E-04  -5.62450325E-04  -6.66718115E-04
               77  -9.94410086E-03   9.42167128E-04  -7.24741956E-04  -8.04023352E-04
               78  -9.91808716E-03   1.23809348E-03  -5.74222649E-04  -8.99461505E-04
               79  -9.65723209E-03   1.67576107E-03  -3.70068301E-06  -1.01242913E-03
               80  -9.20114666E-03   2.00511143E-03   1.13168894E-03  -1.12830242E-03
               81  -7.90036283E-03   2.51227897E-03   1.59763545E-03  -3.33994511E-03
               82  -4.52650711E-03   7.41574098E-04  -9.56011121E-04  -5.12928655E-03
               83  -2.74189981E-03  -2.71164766E-03  -2.95824697E-03  -5.29382285E-03
               84  -2.60893162E-03  -3.86170996E-03  -2.67815869E-03  -3.80261289E-03
               85  -2.42972281E-03  -2.96214130E-03  -1.65650109E-03  -1.60137319E-03
               86  -2.06289487E-03  -1.82638713E-03  -2.00551515E-03  -9.82597703E-04
               87  -2.08592205E-03  -1.49897044E-03  -2.95031047E-03  -1.07046904E-03
               88  -2.44445144E-03  -1.33267068E-03  -3.85483564E-03  -1.15020853E-03
               89  -2.96251685E-03  -1.24649913E-03  -4.73255478E-03  -1.27161515E-03
               90  -3.59189836E-03  -1.19084097E-03  -5.63582405E-03  -1.41724304E-03
               91  -4.31561843E-03  -1.16266403E-03  -6.63202209E-03  -1.60603179E-03
               92  -5.12432726E-03  -1.15916203E-03  -7.77690392E-03  -1.83977734E-03
               93  -6.04690192E-03  -1.16158254E-03  -9.19148605E-03  -2.11936794E-03
               94  -6.97925687E-03  -1.01952790E-03  -1.10321175E-02  -2.71454849E-03
               95  -8.02777149E-03  -1.60337519E-03  -1.14120040E-02  -3.10774567E-03
               96  -9.85303894E-03  -1.95348030E-03  -1.05128419E-02  -3.05815646E-03
               97   1.98832480E-03  -6.59389712E-04   2.01345282E-03   3.55820594E-05
               98   1.58803980E-03  -2.03121555E-04   1.64423394E-03   2.43638351E-05
               99   1.30886259E-03   7.65524164E-05   1.32397574E-03   1.35847476E-05
              100   1.08264806E-03   2.91621225E-04   1.09279598E-03   2.00130198E-05
              101   8.94196332E-04   4.30471962E-04   9.02538537E-04  -1.63130935E-05
              102   7.40036950E-04   5.17965527E-04   7.54080946E-04  -3.13354349E-07
              103   6.32285955E-04   5.76815451E-04   6.46032975E-04  -7.53997028E-06
              104   5.33120357E-04   6.16230303E-04   5.45190298E-04  -1.05993176E-05
              105   4.53647081E-04   6.34274096E-04   4.64132027E-04  -1.02406530E-05
              106   3.87039006E-04   6.38135243E-04   3.94048693E-04  -1.13039932E-05
              107   3.28630733E-04   6.34621654E-04   3.32514755E-04  -1.33081539E-05
              108   2.67432741E-04   6.23913947E-04   2.71446625E-04  -1.23841855E-05
              109   2.24450181E-04   6.00882748E-04   2.24574367E-04  -1.27823632E-05
              110   1.91275671E-04   5.79617801E-04   1.93312095E-04  -1.03966368E-05
              111   1.63709235E-04   5.52034471E-04   1.63977442E-04  -8.22144102E-06
              112   1.43629179E-04   5.27691154E-04   1.43044133E-04  -1.56087572E-05
              113   1.46332095E-04   5.22854272E-04   1.43682482E-04  -3.10227915E-05
              114   1.48039908E-04   5.18295274E-04   1.44628473E-04  -4.62896278E-05
              115   1.53366753E-04   5.17287292E-04   1.50152715E-04  -5.68200776E-05
              116   1.51456479E-04   5.00535301E-04   1.45832135E-04  -6.96186689E-05
              117   1.53047018E-04   4.88774851E-04   1.46036429E-04  -8.14942323E-05
              118   1.57255156E-04   4.70642699E-04   1.45434955E-04  -9.32851981E-05
              119   1.63145945E-04   4.49565123E-04   1.45715385E-04  -1.05311017E-04
              120   1.64304744E-04   4.32407396E-04   1.47403160E-04  -1.10956571E-04
              121   1.67426435E-04   4.07216314E-04   1.47964660E-04  -1.16832518E-04
              122   1.72138840E-04   3.78137629E-04   1.48116378E-04  -1.21507364E-04
              123   1.76478759E-04   3.50089860E-04   1.49537620E-04  -1.25229737E-04
              124   1.82145057E-04   3.20569146E-04   1.51720655E-04  -1.29307286E-04
              125   1.86126301E-04   2.89374497E-04   1.53429297E-04  -1.26944069E-04
              126   1.89224113E-04   2.56421452E-04   1.55363916E-04  -1.23444886E-04
              127   1.89409926E-04   2.24573334E-04   1.57850722E-04  -1.18128861E-04
              128   1.88060498E-04   1.90562685E-04   1.60336829E-04  -1.08230306E-04
              129   1.84062083E-04   1.54940295E-04   1.62769342E-04  -9.51397087E-05
              130   1.79074006E-04   1.17285366E-04   1.65312056E-04  -7.79702677E-05
              131   1.71253923E-04   7.97974790E-05   1.68063678E-04  -5.73873913E-05
              132   1.58355528E-04   4.49834006E-05   1.71328356E-04  -3.40732149E-05
              133   1.41244993E-04   1.45150307E-05   1.75856709E-04  -1.28636457E-05
              134   1.18918819E-04  -1.29571290E-05   1.79055933E-04   1.11224563E-05
              135   9.39481542E-05  -3.93775699E-05   1.80505071E-04   3.56836354E-05
              136   6.00542771E-05  -6.08988412E-05   1.82138538E-04   5.97037106E-05
              137   1.94440418E-05  -8.39893182E-05   1.89712780E-04   9.41509861E-05
              138  -3.56230230E-05  -9.73368442E-05   1.89195256E-04   1.26519590E-04
              139  -8.98619546E-05  -1.06302832E-04   1.92142470E-04   1.52154564E-04
              140  -1.49957894E-04  -1.10489702E-04   1.95931643E-04   1.77225360E-04
              141  -2.15540276E-04  -1.09138338E-04   1.98860333E-04   2.00692069E-04
              142  -2.80838227E-04  -1.07453117E-04   2.00735929E-04   2.13054402E-04
              143  -3.53635580E-04  -9.54577408E-05   2.03641539E-04   2.19760739E-04
              144  -4.27818683E-04  -8.53353704E-05   2.04915428E-04   2.19238369E-04
              145  -5.07110672E-04  -6.89937078E-05   2.06443248E-04   2.14811822E-04
              146  -5.79747837E-04  -5.24267743E-05   2.09292513E-04   2.04024895E-04
              147  -6.48149115E-04  -3.95568932E-05   2.10717233E-04   1.78223694E-04
              148  -7.34088360E-04  -2.41922717E-05   2.17254128E-04   1.50072039E-04
              149  -7.88480509E-04  -1.25771730E-05   2.11717750E-04   1.04454011E-04
              150  -8.39401386E-04  -2.77974209E-06   2.09842110E-04   5.17859226E-05
              151  -9.60993115E-04   8.18310491E-06   2.33450526E-04   1.47142910E-05
              152  -1.07063609E-03   1.10880756E-05   2.60073284E-04   1.88371778E-05
              153  -1.19131175E-03   1.54961836E-05   2.90406664E-04   3.04000350E-05
              154  -1.33171503E-03   1.47276669E-05   3.27700458E-04   2.41449343E-05
              155  -1.50682218E-03   8.60585897E-06   3.72089620E-04   5.34445098E-05
              156  -1.69125968E-03   1.76943922E-06   4.25140344E-04   2.22777217E-05
              157  -1.90293579E-03   1.76532485E-05   4.79790207E-04   4.90512248E-05
              158  -2.12216284E-03   1.87463193E-05   5.39114350E-04   4.60377887E-05
              159  -2.39060912E-03   3.10399810E-05   6.09853538E-04   2.65917206E-05
              160  -2.71028094E-03   4.55368718E-05   6.91112538E-04   2.85478200E-05
              161  -3.08743445E-03   6.51794981E-05   7.98757072E-04   4.94201813E-05
              162  -3.54295992E-03   7.32697881E-05   9.39092017E-04   1.53085275E-04
              163  -4.05185856E-03   3.69436748E-05   1.11111789E-03   1.53763598E-04
              164  -4.66033584E-03   3.92122820E-05   1.30566198E-03   1.48622916E-04
              165  -5.33584133E-03   1.03606239E-04   1.52306003E-03   1.57674891E-04
              166   1.24269587E-04   5.04112046E-04   1.24177299E-04  -6.86463318E-06
              167   1.02664999E-04   4.61935590E-04   9.95745213E-05  -8.23919345E-06
              168   7.51453044E-05   4.25286125E-04   7.62729251E-05  -1.18997832E-05
              169   6.24359964E-05   3.77473014E-04   5.84434893E-05   8.27014446E-07
              170   4.76255045E-05   3.18215229E-04   4.07854677E-05  -4.64908317E-06
              171   2.45033261E-05   2.63017457E-04   2.57059546E-05  -2.07161647E-05
              172   5.83352357E-06   2.09442704E-04   1.44316637E-05  -1.03717866E-05
              173   3.37857387E-07   1.60593321E-04   7.45992793E-06  -6.77647313E-06
              174  -1.42552972E-06   1.22769037E-04   3.47021137E-06  -7.08159496E-06
              175  -4.35988477E-06   9.21844621E-05   6.53479788E-07  -4.38085181E-06
              176  -4.34206231E-06   6.83230828E-05  -6.19544608E-07  -1.92012976E-06
              177  -2.07722542E-06   4.81244715E-05  -6.54506039E-07  -9.81246330E-07
              178  -9.38308460E-07   3.28934948E-05  -6.86657700E-07  -2.82731730E-06
              179  -2.41836489E-07   2.25265248E-05  -6.07274501E-07  -7.92237074E-07
              180   1.93458902E-07   1.41517448E-05  -5.04555032E-07  -1.54599661E-06
              181  -2.90595096E-07   9.27966994E-06  -5.33867080E-07  -1.17961895E-06
              182  -2.84997896E-07   5.85369799E-06  -4.09116637E-07  -5.27520115E-07
              183  -1.13518752E-07   3.71150486E-06  -3.01216915E-07  -3.33724557E-07
              184  -1.40036448E-07   2.07175140E-06  -1.40366126E-07  -2.62612218E-07
              185  -1.54598752E-07   1.06252810E-06  -3.92101001E-08  -7.63264154E-08
              186  -9.05781690E-08   6.27172994E-07  -2.54623629E-08  -3.68357291E-08
              187  -4.95595032E-08   3.66590086E-07  -1.56512705E-08  -1.54861404E-08
              188  -2.36713689E-08   2.13643389E-07  -1.02319913E-08  -9.82284298E-09
              189  -1.09441860E-08   1.28163350E-07  -7.56114105E-09  -8.99730956E-09
              190  -4.29286517E-09   7.58395942E-08  -5.65702418E-09  -9.68520553E-09
              191  -3.58166674E-09   4.50381634E-08  -3.91009758E-09  -4.04680822E-09
              192  -5.51423462E-10   2.64742006E-08  -1.80424642E-09  -3.23949334E-09
              193  -4.44110693E-10   1.45089976E-08  -8.56326121E-10  -1.99682715E-09
              194  -5.03132480E-10   7.76072540E-09  -5.19416121E-10  -1.42093692E-09
              195  -4.26649077E-10   4.56462157E-09  -3.17069010E-10  -5.17747067E-10
              196  -1.40163298E-10   2.43136355E-09  -1.82012946E-10  -2.78613604E-10
              197  -8.86531890E-11   1.41492462E-09  -1.20482638E-10  -1.39555659E-10
              198  -4.92211549E-11   8.36038516E-10  -7.50069729E-11  -1.14905654E-10
              199  -3.65992098E-11   4.75095741E-10  -4.78719356E-11  -5.60808934E-11
              200  -1.51317431E-11   2.65112154E-10  -2.69544317E-11  -3.06370380E-11
              201  -7.58800574E-12   1.46284290E-10  -1.55764481E-11  -1.14066794E-11
              202  -3.93028969E-12   7.55771973E-11  -5.37788997E-12  -8.80018020E-12
              203  -3.05000036E-12   4.36048905E-11   3.96427926E-13  -2.30175688E-12
              204   2.14263112E-12   2.80716353E-11   3.72009324E-12  -1.16409193E-12
              205   6.89824196E-12   1.86185893E-11   5.53533738E-12  -3.21766095E-12
              206   7.37810334E-12   1.30783231E-11   4.30883541E-12  -4.97360052E-12
              207   6.79149792E-12   5.89850347E-12   2.40917529E-12  -4.33096397E-12
              208   4.46926393E-12  -2.05795016E-13   4.62361920E-13  -1.38600221E-12
              209  -6.28255152E-13  -4.23766274E-12  -1.55341007E-12   1.85103712E-12
              210  -7.09511659E-12  -4.91829884E-12  -3.08128089E-12   3.62520821E-12
              211  -1.12414279E-11  -3.59790518E-12  -3.61337414E-12   2.18684706E-12
              212  -1.69693929E-11  -2.94446867E-13  -2.80898525E-12   8.55314842E-13
              213  -2.70311187E-11   1.28941974E-12  -8.43588383E-13   1.08835987E-12
              214  -4.65445668E-11   1.70879153E-13   3.15908692E-12   8.64648804E-12
              215  -8.28014671E-11  -4.00809464E-12   1.20986398E-11   1.40694721E-11
              216  -1.52581642E-10  -6.63939043E-12   2.77760523E-11   1.15663208E-11
              217  -2.73570722E-10  -1.09111930E-11   5.49120818E-11   2.78365178E-11
              218  -4.72760275E-10  -1.52142951E-11   1.04310560E-10   5.05163550E-11
              219  -8.37223513E-10  -2.52295997E-11   1.88367683E-10   1.01930783E-10
              220  -1.48044732E-09  -4.34207323E-11   3.41248751E-10   1.67686337E-10
              221  -2.60905786E-09  -7.12609693E-11   6.20497875E-10   3.08316678E-10
              222  -4.58343141E-09  -1.22413177E-10   1.09920162E-09   5.39418454E-10
              223  -8.21659185E-09  -1.28695610E-10   1.93976524E-09   8.98330632E-10
              224  -1.48153818E-08  -3.76692899E-10   3.45256868E-09   1.72241965E-09
              225  -2.65397766E-08  -6.46338316E-10   6.21758423E-09   2.86140422E-09
              226  -4.66102179E-08  -1.08011722E-09   1.10066427E-08   5.95544014E-09
              227  -8.19815753E-08  -1.79090831E-09   1.93775804E-08   1.10358211E-08
              228  -1.45265233E-07  -4.29109281E-09   3.40679449E-08   2.21257519E-08
              229  -2.55696165E-07  -7.00612235E-09   6.03376691E-08   3.34087424E-08
              230  -4.42692397E-07  -9.62052216E-09   1.06005942E-07   5.25350643E-08
              231  -7.58568831E-07  -1.82208115E-08   1.83367391E-07   9.64111990E-08
              232  -1.29135424E-06  -3.11798694E-08   3.14734194E-07   1.60029259E-07
              233  -2.18641480E-06  -4.73453525E-08   5.30275145E-07   2.48525197E-07
              234  -3.63332174E-06  -6.30968415E-08   8.89430680E-07   3.81583732E-07
              235  -5.94208586E-06  -7.61409353E-08   1.47560775E-06   6.51838889E-07
              236  -9.44874319E-06  -7.63770345E-08   2.36514643E-06   9.66828679E-07
              237  -1.50930773E-05   4.65580143E-08   3.62062542E-06   1.32396553E-06
              238  -2.37682725E-05   1.74514952E-07   5.63693266E-06   2.29777061E-06
              239  -3.59147052E-05  -2.07455855E-07   8.59160173E-06   4.53123721E-06
              240  -5.55261577E-05   7.52119604E-07   1.27481089E-05   2.57787497E-06
              241  -8.23480223E-05   1.07777453E-06   1.88044469E-05   8.81422784E-06
              242  -1.18812590E-04  -4.73598675E-07   2.78815769E-05   9.95466507E-06
              243  -1.67495076E-04  -1.01481021E-06   4.01297621E-05   1.06724337E-05
              244  -2.27844197E-04  -1.46313209E-06   5.55315892E-05   1.53390774E-05
              245  -2.94944417E-04  -4.20837478E-06   7.31859836E-05   1.56388196E-05
              246  -3.77324963E-04  -1.55239843E-06   9.18184887E-05   6.89621811E-06
              247  -4.69162245E-04   1.37987286E-06   1.13305068E-04   2.45055162E-05
              248  -5.63391484E-04  -1.34594336E-06   1.37921961E-04   2.09130412E-05
              249  -6.67964225E-04  -3.25322276E-06   1.62297947E-04   1.33154881E-05
              250  -7.74395303E-04   2.04402318E-06   1.85623387E-04   1.58548610E-05
              251  -1.08577739E-02  -1.55313872E-03  -1.15058031E-02  -1.66502851E-03
              252  -9.73283686E-03  -1.19490374E-03  -1.18563510E-02  -1.30102842E-03
              253  -8.98396689E-03  -5.17446490E-04  -1.11682629E-02  -1.17011438E-03
              254  -8.22253991E-03  -4.29248263E-04  -9.72498767E-03  -1.02191477E-03
              255  -7.63450982E-03  -2.90452328E-04  -8.59316811E-03  -9.36945260E-04
              256  -7.11779995E-03  -1.73068998E-04  -7.67324725E-03  -9.00331419E-04
              257  -6.68367883E-03  -1.13111077E-04  -6.90805679E-03  -8.92972748E-04
              258  -6.33991510E-03  -1.19458986E-04  -6.23728754E-03  -9.34593379E-04
              259  -6.08851155E-03  -2.49685691E-04  -5.64197544E-03  -1.07116066E-03
              260  -5.93949109E-03  -5.89780044E-04  -5.14050527E-03  -1.38661242E-03
              261  -5.88058867E-03  -1.21354987E-03  -4.95438278E-03  -1.97468535E-03
              262  -5.92602789E-03  -1.55624212E-03  -5.43020479E-03  -2.51398212E-03
              263  -6.04044134E-03  -1.34406891E-03  -5.92519436E-03  -2.27534561E-03
              264  -5.53576043E-03  -1.66818372E-03  -4.94516874E-03  -1.13429013E-03
              265  -5.87845827E-03  -3.00795713E-04  -3.41773964E-03  -1.84193801E-03
              266  -5.07363770E-03   1.10890142E-05  -2.04960350E-03  -2.79553095E-03
              267  -5.91811538E-03   6.86709187E-04  -1.00460066E-03  -2.92864395E-03
              268  -6.78769965E-03   5.88638824E-04  -5.55852137E-04  -2.41147517E-03
              269  -7.58747710E-03   4.91845887E-04  -2.04832191E-04  -1.79641310E-03
              270  -8.20533745E-03   4.40534030E-04   3.00842366E-04  -1.24263740E-03
              271  -8.61406792E-03   4.07390879E-04   9.29023081E-04  -8.30448291E-04
              272  -8.67892429E-03   3.21391155E-04   1.48440618E-03  -5.32576873E-04
              273  -8.58791824E-03   2.88004783E-04   2.06440222E-03  -2.79402942E-04
              274  -8.34574085E-03   2.75274913E-04   2.69354647E-03  -2.24796804E-05
              275  -7.97540508E-03   2.17221474E-04   3.04894149E-03   2.00383656E-04
              276  -7.46753719E-03   1.63914126E-04   3.08122137E-03   3.18251085E-04
              277  -6.86318427E-03   1.12996946E-04   2.84765800E-03   3.37685138E-04
              278  -6.39375579E-03   4.96589055E-05   2.50258925E-03   3.60222679E-04
              279  -5.98758413E-03   1.46872553E-05   2.22364254E-03   3.81856808E-04
              280  -5.60435560E-03   4.16368130E-06   1.98762980E-03   3.95558833E-04
              281  -1.15807056E-02  -2.04635412E-03  -1.21295657E-02  -1.93346335E-04
              282  -1.10029634E-02  -1.82895910E-03  -1.16745997E-02  -3.45224602E-04
              283  -1.05812708E-02  -1.04680855E-03  -1.10462662E-02  -2.32088845E-04
              284  -1.01648793E-02  -6.09838055E-04  -1.04221310E-02  -3.34020006E-04
              285  -9.81394667E-03  -5.52340585E-04  -9.74742603E-03  -4.73798806E-04
              286  -9.56537668E-03  -5.03545278E-04  -9.24468879E-03  -5.91174816E-04
              287  -9.39127058E-03  -5.29642333E-04  -8.83028191E-03  -7.44686055E-04
              288  -9.29047912E-03  -6.67959452E-04  -8.50891322E-03  -9.46842949E-04
              289  -9.27310903E-03  -9.86135332E-04  -8.29490367E-03  -1.22585567E-03
              290  -9.32084583E-03  -1.59592438E-03  -8.28269310E-03  -1.59219222E-03
              291  -9.27251950E-03  -2.39952817E-03  -8.62624217E-03  -1.91662903E-03
              292  -9.02570039E-03  -2.78349197E-03  -8.89905915E-03  -1.98243279E-03
              293  -8.70478153E-03  -2.46532494E-03  -8.42569955E-03  -1.91582378E-03
              294  -8.50815419E-03  -1.73879217E-03  -7.40015134E-03  -1.98524119E-03
              295  -7.82543886E-03  -1.58968789E-03  -6.37165271E-03  -1.90789951E-03
              296  -7.43434345E-03  -3.15515907E-04  -5.25703840E-03  -2.28360691E-03
              297  -6.70263777E-03   9.32676776E-04  -3.72966193E-03  -2.80908588E-03
              298  -6.32844586E-03   1.43564830E-03  -2.17456929E-03  -3.01576639E-03
              299  -6.23224769E-03   1.48406683E-03  -8.25983647E-04  -2.85246037E-03
              300  -6.21873140E-03   1.29289296E-03   4.53646702E-04  -2.41155387E-03
              301  -6.24163356E-03   1.05062581E-03   1.60526065E-03  -1.88496220E-03
              302  -6.19197590E-03   8.29910510E-04   2.57775350E-03  -1.34241686E-03
              303  -6.04280084E-03   7.40866584E-04   3.38676432E-03  -8.03266652E-04
              304  -5.84529713E-03   7.41505995E-04   3.87194194E-03  -3.43109161E-04
              305  -5.49556455E-03   5.75587095E-04   3.64659191E-03  -1.27763014E-05
              306  -5.29476209E-03   4.30551067E-04   3.20799090E-03   2.16038316E-04
              307  -5.05014183E-03   3.13999655E-04   2.84234271E-03   3.73072748E-04
              308  -4.78318613E-03   1.84234668E-04   2.52317963E-03   4.62200667E-04
              309  -4.52880422E-03   9.12826363E-05   2.24931142E-03   5.18040033E-04
              310  -4.28320607E-03   3.62221290E-05   2.01732805E-03   5.49176126E-04
              311  -1.05549805E-02  -2.52427906E-03  -1.06616542E-02  -1.29281951E-04
              312  -1.05950888E-02  -1.89304724E-03  -1.05459476E-02   8.63418754E-05
              313  -1.05215460E-02  -1.42652448E-03  -1.03771780E-02  -5.17420594E-05
              314  -1.04710460E-02  -1.05472840E-03  -1.01980846E-02  -2.16554530E-04
              315  -1.03789987E-02  -9.63643193E-04  -1.00092478E-02  -4.29376174E-04
              316  -1.03239510E-02  -1.01268990E-03  -9.80933197E-03  -6.65456289E-04
              317  -1.02893803E-02  -1.15791871E-03  -9.63169709E-03  -9.20191989E-04
              318  -1.02696018E-02  -1.44048769E-03  -9.49572586E-03  -1.21659029E-03
              319  -1.02433311E-02  -1.91559561E-03  -9.44935158E-03  -1.54496310E-03
              320  -1.01435687E-02  -2.54666712E-03  -9.57111642E-03  -1.82704581E-03
              321  -9.93157458E-03  -3.09534348E-03  -9.72932763E-03  -1.95204699E-03
              322  -9.65722091E-03  -3.32542323E-03  -9.64511931E-03  -1.92080846E-03
              323  -9.44667682E-03  -3.05083813E-03  -9.15254094E-03  -1.79005263E-03
              324  -9.25622322E-03  -2.44777137E-03  -8.24887585E-03  -1.71686104E-03
              325  -9.13355686E-03  -1.69476669E-03  -7.22633675E-03  -1.77871692E-03
              326  -8.70885514E-03  -1.16389641E-03  -6.29252195E-03  -1.77195482E-03
              327  -8.12711194E-03  -1.19925920E-04  -5.17294835E-03  -1.98113453E-03
              328  -7.28783477E-03   1.08263479E-03  -3.66508402E-03  -2.27075862E-03
              329  -6.51894836E-03   1.78177352E-03  -1.91541994E-03  -2.43279012E-03
              330  -5.87703846E-03   2.04157736E-03  -2.17193374E-04  -2.34253751E-03
              331  -5.34866005E-03   2.01124325E-03   1.33417011E-03  -2.04434479E-03
              332  -4.90416074E-03   1.89986441E-03   2.61874497E-03  -1.60441129E-03
              333  -4.52708220E-03   1.88366370E-03   3.59830586E-03  -1.10769458E-03
              334  -4.26643947E-03   1.77393644E-03   3.96485627E-03  -6.37319405E-04
              335  -3.98439541E-03   1.33125624E-03   3.61891184E-03  -2.55460298E-04
              336  -3.79914511E-03   8.89815623E-04   3.16726277E-03   3.43803913E-05
              337  -3.64729040E-03   5.96441503E-04   2.79276678E-03   2.43375820E-04
              338  -3.50321713E-03   3.96834716E-04   2.48005940E-03   3.88418062E-04
              339  -3.35728889E-03   2.47652177E-04   2.21384945E-03   4.84139775E-04
              340  -3.21462168E-03   1.41336379E-04   1.98609917E-03   5.42860536E-04
              341  -9.39042680E-03  -2.29863659E-03  -9.34321620E-03   6.56251650E-05
              342  -9.50732548E-03  -2.07068864E-03  -9.46362969E-03  -6.23053929E-05
              343  -9.67917033E-03  -1.78623002E-03  -9.57496464E-03  -1.22282348E-04
              344  -9.79766715E-03  -1.63085922E-03  -9.62071028E-03  -2.92902405E-04
              345  -9.88969766E-03  -1.58366328E-03  -9.64640640E-03  -5.18348708E-04
              346  -9.95234214E-03  -1.67642045E-03  -9.64410696E-03  -7.53302826E-04
              347  -9.99592710E-03  -1.89951854E-03  -9.61725414E-03  -1.00499822E-03
              348  -1.00091072E-02  -2.24162079E-03  -9.60089080E-03  -1.25560025E-03
              349  -9.96177364E-03  -2.67021032E-03  -9.63626988E-03  -1.46491302E-03
              350  -9.83437430E-03  -3.07377102E-03  -9.67780780E-03  -1.57282967E-03
              351  -9.65405535E-03  -3.30174016E-03  -9.60943196E-03  -1.55800232E-03
              352  -9.46693681E-03  -3.22427647E-03  -9.30727273E-03  -1.44001923E-03
              353  -9.26494319E-03  -2.92277173E-03  -8.74425843E-03  -1.31113885E-03
              354  -8.98225047E-03  -2.57863803E-03  -8.02577008E-03  -1.22830784E-03
              355  -8.54610838E-03  -2.26049079E-03  -7.17974361E-03  -1.14779535E-03
              356  -8.18968005E-03  -1.65351317E-03  -6.17639814E-03  -1.09886669E-03
              357  -7.80228060E-03  -8.08614946E-04  -5.13442094E-03  -1.09466666E-03
              358  -7.28364056E-03   2.83400092E-04  -3.94013058E-03  -1.21217547E-03
              359  -6.54947758E-03   1.34946080E-03  -2.46593799E-03  -1.36563380E-03
              360  -5.79431187E-03   2.07880745E-03  -8.30308883E-04  -1.46142661E-03
              361  -5.08101471E-03   2.48580566E-03   7.46598933E-04  -1.41454430E-03
              362  -4.45003528E-03   2.67558172E-03   2.14728666E-03  -1.23098888E-03
              363  -3.92052066E-03   2.79042358E-03   3.29957716E-03  -9.49441572E-04
              364  -3.53908958E-03   2.59343092E-03   3.77840060E-03  -6.20049308E-04
              365  -3.15000443E-03   1.97505485E-03   3.45980935E-03  -3.38610669E-04
              366  -2.90865917E-03   1.41572009E-03   3.04223970E-03  -8.96401179E-05
              367  -2.73034768E-03   9.95602692E-04   2.68895389E-03   1.07539279E-04
              368  -2.59588310E-03   6.86585263E-04   2.38893041E-03   2.59766530E-04
              369  -2.48953910E-03   4.63112257E-04   2.13317014E-03   3.73038580E-04
              370  -2.39976263E-03   2.97485996E-04   1.91238930E-03   4.54096706E-04
              371  -8.99257697E-03  -2.31284788E-03  -8.95489287E-03  -1.38822914E-04
              372  -9.02182888E-03  -2.23274296E-03  -8.95729661E-03  -1.33699490E-04
              373  -9.05860029E-03  -2.17771903E-03  -8.98301601E-03  -2.87975388E-04
              374  -9.12409741E-03  -2.14377185E-03  -9.04702861E-03  -4.45734710E-04
              375  -9.18263849E-03  -2.19341926E-03  -9.08744149E-03  -6.23105909E-04
              376  -9.22005437E-03  -2.33655120E-03  -9.12395306E-03  -8.28994671E-04
              377  -9.22865700E-03  -2.56751245E-03  -9.15698521E-03  -1.01964117E-03
              378  -9.19131190E-03  -2.85657961E-03  -9.18571465E-03  -1.17000297E-03
              379  -9.09573399E-03  -3.13699967E-03  -9.18032415E-03  -1.24724605E-03
              380  -8.94677546E-03  -3.33352736E-03  -9.09248739E-03  -1.23930722E-03
              381  -8.75942968E-03  -3.38239083E-03  -8.85828026E-03  -1.15294592E-03
              382  -8.54011066E-03  -3.27855581E-03  -8.44966155E-03  -1.02516997E-03
              383  -8.30012280E-03  -3.00545199E-03  -7.86752440E-03  -8.81331565E-04
              384  -8.04844685E-03  -2.56863772E-03  -7.12788990E-03  -7.41742551E-04
              385  -7.76726659E-03  -2.04834878E-03  -6.30676746E-03  -6.24687586E-04
              386  -7.37379072E-03  -1.53618876E-03  -5.45231439E-03  -5.19426132E-04
              387  -6.94440817E-03  -9.05682100E-04  -4.50595561E-03  -4.34107031E-04
              388  -6.51222887E-03  -4.88906007E-05  -3.47158778E-03  -4.04920604E-04
              389  -6.01177989E-03   9.39788122E-04  -2.29024328E-03  -4.60121810E-04
              390  -5.40102459E-03   1.84252695E-03  -9.46100801E-04  -5.44684008E-04
              391  -4.76121530E-03   2.51135207E-03   4.57433925E-04  -5.98095648E-04
              392  -4.13574558E-03   2.95654731E-03   1.79950392E-03  -5.73452155E-04
              393  -3.54940770E-03   3.25115887E-03   3.01749795E-03  -4.71072650E-04
              394  -3.09764571E-03   3.10271140E-03   3.54433758E-03  -3.20052961E-04
              395  -2.63551157E-03   2.41740816E-03   3.23622953E-03  -1.93374988E-04
              396  -2.34325090E-03   1.80127099E-03   2.85581872E-03  -5.78244581E-05
              397  -2.13350169E-03   1.32789556E-03   2.53354013E-03   6.94320333E-05
              398  -1.98087236E-03   9.62930266E-04   2.25816178E-03   1.81688956E-04
              399  -1.86760828E-03   6.81143079E-04   2.02111248E-03   2.75916769E-04
              400  -1.78012426E-03   4.64182434E-04   1.81626168E-03   3.52012081E-04
              401  -8.48272070E-03  -2.61302805E-03  -8.44483729E-03  -9.90883709E-05
              402  -8.48643016E-03  -2.61161523E-03  -8.43958370E-03  -2.34272375E-04
              403  -8.49608518E-03  -2.61186645E-03  -8.44306685E-03  -3.30036273E-04
              404  -8.48974846E-03  -2.65653431E-03  -8.43425747E-03  -4.71737032E-04
              405  -8.47005565E-03  -2.74619693E-03  -8.45238473E-03  -6.24762790E-04
              406  -8.43308400E-03  -2.88155349E-03  -8.46324675E-03  -7.53325876E-04
              407  -8.36008042E-03  -3.05082509E-03  -8.46549310E-03  -8.56204191E-04
              408  -8.24737363E-03  -3.21598002E-03  -8.43271986E-03  -9.05278779E-04
              409  -8.09722580E-03  -3.33521515E-03  -8.33278894E-03  -8.92061566E-04
              410  -7.91776739E-03  -3.36639886E-03  -8.12718552E-03  -8.16851563E-04
              411  -7.71758659E-03  -3.28753330E-03  -7.79904053E-03  -6.95007213E-04
              412  -7.50215352E-03  -3.08530242E-03  -7.34472554E-03  -5.44382725E-04
              413  -7.26522179E-03  -2.78627127E-03  -6.77645300E-03  -3.89604247E-04
              414  -6.98821712E-03  -2.42486107E-03  -6.12306083E-03  -2.47085292E-04
              415  -6.68069161E-03  -1.97293144E-03  -5.38279302E-03  -1.12446134E-04
              416  -6.37022592E-03  -1.40138832E-03  -4.56283148E-03   1.02024696E-05
              417  -6.02356065E-03  -7.44336052E-04  -3.69699439E-03   1.13402341E-04
              418  -5.63354138E-03  -1.04187093E-05  -2.76253489E-03   1.84583143E-04
              419  -5.21306135E-03   8.18369037E-04  -1.74124341E-03   2.05248958E-04
              420  -4.74146428E-03   1.66090939E-03  -6.15468191E-04   1.74836503E-04
              421  -4.21214523E-03   2.40338105E-03   5.91183431E-04   1.26430896E-04
              422  -3.65680945E-03   2.99629895E-03   1.79332425E-03   1.01380021E-04
              423  -3.15186055E-03   3.41109745E-03   2.93086888E-03   1.19011602E-04
              424  -2.66048638E-03   3.22116213E-03   3.31482617E-03   1.02152480E-04
              425  -2.22490588E-03   2.57019489E-03   2.96220509E-03   7.16495852E-05
              426  -1.92581944E-03   1.99475838E-03   2.63047195E-03   8.09748453E-05
              427  -1.70389039E-03   1.52837159E-03   2.34538643E-03   1.20744502E-04
              428  -1.54063664E-03   1.15436607E-03   2.09963485E-03   1.73413238E-04
              429  -1.42098661E-03   8.56590574E-04   1.88693847E-03   2.29713492E-04
              430  -1.33335916E-03   6.20317645E-04   1.70182995E-03   2.83928210E-04
              431  -7.81299360E-03  -2.97891814E-03  -7.79049285E-03  -1.49474348E-04
              432  -7.79768033E-03  -2.99850618E-03  -7.77698774E-03  -1.98437468E-04
              433  -7.77305663E-03  -3.04039754E-03  -7.75371818E-03  -3.08455375E-04
              434  -7.73359044E-03  -3.09468224E-03  -7.74054835E-03  -3.97679163E-04
              435  -7.67004769E-03  -3.16551724E-03  -7.70313619E-03  -4.73725988E-04
              436  -7.57080270E-03  -3.24755628E-03  -7.66136497E-03  -5.36125270E-04
              437  -7.44278589E-03  -3.31697962E-03  -7.58489221E-03  -5.55561157E-04
              438  -7.28489691E-03  -3.35516990E-03  -7.45615317E-03  -5.33873856E-04
              439  -7.10216025E-03  -3.33952717E-03  -7.25405104E-03  -4.69233230E-04
              440  -6.90070400E-03  -3.25520337E-03  -6.96756365E-03  -3.67591827E-04
              441  -6.68363459E-03  -3.09141492E-03  -6.58977684E-03  -2.38721812E-04
              442  -6.45298557E-03  -2.84962961E-03  -6.12273486E-03  -9.46318687E-05
              443  -6.20725937E-03  -2.52723834E-03  -5.57553302E-03   5.52478996E-05
              444  -5.95049933E-03  -2.12003617E-03  -4.95332619E-03   2.06046592E-04
              445  -5.66990022E-03  -1.65493449E-03  -4.27587284E-03   3.46516958E-04
              446  -5.35892881E-03  -1.13369548E-03  -3.54867382E-03   4.73779335E-04
              447  -5.03271446E-03  -5.36616601E-04  -2.75959773E-03   5.83562651E-04
              448  -4.69227415E-03   1.41327619E-04  -1.91158359E-03   6.67686341E-04
              449  -4.32480918E-03   8.72630102E-04  -9.96756135E-04   7.16477633E-04
              450  -3.92378774E-03   1.62946130E-03  -1.45586309E-05   7.26485508E-04
              451  -3.48383770E-03   2.34421249E-03   1.02560793E-03   7.07295490E-04
              452  -3.00422008E-03   2.97062332E-03   2.09678756E-03   6.80078869E-04
              453  -2.61338730E-03   3.35259968E-03   2.92816572E-03   6.15714758E-04
              454  -2.12844904E-03   3.03381425E-03   2.99131824E-03   4.58416063E-04
              455  -1.80776941E-03   2.47663609E-03   2.66539841E-03   3.25886416E-04
              456  -1.55106373E-03   1.99580914E-03   2.38338904E-03   2.46826472E-04
              457  -1.35053904E-03   1.58661883E-03   2.13818019E-03   2.12409432E-04
              458  -1.19685044E-03   1.24374754E-03   1.92460977E-03   2.07979698E-04
              459  -1.08099950E-03   9.59943340E-04   1.73814455E-03   2.21632581E-04
              460  -9.95320384E-04   7.28078885E-04   1.57495809E-03   2.46126961E-04
              461  -6.98066596E-03  -3.30267055E-03  -6.95505226E-03  -6.78756041E-05
              462  -6.94628432E-03  -3.31887603E-03  -6.93444815E-03  -1.43832149E-04
              463  -6.89629000E-03  -3.34174093E-03  -6.90893363E-03  -1.86551537E-04
              464  -6.82568736E-03  -3.37023078E-03  -6.85341749E-03  -2.27570810E-04
              465  -6.72744168E-03  -3.39410733E-03  -6.78727217E-03  -2.48993194E-04
              466  -6.60604332E-03  -3.39832576E-03  -6.67778589E-03  -2.37459462E-04
              467  -6.45492505E-03  -3.37745482E-03  -6.52780943E-03  -2.03885240E-04
              468  -6.28149416E-03  -3.31625389E-03  -6.32258551E-03  -1.39707117E-04
              469  -6.08993974E-03  -3.20640951E-03  -6.05566707E-03  -4.83189142E-05
              470  -5.88270277E-03  -3.04071582E-03  -5.72252553E-03   6.49521826E-05
              471  -5.66286081E-03  -2.81660142E-03  -5.32333087E-03   1.94233260E-04
              472  -5.42990677E-03  -2.53243116E-03  -4.86147171E-03   3.32302181E-04
              473  -5.18525392E-03  -2.18912493E-03  -4.33956552E-03   4.74147993E-04
              474  -4.92413063E-03  -1.79223006E-03  -3.76508711E-03   6.12657866E-04
              475  -4.65265103E-03  -1.33000675E-03  -3.13747837E-03   7.47143931E-04
              476  -4.36796248E-03  -8.09855119E-04  -2.46093585E-03   8.71150405E-04
              477  -4.06702422E-03  -2.36114545E-04  -1.74023164E-03   9.79798962E-04
              478  -3.74792097E-03   3.86052823E-04  -9.68943466E-04   1.06699124E-03
              479  -3.41059081E-03   1.04865257E-03  -1.47387953E-04   1.12799450E-03
              480  -3.05132102E-03   1.72181649E-03   7.25115184E-04   1.15882675E-03
              481  -2.66499026E-03   2.39812257E-03   1.63395237E-03   1.16535509E-03
              482  -2.33332138E-03   2.94488342E-03   2.51596677E-03   1.13510969E-03
              483  -1.97872892E-03   3.01740435E-03   2.86223087E-03   9.66885302E-04
              484  -1.62418326E-03   2.66352855E-03   2.63615698E-03   7.08112726E-04
              485  -1.39076845E-03   2.24235468E-03   2.36643874E-03   5.03864139E-04
              486  -1.19668117E-03   1.86730013E-03   2.13093683E-03   3.75844626E-04
              487  -1.03695260E-03   1.53455918E-03   1.92423130E-03   2.96113547E-04
              488  -9.08421353E-04   1.24346092E-03   1.74230151E-03   2.51565070E-04
              489  -8.07199045E-04   9.92478803E-04   1.58192823E-03   2.31674989E-04
              490  -7.28986925E-04   7.79424037E-04   1.44052680E-03   2.27475452E-04
              491  -5.97265782E-03  -3.47392913E-03  -5.96684543E-03  -3.98053890E-05
              492  -5.93283447E-03  -3.47189326E-03  -5.93241258E-03  -2.79065207E-05
              493  -5.87064400E-03  -3.46585619E-03  -5.87267475E-03  -3.33546268E-05
              494  -5.78148384E-03  -3.44845699E-03  -5.79801807E-03  -1.83956981E-05
              495  -5.67123992E-03  -3.41227464E-03  -5.67976106E-03   1.51899030E-05
              496  -5.53574087E-03  -3.35409376E-03  -5.52992756E-03   6.33057498E-05
              497  -5.38325822E-03  -3.26141808E-03  -5.33137051E-03   1.36291099E-04
              498  -5.21152979E-03  -3.13247321E-03  -5.08527923E-03   2.25938726E-04
              499  -5.02294255E-03  -2.96160067E-03  -4.78842948E-03   3.30980867E-04
              500  -4.82068723E-03  -2.74579227E-03  -4.44009341E-03   4.49142040E-04
              501  -4.60550748E-03  -2.48246896E-03  -4.04064311E-03   5.76105551E-04
              502  -4.38057771E-03  -2.16963701E-03  -3.59088648E-03   7.09476066E-04
              503  -4.14272770E-03  -1.80963648E-03  -3.09649482E-03   8.43634945E-04
              504  -3.89323570E-03  -1.40204048E-03  -2.55847280E-03   9.75842180E-04
              505  -3.63150472E-03  -9.49745125E-04  -1.97913032E-03   1.10187021E-03
              506  -3.36132455E-03  -4.47684375E-04  -1.35745830E-03   1.21933501E-03
              507  -3.07695335E-03   9.60375764E-05  -6.94689457E-04   1.32313929E-03
              508  -2.77916761E-03   6.69064117E-04   7.30578586E-06   1.40852213E-03
              509  -2.46423716E-03   1.27745431E-03   7.55740795E-04   1.47318875E-03
              510  -2.15244316E-03   1.92887988E-03   1.53565430E-03   1.51555752E-03
              511  -1.86377473E-03   2.43462250E-03   2.30662082E-03   1.53002038E-03
              512  -1.60062057E-03   2.66360841E-03   2.67468998E-03   1.36071444E-03
              513  -1.32818415E-03   2.52118055E-03   2.53002625E-03   1.05506158E-03
              514  -1.16952148E-03   2.24291696E-03   2.29077716E-03   7.91600090E-04
              515  -1.01556256E-03   1.95704657E-03   2.07674154E-03   5.93332166E-04
              516  -8.77366867E-04   1.67797692E-03   1.88471831E-03   4.48161212E-04
              517  -7.59193208E-04   1.41893688E-03   1.71356322E-03   3.48016853E-04
              518  -6.60651247E-04   1.18349842E-03   1.56108418E-03   2.81665067E-04
              519  -5.80730964E-04   9.73093673E-04   1.42511621E-03   2.40610563E-04
              520  -5.18058194E-04   7.87242432E-04   1.30348396E-03   2.17199879E-04
              521  -4.81832679E-03  -3.44886421E-03  -4.81376704E-03   4.07398402E-05
              522  -4.77287127E-03  -3.42681655E-03  -4.76643397E-03   7.21403267E-05
              523  -4.70546680E-03  -3.38787772E-03  -4.69435239E-03   1.25267630E-04
              524  -4.61834623E-03  -3.32995597E-03  -4.58276877E-03   1.84746445E-04
              525  -4.50647343E-03  -3.25104594E-03  -4.44663642E-03   2.53547652E-04
              526  -4.37728222E-03  -3.14279250E-03  -4.26677801E-03   3.37903388E-04
              527  -4.22767829E-03  -3.00576235E-03  -4.04965738E-03   4.30701359E-04
              528  -4.06398484E-03  -2.83259805E-03  -3.78838438E-03   5.36769454E-04
              529  -3.88802704E-03  -2.62228842E-03  -3.48357391E-03   6.53103925E-04
              530  -3.69810895E-03  -2.37472937E-03  -3.13772797E-03   7.75333610E-04
              531  -3.49518424E-03  -2.08894094E-03  -2.75091408E-03   9.01641150E-04
              532  -3.27914325E-03  -1.76369678E-03  -2.32504681E-03   1.02964917E-03
              533  -3.05528520E-03  -1.39381131E-03  -1.85844314E-03   1.15970359E-03
              534  -2.82375258E-03  -9.82646947E-04  -1.35392183E-03   1.28700922E-03
              535  -2.57945736E-03  -5.36746869E-04  -8.14541127E-04   1.40670524E-03
              536  -2.31967308E-03  -6.15506942E-05  -2.43661983E-04   1.51632528E-03
              537  -2.05406756E-03   4.51841275E-04   3.65569751E-04   1.61483372E-03
              538  -1.78644224E-03   1.01699308E-03   1.01014005E-03   1.70300517E-03
              539  -1.50878739E-03   1.56446733E-03   1.69057131E-03   1.76335603E-03
              540  -1.26550125E-03   1.96983595E-03   2.29050801E-03   1.76976086E-03
              541  -1.09764072E-03   2.21575517E-03   2.51548016E-03   1.59277034E-03
              542  -9.54733812E-04   2.21129786E-03   2.37598037E-03   1.27895537E-03
              543  -8.70534568E-04   2.05469411E-03   2.16936553E-03   1.00894854E-03
              544  -7.76948058E-04   1.86653854E-03   1.97991799E-03   7.83132738E-04
              545  -6.84824889E-04   1.66914344E-03   1.80837908E-03   6.04756235E-04
              546  -5.97133127E-04   1.47025310E-03   1.65354239E-03   4.67322592E-04
              547  -5.17030421E-04   1.27546559E-03   1.51365844E-03   3.64349922E-04
              548  -4.46945836E-04   1.09078432E-03   1.38751219E-03   2.90397846E-04
              549  -3.87311622E-04   9.19157523E-04   1.27381505E-03   2.39654502E-04
              550  -3.37064383E-04   7.61423027E-04   1.17135979E-03   2.08283425E-04
              551  -3.53250187E-03  -3.21863545E-03  -3.53698852E-03   7.88659963E-05
              552  -3.49283544E-03  -3.18518188E-03  -3.48682026E-03   1.70607818E-04
              553  -3.43213556E-03  -3.12814070E-03  -3.40129388E-03   2.55945401E-04
              554  -3.34930699E-03  -3.04602319E-03  -3.28707136E-03   3.49059410E-04
              555  -3.25170998E-03  -2.93544936E-03  -3.12936329E-03   4.51439904E-04
              556  -3.13461572E-03  -2.79933144E-03  -2.94248643E-03   5.57927182E-04
              557  -3.00212530E-03  -2.63316510E-03  -2.71956436E-03   6.72058435E-04
              558  -2.85169063E-03  -2.43797223E-03  -2.46274099E-03   7.89012527E-04
              559  -2.68639415E-03  -2.20960448E-03  -2.16877740E-03   9.10256756E-04
              560  -2.51153228E-03  -1.94359641E-03  -1.83414924E-03   1.03754806E-03
              561  -2.32840097E-03  -1.63926650E-03  -1.46149646E-03   1.16839213E-03
              562  -2.13502464E-03  -1.30189233E-03  -1.05721841E-03   1.29891909E-03
              563  -1.92322081E-03  -9.40244296E-04  -6.26238761E-04   1.42261188E-03
              564  -1.69942726E-03  -5.48242882E-04  -1.63470424E-04   1.54142128E-03
              565  -1.47146743E-03  -1.12980066E-04   3.38021870E-04   1.65759097E-03
              566  -1.25063467E-03   3.76297627E-04   8.77368613E-04   1.77162560E-03
              567  -1.01394695E-03   8.57676670E-04   1.43321895E-03   1.86560012E-03
              568  -7.77233334E-04   1.22628338E-03   1.98754855E-03   1.94396707E-03
              569  -6.36713230E-04   1.55188632E-03   2.34421622E-03   1.87368353E-03
              570  -5.95599704E-04   1.78504863E-03   2.37666024E-03   1.66783284E-03
              571  -5.68916090E-04   1.84896460E-03   2.19033263E-03   1.36914314E-03
              572  -5.40826877E-04   1.77318708E-03   2.01475970E-03   1.11499708E-03
              573  -5.06294018E-04   1.67323090E-03   1.85231981E-03   8.97652819E-04
              574  -4.62216471E-04   1.55354035E-03   1.70377537E-03   7.15721282E-04
              575  -4.12031281E-04   1.41762919E-03   1.56749459E-03   5.65148424E-04
              576  -3.60778620E-04   1.27411587E-03   1.44288456E-03   4.44180449E-04
              577  -3.11539916E-04   1.12935260E-03   1.32930977E-03   3.49653303E-04
              578  -2.66245712E-04   9.87363979E-04   1.22587895E-03   2.77976156E-04
              579  -2.26354081E-04   8.51645018E-04   1.13179907E-03   2.26020959E-04
              580  -1.93037675E-04   7.25327642E-04   1.04638236E-03   1.90106686E-04
              581  -2.17281189E-03  -2.81694811E-03  -2.16889009E-03   1.27742896E-04
              582  -2.14135018E-03  -2.77991430E-03  -2.12087040E-03   2.39981033E-04
              583  -2.09104223E-03  -2.71649682E-03  -2.04529567E-03   3.59878934E-04
              584  -2.02236278E-03  -2.62505654E-03  -1.93110085E-03   4.78750298E-04
              585  -1.93228037E-03  -2.50550476E-03  -1.78626901E-03   5.97456936E-04
              586  -1.82923989E-03  -2.35339557E-03  -1.59926875E-03   7.22576864E-04
              587  -1.71358301E-03  -2.17162608E-03  -1.37785182E-03   8.51414399E-04
              588  -1.58746913E-03  -1.95958000E-03  -1.12378877E-03   9.84116690E-04
              589  -1.44672999E-03  -1.72021938E-03  -8.41154775E-04   1.11623819E-03
              590  -1.28891878E-03  -1.45235320E-03  -5.30075864E-04   1.24571042E-03
              591  -1.11385121E-03  -1.15496630E-03  -1.90373990E-04   1.37383246E-03
              592  -9.27955960E-04  -8.24362447E-04   1.80950999E-04   1.50236394E-03
              593  -7.48950348E-04  -4.46864549E-04   5.96810889E-04   1.63486635E-03
              594  -5.72371995E-04  -3.49807378E-05   1.03888370E-03   1.76468422E-03
              595  -3.61899758E-04   3.31853866E-04   1.48285937E-03   1.86005619E-03
              596  -1.66451777E-04   6.28925685E-04   1.91472040E-03   1.93980755E-03
              597  -6.54737232E-05   9.46968270E-04   2.19111098E-03   1.90852210E-03
              598  -9.62653721E-05   1.25439861E-03   2.26669014E-03   1.77688105E-03
              599  -1.58890049E-04   1.45939155E-03   2.14019162E-03   1.53945270E-03
              600  -1.94723063E-04   1.48152129E-03   1.98659278E-03   1.32510194E-03
              601  -2.21933442E-04   1.46923121E-03   1.83925417E-03   1.11386669E-03
              602  -2.36944848E-04   1.44310796E-03   1.70497724E-03   9.29192756E-04
              603  -2.32384060E-04   1.38320122E-03   1.57928502E-03   7.62117095E-04
              604  -2.17344612E-04   1.30193832E-03   1.46227446E-03   6.17732352E-04
              605  -1.95862274E-04   1.20736065E-03   1.35415304E-03   4.95681190E-04
              606  -1.70459927E-04   1.10373879E-03   1.25442143E-03   3.94469942E-04
              607  -1.43689278E-04   9.95497918E-04   1.16261409E-03   3.12560907E-04
              608  -1.17668555E-04   8.86667753E-04   1.07830286E-03   2.48079887E-04
              609  -9.39771635E-05   7.80216244E-04   1.00095186E-03   1.98708105E-04
              610  -7.39208408E-05   6.78160577E-04   9.29886359E-04   1.62093929E-04
              611  -7.82528776E-04  -2.29963497E-03  -7.85585318E-04   1.42490127E-04
              612  -7.59202812E-04  -2.25884398E-03  -7.34470959E-04   2.82300316E-04
              613  -7.22153520E-04  -2.19027000E-03  -6.50545640E-04   4.23600257E-04
              614  -6.68977969E-04  -2.09429557E-03  -5.43286675E-04   5.67774812E-04
              615  -6.00101252E-04  -1.97163527E-03  -4.07024811E-04   7.11356523E-04
              616  -5.08456782E-04  -1.82462297E-03  -2.48423894E-04   8.47621763E-04
              617  -4.00526274E-04  -1.64756028E-03  -5.41539775E-05   9.81186749E-04
              618  -2.80105800E-04  -1.43719884E-03   1.82672899E-04   1.11515087E-03
              619  -1.58731098E-04  -1.18363171E-03   4.66080761E-04   1.25771447E-03
              620  -3.42770363E-05  -8.94829631E-04   7.77701556E-04   1.40662177E-03
              621   1.04431914E-04  -5.94743819E-04   1.09017396E-03   1.54836581E-03
              622   2.57978187E-04  -3.17259168E-04   1.41122262E-03   1.65920216E-03
              623   4.13992559E-04  -9.09966402E-05   1.75053393E-03   1.75819593E-03
              624   5.14334999E-04   1.99624526E-04   1.98676018E-03   1.79111760E-03
              625   4.99629590E-04   4.92413121E-04   2.14185123E-03   1.78711128E-03
              626   3.87268112E-04   7.92601786E-04   2.15768651E-03   1.69902516E-03
              627   2.65822688E-04   1.04634243E-03   2.03316403E-03   1.53233437E-03
              628   1.80317089E-04   1.13526767E-03   1.90507621E-03   1.36514369E-03
              629   1.12807618E-04   1.17353164E-03   1.77644077E-03   1.19426928E-03
              630   4.85290184E-05   1.21363718E-03   1.65895582E-03   1.03449228E-03
              631   7.66710855E-06   1.22203317E-03   1.54862169E-03   8.85041256E-04
              632  -1.65401907E-05   1.19973230E-03   1.44335732E-03   7.45021040E-04
              633  -3.05407666E-05   1.16118672E-03   1.34509942E-03   6.20071602E-04
              634  -3.44521468E-05   1.10613718E-03   1.25325238E-03   5.08769008E-04
              635  -3.10215255E-05   1.03819149E-03   1.16751273E-03   4.12251684E-04
              636  -2.28486388E-05   9.61746555E-04   1.08779920E-03   3.30394250E-04
              637  -1.18040734E-05   8.79917468E-04   1.01384288E-03   2.62480258E-04
              638   7.06203764E-07   7.95249711E-04   9.45340144E-04   2.07444551E-04
              639   1.34653483E-05   7.10335444E-04   8.82075401E-04   1.64169265E-04
              640   2.64213577E-05   6.26634923E-04   8.23875249E-04   1.31966503E-04
              641   5.87266928E-04  -1.71201816E-03   5.86610811E-04   1.59565432E-04
              642   6.12820208E-04  -1.67108281E-03   6.36910263E-04   3.03495181E-04
              643   6.49804890E-04  -1.59632799E-03   7.14128779E-04   4.55799251E-04
              644   6.96386327E-04  -1.49417203E-03   8.24768969E-04   6.10244460E-04
              645   7.51388085E-04  -1.36740040E-03   9.59222380E-04   7.68945960E-04
              646   8.09308025E-04  -1.21957250E-03   1.12066616E-03   9.29238973E-04
              647   8.79890111E-04  -1.06083450E-03   1.29622663E-03   1.07530842E-03
              648   9.62332299E-04  -8.98244150E-04   1.48590514E-03   1.19794172E-03
              649   1.05961238E-03  -7.47806160E-04   1.68828899E-03   1.31842552E-03
              650   1.11505692E-03  -5.06770040E-04   1.82510423E-03   1.40259368E-03
              651   1.12026301E-03  -2.60962755E-04   1.94943405E-03   1.47409621E-03
              652   1.04973279E-03  -3.18138154E-05   2.06005503E-03   1.52510789E-03
              653   9.16498888E-04   2.43992705E-04   2.07276549E-03   1.52577157E-03
              654   7.68279249E-04   5.34776365E-04   1.98095525E-03   1.45279209E-03
              655   6.34579163E-04   7.05071492E-04   1.88359793E-03   1.36307953E-03
              656   5.31840022E-04   7.88190519E-04   1.77356426E-03   1.25343213E-03
              657   4.25446080E-04   8.72392964E-04   1.66776986E-03   1.13837235E-03
              658   3.31571326E-04   9.57044307E-04   1.57167332E-03   1.02307217E-03
              659   2.60292989E-04   1.01166847E-03   1.47970614E-03   9.05053166E-04
              660   2.07173071E-04   1.03242090E-03   1.38948835E-03   7.89826736E-04
              661   1.64241559E-04   1.03629811E-03   1.30360643E-03   6.80443947E-04
              662   1.32003363E-04   1.02497078E-03   1.22261897E-03   5.78655046E-04
              663   1.10467838E-04   9.96441813E-04   1.14575506E-03   4.84465476E-04
              664   9.65745203E-05   9.55873053E-04   1.07336789E-03   4.00214281E-04
              665   8.91195668E-05   9.05415684E-04   1.00542116E-03   3.25705128E-04
              666   8.66815608E-05   8.47026298E-04   9.41715087E-04   2.61247013E-04
              667   8.75593250E-05   7.83665862E-04   8.82231630E-04   2.06727651E-04
              668   9.01172461E-05   7.17835501E-04   8.26822245E-04   1.61652832E-04
              669   9.41012695E-05   6.49911759E-04   7.75115390E-04   1.25247767E-04
              670   9.67702726E-05   5.83581976E-04   7.26979692E-04   9.61507903E-05
              671   4.15032118E-04   6.38422673E-04   4.82476345E-04   4.03953127E-05
              672   2.85083544E-04   5.44208917E-04   4.01353114E-04  -3.82983017E-05
              673  -8.13030696E-04  -1.22092912E-04   5.30000136E-04   3.97660857E-04
              674   7.93080777E-04   5.07822202E-04   9.19495244E-04   2.69301527E-04
              675   4.42035031E-04   6.85680017E-04   7.04035338E-04   1.96221154E-04
              676   2.36823020E-04   4.18475072E-04   4.01633559E-04  -4.98539739E-05
              677   8.58317071E-05   3.94928829E-05   3.44860746E-04   5.28398305E-05
              678   3.26860871E-04   6.83246588E-04   6.61532511E-04   1.44003090E-04
              679   1.86780642E-04   2.28558507E-04   3.69807385E-04  -3.29223949E-05
              680   2.80933105E-04   6.13210374E-04   2.87163886E-04  -3.26608133E-05
              681   2.47414806E-04   5.32026170E-04   2.70142715E-04  -7.93284344E-05
              682   6.96200412E-04   5.89368690E-04   1.00689463E-03   4.29202657E-04
              683  -1.87699858E-03  -4.11189394E-05   8.76137638E-04   5.28050179E-04
              684  -2.64465256E-04   2.03146301E-05   5.61867957E-04   2.11130726E-04
              685  -9.52416973E-04  -7.79692273E-05   3.44182161E-04   2.87506526E-04
              686   5.01492177E-04   6.26603549E-04   5.25782583E-04   4.33424757E-05
              687  -2.51402205E-04  -1.19109165E-04   3.23700311E-04   2.34846113E-04
              688   1.28551899E-03   8.83234316E-05   1.39769376E-03   4.08357300E-04
              689   2.27002907E-04   3.58734571E-04   2.50977260E-04  -1.10618726E-04
              690   2.39104760E-04   6.20428356E-04   6.06420450E-04   6.85816412E-05
              691   2.12219340E-04   2.42679613E-04   2.46152980E-04  -9.24443957E-05
              692   3.38599784E-04   6.16119185E-04   4.39953321E-04   6.10321194E-06
              693   1.04231969E-03   3.05344642E-04   1.30422809E-03   5.73085446E-04
              694  -1.48037774E-03  -6.44627580E-05   5.24890726E-04   3.50849703E-04
              695   4.34586022E-04   7.60533265E-04   9.42514045E-04   3.97938857E-04
              696  -7.29228195E-04  -6.36806071E-05   8.00831884E-04   4.57394402E-04
              697   2.12125131E-04   4.81143157E-04   5.15861670E-04   4.97930569E-06
              698   1.07114320E-04   2.12196232E-04   4.79336188E-04   2.99011590E-05
              699   2.76953098E-04   5.90060372E-04   2.93586083E-04  -5.00181050E-05
              700   2.34652965E-04   4.46324324E-04   2.51436024E-04  -1.04111728E-04
              701   5.38895605E-04   6.37166901E-04   6.91736466E-04   1.78385351E-04
              702  -4.98763809E-04  -1.21259771E-04   2.99035630E-04   2.80611130E-04
              703  -2.19146586E-05  -7.56227309E-05   2.66889227E-04   1.29830631E-04
              704   1.68220489E-04   5.49945653E-05   2.57624080E-04  -3.21576294E-06
              705   8.25942843E-04   4.71303531E-04   8.51279474E-04   1.21705525E-04
              706   3.43993830E-04   6.38376514E-04   5.36347274E-04   5.98979350E-05
              707   2.67975149E-04   5.41106216E-04   4.61966818E-04  -1.28714619E-05
              708   6.19011174E-04   6.72327937E-04   1.16018206E-03   6.02680608E-04
              709   5.54523489E-04   6.19022932E-04   6.33016869E-04   1.17740965E-04
              710   3.11117299E-04   7.92011095E-04   8.60380591E-04   3.00552376E-04
              711   1.88242397E-04   3.32708645E-04   4.50516003E-04  -1.43421676E-05
              712   2.05689386E-04   5.83764631E-04   2.08399550E-04  -3.09782590E-05
              713   3.35634686E-04   6.35829638E-04   3.40087863E-04  -8.82691074E-06
              714   3.63127241E-04   6.30869181E-04   3.87659471E-04  -3.41646592E-06
              715  -3.88103435E-05   2.14421540E-04   6.30374299E-04   1.08900589E-04
              716  -9.56601463E-04  -2.03827221E-05   2.79866159E-04   1.65529767E-04
              717  -2.83543067E-03  -4.07665902E-05   1.15424441E-03   5.75958868E-04
              718   2.07440768E-04   5.14733430E-04   2.07469799E-04  -8.85047921E-05
              719   1.57719618E-03  -2.07290490E-04   1.65091315E-03   3.99726938E-04
              720   2.47815857E-04   7.13644433E-04   7.24281825E-04   1.64512690E-04
              721  -4.71589956E-05  -3.42920430E-05   3.81451333E-04   1.44653008E-04
              722  -3.28320632E-04  -1.24908358E-04   4.61856514E-04   2.55926687E-04
              723  -1.37107354E-03  -2.51377078E-05   4.04358434E-04   2.19833193E-04
              724   2.46402225E-04   4.31013352E-04   3.36224097E-04  -7.39692841E-05
              725   1.37460488E-03  -1.47524779E-05   1.61092216E-03   6.63351850E-04
              726   2.15324457E-04   3.40799306E-04   3.92052025E-04  -4.78581460E-05
              727  -2.03246670E-03  -7.02631514E-05   6.91347523E-04   3.19439132E-04
              728  -3.60043312E-04   7.57901944E-05   7.47055456E-04   2.70101882E-04
              729   3.15349258E-04   6.02664426E-04   3.61834012E-04  -2.78870175E-05
              730   2.02429204E-04   5.62118716E-04   5.94287179E-04   4.92382715E-05
              731  -1.40699861E-03  -6.76816271E-05   1.08245655E-03   6.16475591E-04
              732   4.16709488E-04   6.52936054E-04   5.61398221E-04   8.95814883E-05
              733   2.77381740E-04   5.35177882E-04   3.37924022E-04  -6.38088604E-05
              734   8.23654409E-05  -2.66856241E-05   2.49562436E-04   5.81997228E-05
              735   7.75290129E-04   5.25306386E-04   9.83509468E-04   3.59319267E-04
              736  -7.18247087E-04  -1.05649269E-04   3.78353347E-04   3.36598576E-04
              737   2.04480486E-04   4.51792788E-04   2.02008610E-04  -1.13897549E-04
              738   1.89621976E-04   1.34879097E-04   2.20195332E-04  -7.15813003E-05
              739  -6.50249480E-04  -7.57163216E-05   2.63619935E-04   2.47474556E-04
              740   3.87785316E-04   7.15895556E-04   7.37612834E-04   2.17679582E-04
              741   6.30011957E-04   5.81476837E-04   6.38861675E-04   4.58476788E-05
              742   6.84241299E-04   5.56780025E-04   7.39594805E-04   1.35737166E-04
              743  -2.98743311E-04  -1.25765335E-04   2.62660091E-04   2.39114961E-04
              744  -1.34648115E-03  -1.23391495E-04   6.29618415E-04   4.49532527E-04
              745   2.13539533E-04   3.50990798E-04   2.05092714E-04  -1.24895349E-04
              746  -1.48645777E-04  -1.12712558E-04   2.50483223E-04   1.86702004E-04
              747   2.11490842E-04   2.55385123E-04   2.12949963E-04  -1.08526539E-04
              748   3.03600187E-04   6.08444505E-04   5.16205851E-04   3.35763143E-05
              749   5.37464104E-04   6.84707833E-04   9.00296145E-04   3.64494685E-04
              750  -4.73168417E-04  -1.40174438E-04   3.88859364E-04   3.12464370E-04
              751   1.05592690E-03   2.83692294E-04   1.50784862E-03   8.21599446E-04
              752   2.29996091E-04   3.48936126E-04   3.18233564E-04  -8.11849313E-05
              753   1.61731080E-03  -2.52287253E-04   1.79945212E-03   6.45657477E-04
              754   2.56195228E-04   4.56648995E-04   3.06460657E-04  -8.62893066E-05
              755   2.05863675E-04   6.57684170E-04   6.84685714E-04   1.06155647E-04
              756   1.26159959E-03   1.26938306E-04   1.28389930E-03   1.74814151E-04
              757   3.80056008E-04   8.08782293E-04   1.00220856E-03   4.49327752E-04
              758   4.90570033E-04   7.63841032E-04   1.11281476E-03   5.66677365E-04
              759   2.41551781E-04   5.03501971E-04   4.87331941E-04  -8.35053470E-06
              760   2.11416220E-04   5.73215424E-04   2.12569445E-04  -4.83991389E-05
              761  -5.35167463E-04  -8.62311645E-05   5.95020596E-04   3.55637865E-04
              762   2.60379347E-05   5.68933247E-05   4.59159026E-04   9.75646399E-05
              763   4.61120071E-04   6.33650809E-04   4.66736092E-04   1.35476002E-05
              764  -1.73458084E-03  -1.88226513E-05   5.03469026E-04   2.15351931E-04
              765   2.66092247E-04   6.22780295E-04   2.70870543E-04  -7.16232216E-06
              766  -2.69683427E-03  -5.02245312E-05   8.79827479E-04   3.98386619E-04
              767   1.60949116E-04   1.08304812E-04   3.00430518E-04  -8.17520777E-06
              768   2.79179396E-04   6.32407435E-04   5.84746129E-04   7.05099010E-05
              769   1.07448187E-03   2.82898196E-04   1.22113549E-03   4.10577486E-04
              770  -1.25277461E-03  -1.00522200E-04   8.11603502E-04   4.92394436E-04
              771   5.54165337E-04   6.60896767E-04   8.26093252E-04   2.96687125E-04
              772   2.11362727E-04   2.50494020E-04   3.22636421E-04  -6.26821857E-05
              773  -1.02007412E-03  -1.07615204E-04   4.67175763E-04   3.84610728E-04
              774   3.10385949E-04   5.89329400E-04   4.26442042E-04  -1.13852511E-05
              775  -6.81212812E-04   1.71647232E-04   1.00742863E-03   3.28457769E-04
              776   6.45895954E-04   5.91448566E-04   7.77745328E-04   2.12306681E-04
              777   1.90307896E-04   4.76101006E-04   5.47937350E-04   2.07717985E-05
              778   1.42103163E-04   3.62110964E-04   5.25738928E-04   2.22095096E-05
              779  -1.26136793E-03   7.09129336E-06   3.32334108E-04   9.24890846E-05
              780   8.53860634E-04   4.72385786E-04   1.18379097E-03   5.54861326E-04
              781  -2.23522820E-03  -4.59555376E-05   1.24325627E-03   5.53969818E-04
              782  -1.18183531E-03  -6.95485651E-05   4.24913713E-04   3.09387164E-04
              783   4.54007823E-04   6.35440520E-04   4.98087611E-04   4.47558377E-05
              784   7.14754278E-05   3.12571734E-04   5.89011819E-04   5.54367798E-05
              785   1.83298238E-04   1.48640174E-04   2.76814390E-04  -4.28250278E-05
              786   2.02374911E-04   1.81520241E-04   2.18955276E-04  -8.13030783E-05
              787  -1.38252872E-04   2.99029663E-04   7.71943713E-04   1.34307527E-04
              788   2.12585132E-04   3.04408488E-04   2.04768337E-04  -1.19353157E-04
              789   3.91598383E-04   6.55809999E-04   5.67680923E-04   8.81385640E-05
              790   3.41276405E-04   6.22738968E-04   3.78444674E-04  -1.15211469E-05
              791   3.79478326E-04   6.37565157E-04   3.93156690E-04   1.05481467E-06
              792   2.93114281E-04   5.72905585E-04   3.46078188E-04  -4.67078826E-05
              793   2.04974946E-04   4.70188388E-04   1.96112160E-04  -9.80425975E-05
              794   3.76337441E-04   6.31345552E-04   4.61091171E-04   2.67691794E-05
              795   7.39695854E-04   5.86371054E-04   1.29423058E-03   7.12219568E-04
              796  -7.96498265E-04  -3.98883567E-05   2.59600434E-04   2.06033525E-04
              797   9.81275924E-04   3.63987638E-04   1.04575278E-03   2.27512923E-04
              798  -1.30310742E-04  -1.01217032E-04   3.20225867E-04   1.95406144E-04
              799   2.64815113E-04   7.95638887E-04   8.49611708E-04   2.73034384E-04
              800  -8.09752266E-04  -1.28426618E-04   6.30742055E-04   4.11720190E-04
              801   2.92115088E-04   6.15181867E-04   3.09546798E-04  -4.00232857E-05
              802   2.65864539E-04   4.87819547E-04   3.78231169E-04  -5.63830181E-05
              803  -5.19814435E-04  -8.91342206E-05   2.50223966E-04   2.47243966E-04
              804   2.63336318E-04   5.75510669E-04   2.90193217E-04  -5.78176259E-05
              805  -2.01022602E-04  -6.01175925E-05   4.67048667E-04   2.25878219E-04
              806   3.24664652E-05  -2.83594927E-05   2.93834601E-04   9.42568659E-05
              807   1.72733038E-04   3.90842906E-04   5.07795077E-04   6.62335378E-06
              808  -7.96523236E-04  -7.87592144E-05   3.19940940E-04   2.90767755E-04
              809   2.59511326E-05  -6.67303757E-05   2.26813718E-04   9.20466555E-05
              810   2.10521466E-04   3.82035592E-04   1.88276012E-04  -1.17869451E-04
              811   1.30061049E-03   3.51949420E-05   1.64951605E-03   8.28873657E-04
              812   1.18846816E-04   8.06741627E-06   2.81255983E-04   1.66368318E-05
              813   4.92115098E-04   6.33165066E-04   5.86179958E-04   1.05464416E-04
              814   4.63060860E-04   6.67613931E-04   6.62987586E-04   1.65280886E-04
              815   1.89572398E-04   5.65470022E-04   1.85183831E-04  -1.41129922E-05
              816  -9.47289227E-04  -2.69185566E-05   2.49069184E-04   9.23275657E-05
              817   1.77531474E-04   5.27743541E-05   2.10582890E-04  -2.81704397E-05
              818   1.15365037E-04  -6.31446346E-06   2.07295045E-04   1.47303290E-05
              819   4.50436200E-04   7.06676394E-04   7.93934800E-04   2.75458384E-04
              820   3.36824858E-04   6.56196964E-04   5.84069639E-04   9.07843059E-05
              821  -3.94627266E-03  -1.62726821E-04   1.36158639E-03   3.13666678E-04
              822   1.87953294E-04   5.12696861E-04   1.85749581E-04  -8.45688337E-05
              823   2.23384588E-04   3.14178586E-04   2.53278704E-04  -1.06439329E-04
              824   2.59411900E-04   5.43189235E-04   4.98811714E-04   9.02455758E-06
              825   1.91448792E-03  -5.84952650E-04   1.96119421E-03   3.59183672E-04
              826   2.52392667E-04   4.56329406E-04   3.86894884E-04  -5.20442336E-05
              827   1.76661415E-04   2.25518743E-04   4.10205306E-04  -3.14139397E-05
              828  -2.11932510E-03  -4.22590929E-05   6.07508642E-04   1.59116229E-04
              829   2.27865181E-04   3.94211733E-04   2.42959606E-04  -1.13207236E-04
              830   7.71662628E-04   5.04258613E-04   7.86211633E-04   4.41990487E-05
              831   3.07753187E-04   7.05722312E-04   7.03813042E-04   1.68809609E-04
              832   5.14350249E-04   7.16673676E-04   9.65558283E-04   4.24455211E-04
              833   2.44495430E-04   6.00253348E-04   2.46361946E-04  -3.08323542E-05
              834  -1.66971853E-03  -9.78633761E-05   6.96036848E-04   4.61400836E-04
              835   2.24141011E-04   3.58790567E-04   3.52433010E-04  -7.04591512E-05
              836   2.16694898E-04   5.47372038E-04   2.18006287E-04  -7.49066312E-05
              837  -1.08077738E-05  -1.06252926E-04   2.33780622E-04   1.29873908E-04
              838   6.27245172E-04   6.76068303E-04   1.27762707E-03   7.29396066E-04
              839   2.27588200E-04   7.43305485E-04   7.71786028E-04   1.90720457E-04
              840  -1.54154404E-04   1.11072521E-04   6.32902549E-04   1.72188767E-04
              841  -4.05770756E-04  -1.15324176E-04   3.03830137E-04   2.95623438E-04
              842   1.14755159E-04   1.24129554E-04   3.85231222E-04   2.84068574E-05
              843   2.90261698E-04   8.35283485E-04   9.44046129E-04   3.80648882E-04
              844   1.96613430E-04   4.00770368E-04   4.76002635E-04  -1.09578732E-05
              845   2.68880161E-04   5.14482614E-04   3.44902568E-04  -6.43211752E-05
              846   1.81934462E-04   5.64107730E-04   1.87451646E-04  -4.94788546E-05
              847   4.43804020E-04   6.44902349E-04   5.54051425E-04   8.71721713E-05
              848   6.46982051E-04   6.00816682E-04   8.38735374E-04   2.72501784E-04
              849  -1.04537257E-03   1.17604854E-04   1.13874755E-03   3.79626319E-04
              850   9.09180555E-04   4.22546174E-04   1.09690207E-03   4.00341349E-04
              851   5.41963207E-04   6.17670128E-04   5.87864080E-04   8.00396156E-05
              852  -1.01274846E-03  -3.92867805E-05   3.19983345E-04   2.09780119E-04
              853   6.75969641E-04   6.23364875E-04   1.15687493E-03   5.94047364E-04
              854   6.48875794E-05   1.41074299E-04   4.82416275E-04   6.60711812E-05
              855   3.25327273E-04   6.33995747E-04   3.28277965E-04  -6.93138918E-06
              856   8.18153669E-04   4.75606561E-04   8.66901304E-04   1.72464439E-04
              857   2.25111857E-04   5.96916361E-04   2.23696945E-04  -1.45026825E-05
              858  -3.97111377E-04  -1.08089225E-04   2.51782069E-04   2.48863653E-04
              859   3.08012182E-04   5.97964332E-04   4.67058562E-04   8.20901823E-06
              860   6.60651363E-04   5.77464642E-04   7.54095381E-04   1.72967499E-04
              861   1.94926222E-04   5.54244034E-04   1.98415320E-04  -6.22333901E-05
              862  -5.83929068E-05   1.90731844E-05   4.72774467E-04   1.48449122E-04
              863   2.63305206E-04   6.48395275E-04   6.17320125E-04   8.76830964E-05
              864  -5.16154279E-04  -1.65642414E-04   4.24093450E-04   3.27853370E-04
              865   2.28917503E-04   5.59212989E-04   5.58181491E-04   3.22834749E-05
              866  -4.89204889E-04  -1.35652563E-05   7.18747440E-04   3.20665480E-04
              867   2.79766566E-04   5.47480304E-04   4.35947382E-04  -1.93202941E-05
              868  -1.82090167E-04  -1.18636177E-04   2.24170799E-04   1.93511893E-04
              869  -3.32043762E-03   5.74708065E-05   1.04558934E-03   3.06791655E-04
              870   1.96023961E-04   1.76960195E-04   2.48790748E-04  -6.89014996E-05
              871  -2.72837875E-04  -1.01569764E-04   3.72213341E-04   2.28383578E-04
              872   2.34420819E-04   5.85752015E-04   2.41222893E-04  -5.22535920E-05
              873  -1.11609616E-03  -1.27567118E-05   2.87619478E-04   8.16245010E-05
              874  -2.82692956E-03  -2.68785188E-05   7.90903461E-04   1.88131758E-04
              875  -2.25385488E-03  -1.09574248E-04   9.34737734E-04   5.10622980E-04
              876   1.58893457E-03  -2.06663128E-04   1.60234515E-03   1.14323790E-04
              877   3.86243890E-04   6.72049297E-04   6.17450685E-04   1.28578220E-04
              878  -1.56620250E-03  -3.74379852E-08   4.25005099E-04   1.62252807E-04
              879   9.40967875E-04   3.94089235E-04   1.50524895E-03   8.79944884E-04
              880   3.31900053E-04   6.31970761E-04   3.37984238E-04  -1.30818908E-05
              881   4.20927798E-04   6.37194142E-04   4.46812221E-04   1.88289050E-05
              882  -4.33569876E-05   3.62269086E-04   7.49646802E-04   1.13746908E-04
              883   2.23814131E-04   5.13797451E-04   2.30497433E-04  -9.35771968E-05
              884   1.82536489E-04   6.78673328E-04   7.19902222E-04   1.23968231E-04
              885   3.46152665E-04   6.26387948E-04   4.89796221E-04   3.43913271E-05
              886   4.23643913E-04   8.24858143E-04   1.16458989E-03   6.07553753E-04
              887  -5.48333803E-04   3.37509206E-04   1.06866576E-03   2.39739908E-04
              888  -6.18685328E-04  -9.60143952E-05   5.21267939E-04   3.94636358E-04
              889   2.11191189E-04   2.86307390E-04   3.99082870E-04  -3.94528652E-05
              890   1.24547374E-03   1.25966995E-04   1.40454248E-03   4.86019067E-04
              891  -3.12321098E-03  -6.21222352E-06   1.45474065E-03   5.82542911E-04
              892   1.53987785E-03  -1.93254440E-04   1.79535232E-03   7.52508175E-04
              893   2.37616536E-04   4.03158541E-04   3.60178004E-04  -6.69330475E-05
              894   2.13372841E-05  -1.88803097E-05   3.44604952E-04   1.05781823E-04
              895  -8.47312040E-04  -2.10956496E-05   2.41701229E-04   1.33463036E-04
              896  -1.77663495E-03  -9.56307194E-05   9.98434494E-04   5.52900601E-04
              897  -8.26531148E-04  -5.59576511E-05   2.88956944E-04   2.43874907E-04
              898   1.83455573E-04   4.73249151E-04   1.74559507E-04  -1.03312865E-04
              899   5.39618079E-04   6.14183024E-04   5.47040137E-04   1.26612413E-05
              900   6.98223012E-04   5.46634896E-04   7.27045001E-04   9.68389359E-05
              901   6.08566043E-04   5.91434422E-04   6.28444832E-04   6.57939090E-05
              902   4.49751213E-04   6.35287084E-04   4.61251388E-04   1.77843958E-05
              903  -1.84131635E-03  -4.73870205E-05   5.92229888E-04   3.28847585E-04
              904  -2.24588177E-04  -1.35247261E-04   2.79525761E-04   2.41348302E-04
              905   5.04614203E-04   6.71691261E-04   7.69293809E-04   2.49956851E-04
              906  -1.45609770E-03  -4.05559877E-05   4.62292752E-04   2.80389009E-04
              907   8.63281661E-04   4.75841458E-04   1.40316808E-03   7.95737491E-04
              908   3.24285793E-04   6.25987013E-04   3.38729442E-04  -1.69392024E-05
              909   2.55317806E-04   5.01411618E-04   4.45181446E-04  -2.27539422E-05
              910  -6.42621308E-04  -9.05048073E-05   3.47112247E-04   3.27635353E-04
              911   2.21459049E-04   2.79160682E-04   2.87910487E-04  -8.41998553E-05
              912   2.50154204E-04   6.61792292E-04   6.51033246E-04   1.06885651E-04
              913   2.40668480E-04   4.00876394E-04   2.87277042E-04  -1.00140322E-04
              914   2.35036801E-04   3.76069045E-04   2.95165228E-04  -9.49928290E-05
              915   1.95835310E-04   1.85336568E-04   1.86894264E-04  -9.77137097E-05
              916  -1.33146090E-03  -1.07458382E-05   3.64925072E-04   1.40566568E-04
              917  -7.04114209E-04  -1.27758685E-04   4.40791162E-04   3.61933082E-04
              918  -3.17440863E-04  -7.14237249E-05   5.20285335E-04   2.67421710E-04
              919   6.12198550E-04   6.57259545E-04   1.03549892E-03   4.82898264E-04
              920  -1.61812536E-03   1.02750659E-04   1.34753378E-03   4.92586987E-04
              921  -9.59495606E-04  -8.93159013E-05   3.99379991E-04   3.40313185E-04
              922  -2.64374539E-05  -6.46452681E-05   3.18861450E-04   1.36015311E-04
              923  -9.99446260E-04  -3.31252413E-05   9.07545851E-04   4.51144209E-04
              924   3.60156846E-04   6.26974157E-04   4.18740849E-04   5.19348714E-06
              925   3.28180497E-04   6.07705850E-04   3.97491996E-04  -1.38148962E-05
              926  -4.73959626E-05   1.04474835E-04   5.53673715E-04   1.46273276E-04
              927   2.18920351E-04   4.29248234E-04   2.19187234E-04  -1.10591529E-04
              928   1.36096356E-03   1.16582751E-05   1.42909680E-03   3.30482959E-04
              929   2.16670145E-04   8.07179487E-04   8.62295914E-04   2.64451606E-04
              930  -2.90464697E-04   4.59200819E-05   6.36192854E-04   2.37976870E-04
              931   3.90678470E-04   6.40193175E-04   3.96648102E-04  -1.86176521E-07
              932   7.32614542E-04   5.56404761E-04   9.86752566E-04   3.92046990E-04
              933   1.01636583E-03   3.37729056E-04   1.04735023E-03   1.67159538E-04
              934   5.23062423E-04   6.20767823E-04   5.38170163E-04   3.80860365E-05
              935   3.03189561E-04   5.80216642E-04   3.84331535E-04  -3.08794006E-05
              936   3.21706204E-04   8.57729581E-04   1.05186901E-03   4.78868344E-04
              937  -9.75083560E-04  -1.18745535E-04   5.95004356E-04   4.30105487E-04
              938  -1.10947166E-03  -4.57298556E-05   3.64154053E-04   2.53894774E-04
              939   2.29063924E-04   4.92416671E-04   2.38302848E-04  -9.83082136E-05
              940   5.58031723E-04   7.40062795E-04   1.30777585E-03   7.61735835E-04
              941   3.72730225E-04   6.38353929E-04   5.06113807E-04   4.88899022E-05
              942   2.05330594E-04   2.14261352E-04   2.14210741E-04  -9.46658620E-05
              943   1.70975123E-04   9.84401777E-05   2.39470857E-04  -3.63771615E-05
              944   6.91046152E-05  -4.79876326E-05   2.02066018E-04   5.41163317E-05
              945  -8.16497704E-05  -1.27387539E-04   2.76575505E-04   1.69319348E-04
              946  -3.83401988E-04  -1.20894583E-04   4.03932703E-04   2.98703031E-04
              947   4.75375622E-04   6.52817893E-04   6.35590171E-04   1.40342730E-04
              948   9.00482410E-04   4.35056456E-04   1.32049841E-03   6.86976651E-04
              949  -2.09505321E-03  -7.60721305E-05   7.63824908E-04   4.37898561E-04
              950   2.88637093E-04   5.88956580E-04   5.18438173E-04   1.66634381E-05
              951   1.49410928E-03  -1.80633084E-04   1.84493524E-03   8.99285427E-04
              952   1.18315290E-03   1.67313920E-04   1.46677275E-03   6.66100415E-04
              953  -6.41082937E-04  -5.78177642E-05   2.35706946E-04   2.19100330E-04
              954   3.01424559E-04   6.58030738E-04   6.03979744E-04   9.29004163E-05
              955   2.00601819E-04   3.09671945E-04   1.76935020E-04  -1.26943705E-04
              956   3.19582236E-04   7.42105127E-04   7.61473726E-04   2.20087153E-04
              957   3.42156156E-04   7.17800169E-04   7.16523849E-04   1.88151185E-04
              958   2.87565752E-04   6.23351429E-04   2.91212695E-04  -2.07967532E-05
              959   3.69029935E-04   7.76699861E-04   8.85666581E-04   3.41264182E-04
              960   4.25801205E-04   7.24277692E-04   8.13187682E-04   2.86804163E-04
              961  -3.37873847E-04   4.01284662E-04   9.82437748E-04   1.94298758E-04
              962  -1.58181903E-03  -9.28610243E-05   7.57181377E-04   4.73443361E-04
              963   2.98758823E-04   5.98684885E-04   3.28015274E-04  -4.03410013E-05
              964   7.34782428E-04   5.49363845E-04   8.84988520E-04   2.75263243E-04
              965  -1.49772957E-03  -1.00694444E-04   5.91827324E-04   4.21890349E-04
              966   2.17380293E-04   3.08639079E-04   2.29562778E-04  -1.13779766E-04
              967   2.19609501E-04   3.52330593E-04   2.24987467E-04  -1.15943156E-04
              968   6.00347354E-04   6.45503285E-04   9.17206169E-04   3.66338878E-04
              969   2.17729117E-04   5.96808328E-04   6.15408760E-04   5.82934590E-05
              970   1.74910267E-04   1.60048934E-04   3.12505843E-04  -2.82663113E-05
              971   2.58168468E-04   5.85109345E-04   2.66123330E-04  -5.40693909E-05
              972  -6.13207812E-04  -9.15770433E-05   2.86245253E-04   2.67933821E-04
              973   4.28628409E-04   6.72892376E-04   6.37780468E-04   1.37575436E-04
              974   7.48086080E-04   5.63160283E-04   1.17282209E-03   5.85067086E-04
              975   2.01511342E-04   2.50409939E-04   1.80466610E-04  -1.19207871E-04
              976  -1.55913891E-04  -9.25690911E-05   3.81348596E-04   2.08122801E-04
              977   2.22081246E-04   3.92328977E-04   2.23529583E-04  -1.17403397E-04
              978   3.90841218E-04   6.34849537E-04   4.33148613E-04   1.43239376E-05
              979   1.98689580E-04   5.17185428E-04   5.72021934E-04   2.89366017E-05
              980  -8.65356997E-04   8.69146243E-05   9.69401037E-04   3.77024262E-04
              981   6.35067117E-04   5.78358769E-04   6.45345019E-04   2.28437748E-05
              982   1.48498698E-03  -1.11200250E-04   1.60377671E-03   4.76567075E-04
              983   2.87122239E-04   6.75477553E-04   6.42210012E-04   1.11749621E-04
              984  -5.54486585E-04  -7.77752430E-05   2.34915133E-04   2.33832703E-04
              985   2.51942169E-04   4.86190693E-04   2.93762714E-04  -8.14300729E-05
              986  -3.96343006E-04  -1.18382683E-04   2.79058499E-04   2.69363692E-04
              987   2.40478155E-04   5.48597716E-04   2.48157798E-04  -7.57791058E-05
              988   2.54490180E-04   5.07739198E-04   3.55260941E-04  -5.97142644E-05
              989   2.06342572E-03  -7.74485699E-04   2.08614045E-03   2.38107983E-04
              990   7.51848274E-05   6.30854702E-05   4.07734886E-04   6.28586204E-05
              991  -2.74747988E-04  -1.17705749E-04   2.30092453E-04   2.17924084E-04
              992   1.80875970E-04   5.17572509E-04   1.76367190E-04  -7.80048576E-05
              993   4.30368877E-04   7.92641134E-04   1.05029217E-03   4.95120359E-04
              994   3.72207942E-05  -5.42227936E-05   2.57378939E-04   9.10240415E-05
              995   1.42276334E-03  -5.14844396E-05   1.59430574E-03   5.59797452E-04
              996   2.78236927E-04   5.68337913E-04   3.11225129E-04  -5.95152924E-05
              997   1.54909692E-04   4.19301097E-04   5.51212113E-04   2.43048089E-05
              998   9.10274044E-04   4.18736425E-04   9.97747178E-04   2.55853927E-04
              999   2.00269060E-04   3.46448389E-04   1.79767972E-04  -1.27670544E-04
             1000   1.18634477E-03   1.35257273E-04   1.67013099E-03   9.39623453E-04
             1001  -2.29273550E-03  -6.69197907E-05   1.08943577E-03   5.65340277E-04
             1002  -1.15311203E-04  -1.11569665E-04   2.19865789E-04   1.68648519E-04
             1003   1.92502281E-04   7.28525396E-04   7.69650796E-04   1.69228471E-04
             1004   4.77447116E-04   6.34647033E-04   5.47082105E-04   7.44871068E-05
             1005   1.70466665E-04   5.50325552E-04   1.70017156E-04  -3.20139261E-05
             1006  -1.62083283E-03  -6.01246211E-05   8.52553698E-04   5.00666618E-04
             1007   2.28626261E-04   4.91465500E-04   4.97733068E-04  -4.95141830E-06
             1008   2.63065245E-04   5.32891951E-04   3.01472726E-04  -7.36107468E-05
             1009   1.89803395E-04   4.01736412E-04   1.70997271E-04  -1.18181983E-04
             1010   3.17214261E-04   6.18131715E-04   3.40410246E-04  -2.51764832E-05
             1011   2.84479407E-04   5.53238904E-04   3.79375910E-04  -3.45994049E-05
             1012   1.84539938E-03  -4.93065745E-04   2.01999024E-03   7.36687914E-04
             1013   1.58912313E-04   1.74839952E-04   3.56348581E-04  -1.04171995E-05
             1014   1.67879072E-04   2.79574364E-04   4.43983299E-04  -3.61790740E-06
             1015  -3.89616645E-04  -1.34150003E-04   3.46405635E-04   2.85339484E-04
             1016   3.23290005E-04   6.24785316E-04   5.23591763E-04   4.48431747E-05
             1017   1.05803809E-03   2.94633879E-04   1.25899771E-03   4.89005819E-04
             1018   5.52594429E-04   6.27078698E-04   6.67586224E-04   1.50471955E-04
             1019   2.53559643E-04   4.56923182E-04   3.31669551E-04  -7.77532332E-05
             1020   5.62136120E-04   7.20724114E-04   1.18207547E-03   6.33226009E-04
             1021  -5.08436060E-04   1.29536988E-04   8.70696851E-04   2.85505957E-04
             1022   2.42032213E-04   5.95883408E-04   2.46492389E-04  -4.21038640E-05
             1023   2.08948273E-04   2.72261706E-04   3.65810090E-04  -5.08109188E-05
             1024   8.91849049E-04   4.36312024E-04   1.13549177E-03   4.69887163E-04
             1025   1.14186179E-04   4.08675260E-04   5.98529004E-04   4.24560640E-05
             1026   2.34897976E-04   2.81962799E-04   2.70791614E-04  -9.08585571E-05
             1027   1.23218080E-04   1.49400712E-05   2.47445510E-04   1.63769473E-05
             1028  -6.85146486E-04  -7.92866049E-05   6.98955322E-04   3.83609178E-04
             1029   1.81513300E-04   5.42665599E-04   1.79474024E-04  -5.87029317E-05
             1030   1.14394538E-03   2.23450363E-04   1.19562447E-03   2.54744722E-04
             1031  -9.06033674E-04  -3.59903170E-05   2.87117844E-04   2.05734192E-04
             1032   4.06413776E-04   6.94794930E-04   6.98177842E-04   1.91605432E-04
             1033  -1.71260152E-04  -1.18492972E-04   2.88656942E-04   2.06375931E-04
             1034  -1.21042121E-03  -9.95165101E-05   4.75157110E-04   3.28672817E-04
             1035   1.05447683E-03   3.07889539E-04   1.06287643E-03   8.30254430E-05
             1036  -3.24552832E-03  -1.35565842E-05   9.54942196E-04   2.58383283E-04
             1037   1.79876646E-04   9.27818182E-05   1.91458093E-04  -5.50594705E-05
             1038   1.30656525E-03   8.20821733E-05   1.31772913E-03   9.20231250E-05
             1039  -1.22585334E-03  -2.38319535E-05   3.62731516E-04   2.01800925E-04
             1040  -1.11781200E-03  -1.13088608E-04   5.60818764E-04   4.27743013E-04
             1041   7.29728607E-04   5.98272134E-04   1.42916897E-03   8.65067006E-04
             1042   1.93594547E-04   2.05958408E-04   3.17428698E-04  -4.86986100E-05
             1043   2.48728524E-04   5.52800251E-04   5.28669101E-04   1.99643564E-05
             1044  -9.40469676E-04  -1.06182742E-04   7.61287287E-04   4.28809697E-04
             1045   1.09992095E-03   2.61755427E-04   1.20290741E-03   3.44033877E-04
             1046   1.50475607E-04   2.11689585E-05   1.98983558E-04  -1.72903638E-05
             1047   4.59956762E-04   6.33481948E-04   4.66553873E-04   5.93270806E-06
             1048   2.52265425E-04   4.58253839E-04   2.88857322E-04  -8.33312806E-05
             1049  -2.03348557E-03  -1.61680400E-05   5.42718219E-04   1.16513853E-04
             1050   2.40607085E-04   4.55173838E-04   4.43845318E-04  -3.29330578E-05
             1051   2.10239683E-04   2.05700228E-04   2.47942109E-04  -8.18511908E-05
             1052   1.69031293E-04   1.02598591E-04   2.67499941E-04  -2.56290732E-05
             1053  -2.52803252E-03  -1.29023983E-05   6.87448541E-04   1.50079140E-04
             1054   5.05436794E-04   6.28938433E-04   5.63914655E-04   7.87142926E-05
             1055   1.01484684E-03   3.26623762E-04   1.37280463E-03   6.78187818E-04
             1056  -3.90233472E-04  -4.40697186E-05   6.16275705E-04   2.95329752E-04
             1057   4.86736506E-04   7.88686448E-04   1.23204454E-03   6.82558166E-04
             1058   1.75822875E-04   4.56110138E-04   5.69642754E-04   1.99818605E-05
             1059   4.95137705E-04   7.42424862E-04   1.02184631E-03   4.81417112E-04
             1060   2.51361256E-04   6.07295078E-04   5.69905969E-04   4.60890187E-05
             1061  -4.41813427E-05   2.20188267E-05   4.10693930E-04   1.39429671E-04
             1062   2.11910199E-04   5.69725467E-04   2.14706772E-04  -4.96561879E-05
             1063   2.18767003E-04   4.07324842E-04   4.53517801E-04  -2.16434291E-05
             1064   3.71685863E-04   8.44218885E-04   1.10463810E-03   5.43167582E-04
             1065   2.10729253E-04   5.80291089E-04   2.12322848E-04  -3.92544680E-05
             1066   2.50276935E-04   8.53909762E-04   9.54142422E-04   3.61818355E-04
             1067  -8.50640587E-04  -1.10081797E-04   4.20843455E-04   3.60374281E-04
             1068  -1.28227624E-03  -1.08774111E-05   3.27206391E-04   6.58145655E-05
             1069   1.08386052E-03   2.46631505E-04   1.66078308E-03   9.86876199E-04
             1070   3.32647847E-04   8.15065345E-04   9.45176405E-04   3.83303530E-04
             1071  -5.52449683E-06  -9.36293582E-05   2.14995511E-04   1.09840308E-04
             1072   1.84669712E-04   6.10996620E-04   6.60648395E-04   8.22267684E-05
             1073   2.12545070E-04   4.80828050E-04   2.13415828E-04  -1.02718695E-04
             1074  -3.88329593E-03  -1.80497182E-08   1.14762632E-03   2.36610431E-04
             1075   2.92296696E-04   7.67551246E-04   8.03758274E-04   2.46580807E-04
             1076   3.92582413E-04   6.40026759E-04   3.97713855E-04   1.67289477E-06
             1077  -2.48641536E-05   4.72703774E-04   7.13625574E-04   8.75038822E-05
             1078   5.26080141E-04   6.50614791E-04   7.19570788E-04   1.99254777E-04
             1079   3.84277344E-04   6.28586800E-04   4.87833197E-04   3.95656607E-05
             1080  -9.12957359E-04  -1.20556244E-04   4.98649024E-04   3.92702146E-04
             1081   6.08008646E-04   5.95563441E-04   6.72021590E-04   1.22751153E-04
             1082   1.43167636E-04   6.37889607E-05   2.78201594E-04   6.12528402E-06
             1083   1.27148029E-04   5.10330028E-05   3.08733550E-04   2.63545444E-05
             1084   2.69539363E-04   4.86592500E-04   4.06114093E-04  -3.96950272E-05
             1085   1.96850888E-04   3.42722546E-04   4.25335544E-04  -3.44649998E-05
             1086  -3.99148645E-04  -1.04054030E-04   2.28959892E-04   2.33396655E-04
             1087   4.80313902E-04   6.90685061E-04   7.87866535E-04   2.70127988E-04
             1088  -7.60812778E-04  -2.44092280E-05   2.34923544E-04   1.89454411E-04
             1089  -2.57760868E-04   2.05510267E-04   8.02339113E-04   1.95930785E-04
             1090   2.01224140E-03  -6.95897848E-04   2.07838975E-03   5.01843868E-04
             1091  -1.79074041E-03  -3.30194848E-06   4.74066561E-04   1.00412886E-04
             1092   3.25919391E-04   6.14012242E-04   4.78379079E-04   1.98126618E-05
             1093   1.92499923E-04   4.59841889E-04   5.10938873E-04   1.22351194E-05
             1094   2.70700984E-04   6.19880913E-04   2.70878576E-04  -6.62769935E-06
             1095   2.51273857E-04   5.48173790E-04   2.69601354E-04  -7.46248552E-05
             1096   3.61271785E-04   6.64023857E-04   5.98712417E-04   1.06460408E-04
             1097  -3.12391116E-04  -1.27138977E-04   3.01767868E-04   2.57211213E-04
             1098   2.43997027E-04   6.06434303E-04   2.46108830E-04  -2.18944133E-05
             1099   1.12990325E-04   3.00811080E-04   5.34206105E-04   3.30582734E-05
             1100   9.18171369E-04   4.14284354E-04   1.05305016E-03   3.28697206E-04
             1101   9.32508774E-05   1.37095863E-04   4.36775852E-04   4.48726423E-05
             1102  -1.64115115E-03  -3.61166240E-05   5.18145680E-04   2.91165110E-04
             1103   5.04479976E-04   6.37746765E-04   6.22776686E-04   1.30184606E-04
             1104   2.33273040E-05   2.15547669E-04   5.77995437E-04   8.41226429E-05
             1105   2.27431185E-04   3.84086772E-04   3.95784504E-04  -5.57296808E-05
             1106   2.19239344E-04   3.05286609E-04   3.34872166E-04  -6.88969594E-05
             1107  -2.83161830E-03  -6.91272289E-05   9.97092575E-04   4.60904819E-04
             1108  -1.17304455E-03   2.04000637E-04   1.32336665E-03   3.71442351E-04
             1109  -2.48231413E-03  -4.59018775E-05   7.75191002E-04   3.27679154E-04
             1110   4.68951243E-04   7.23904988E-04   8.91144620E-04   3.56746081E-04
             1111   1.92901673E-04   2.81204324E-04   4.14848910E-04  -1.50080250E-05
             1112   1.91235449E-04   5.74811129E-04   1.90750303E-04  -9.97810821E-06
             1113  -2.09431426E-04   4.43783356E-04   9.14597185E-04   1.55738628E-04
             1114   2.66363902E-04   6.93526759E-04   6.73292088E-04   1.28466985E-04
             1115   8.29568235E-05  -8.26992164E-06   2.87715753E-04   5.37022424E-05
             1116   1.75263413E-04   5.06671669E-04   5.94458601E-04   3.78948680E-05
             1117   1.60654890E-04   4.30743930E-05   2.28742923E-04  -1.41601549E-05
             1118  -1.25962158E-03  -9.56496151E-05   5.21593844E-04   3.95485753E-04
             1119   2.22945353E-04   4.64437471E-04   2.29427096E-04  -1.06804953E-04
             1120   6.99091586E-04   5.71436249E-04   8.67414405E-04   2.76990788E-04
             1121   2.13666266E-04   5.30821388E-04   2.13042367E-04  -8.00593552E-05
             1122  -1.99504037E-04  -1.10962043E-04   3.47790512E-04   2.20538815E-04
             1123   1.66443235E-04   3.39462829E-04   4.81568975E-04   9.13371196E-07
             1124   7.48685095E-04   5.30144898E-04   8.44070513E-04   2.08702928E-04
             1125  -2.40680783E-05  -6.81296879E-05   2.40533278E-04   1.17032636E-04
             1126   7.85021286E-04   5.47908538E-04   1.29834167E-03   7.03430327E-04
             1127   1.17831049E-03   1.60046562E-04   1.53585547E-03   7.66042154E-04
             1128   1.08265289E-04  -4.47070961E-05   1.96140798E-04   3.44328873E-05
             1129  -1.79780775E-03  -7.03124679E-05   6.49086782E-04   4.06414765E-04
             1130  -6.59652927E-04  -1.01384183E-04   3.23272630E-04   2.99859443E-04
             1131  -1.18697120E-03  -1.22025078E-04   6.90289249E-04   4.65722929E-04
             1132   1.47813500E-03  -1.02169186E-04   1.50859333E-03   2.29720026E-04
             1133   7.54631590E-04   5.48671000E-04   1.08282152E-03   4.81752650E-04
             1134   8.95534991E-04   4.29200561E-04   9.03490232E-04   2.58497057E-05
             1135   1.76034402E-04   4.81824507E-04   1.65498874E-04  -9.66621883E-05
             1136   3.82536877E-04   7.90937745E-04   9.37247067E-04   3.98194912E-04
             1137   3.24299559E-04   6.03909255E-04   4.34017769E-04  -1.02049626E-06
             1138   6.00460160E-04   6.06548972E-04   7.03210128E-04   1.59067000E-04
             1139  -1.24634345E-04   2.34723571E-04   6.77734846E-04   1.08895103E-04
             1140   2.22687988E-04   2.71192810E-04   2.46116077E-04  -1.04051484E-04
             1141   2.00174793E-04   2.80890439E-04   1.78146656E-04  -1.24479411E-04
             1142  -4.88133542E-03  -3.37462807E-05   1.53477024E-03   2.73107406E-04
             1143   2.20458060E-05   1.22080572E-04   5.15877560E-04   9.75263538E-05
             1144   1.90747029E-04   1.43333571E-04   1.94277760E-04  -7.88319085E-05
             1145  -8.33599479E-04  -2.58403707E-05   2.53981911E-04   1.72754037E-04
             1146  -1.11247250E-03  -1.69865689E-05   3.15798970E-04   1.53747023E-04
             1147   3.55884222E-05  -5.99738341E-05   2.05654345E-04   9.53765339E-05
             1148   7.77637586E-04   4.97114379E-04   8.07792705E-04   1.24657599E-04
             1149  -1.28118217E-03  -4.57071910E-05   4.14104055E-04   2.67260621E-04
             1150  -5.03073563E-04  -1.03383514E-04   2.70600896E-04   2.60174536E-04
             1151   3.15280398E-04   5.94132172E-04   3.89877387E-04  -2.30256246E-05
             1152  -4.78198403E-04  -9.95653827E-05   5.22340066E-04   3.34891811E-04
             1153   4.77590831E-04   6.31932984E-04   5.11359540E-04   4.47298407E-05
             1154   3.67057801E-04   6.48594752E-04   5.50693832E-04   7.59035756E-05
             1155  -1.02118228E-03  -7.94917014E-06   2.55632505E-04   4.96986067E-05
             1156   3.96012503E-04   6.38772734E-04   4.75781446E-04   3.72696413E-05
             1157   2.10120590E-04   5.37746644E-04   5.53493795E-04   3.55930133E-05
             1158   1.64734360E-04   5.49450924E-04   1.63536955E-04  -1.10515739E-05
             1159   2.12725950E-04   2.28198609E-04   2.82461406E-04  -7.35823705E-05
             1160   2.04170472E-04   4.91064449E-04   2.00182403E-04  -9.93719223E-05
             1161   5.41489862E-05   4.34975402E-04   6.69438101E-04   6.17951591E-05
             1162   2.28940204E-04   4.31697757E-04   4.46381018E-04  -2.93608136E-05
             1163  -9.25155589E-04  -5.01901059E-06   2.31889877E-04   4.51866290E-05
             1164   2.93891761E-04   6.23335014E-04   2.93736142E-04  -1.95661250E-05
             1165   4.36143309E-04   6.36776036E-04   4.54525580E-04   1.93239030E-05
             1166  -2.83993245E-03   1.07362503E-04   1.28300383E-03   5.91158925E-04
             1167   1.35108666E-03  -5.06759607E-05   1.77608849E-03   9.52994742E-04
             1168  -1.72925438E-03  -5.32303966E-05   1.16704660E-03   5.70917735E-04
             1169   4.05618746E-04   6.36174460E-04   4.39233845E-04   1.67990165E-05
             1170   2.84241803E-04   6.18150225E-04   2.88176467E-04  -2.57140873E-05
             1171   8.36806721E-04   5.05847798E-04   1.48086890E-03   8.83838686E-04
             1172   3.71559232E-04   6.35362114E-04   3.90996254E-04  -3.57169256E-07
             1173   1.87397367E-04   1.73343418E-04   2.26878503E-04  -7.38017698E-05
             1174   2.78952721E-05   1.99146743E-05   4.01862315E-04   1.05702886E-04
             1175   6.72642724E-04   6.40172395E-04   1.28274446E-03   7.18213269E-04
             1176   9.02908621E-04   4.22188896E-04   9.20740538E-04   9.91189809E-05
             1177   3.85816849E-04   6.38874597E-04   3.94960603E-04   1.89180605E-06
             1178   2.36976295E-04   3.79462872E-04   3.18969513E-04  -9.62645208E-05
             1179   2.94446712E-04   5.71609999E-04   4.15176037E-04  -2.31223457E-05
             1180   1.89022408E-04   4.42151271E-04   1.76823334E-04  -1.10013803E-04
             1181   6.53671625E-04   6.06499729E-04   9.22743406E-04   3.60085134E-04
             1182   2.41183719E-04   4.18483134E-04   2.77782732E-04  -1.01327532E-04
             1183   2.00120819E-04   5.74951584E-04   1.97639994E-04  -2.30338646E-05
             1184  -3.48010845E-03  -4.98097470E-05   1.22488942E-03   4.57739952E-04
             1185  -1.48077949E-03  -6.10072721E-06   3.80660291E-04   8.24242234E-05
             1186   2.70534307E-04   5.84171794E-04   5.26610878E-04   2.50488483E-05
             1187  -1.55031320E-03  -1.34541797E-05   4.50204301E-04   2.19263355E-04
             1188   9.16137593E-04   4.10081091E-04   9.58781224E-04   1.77575348E-04
             1189   1.97763834E-03  -6.56171003E-04   1.97883137E-03   1.65317295E-04
             1190  -5.99584484E-04  -1.23494421E-04   3.84161598E-04   3.29213450E-04
             1191   1.43049605E-04   2.01675459E-04   4.21011791E-04   8.49253593E-06
             1192   5.93902718E-04   6.17485610E-04   7.40653370E-04   2.01774121E-04
             1193   1.55703470E-04   4.26836137E-04   5.88635739E-04   4.17663541E-05
             1194  -1.10162197E-04  -5.38982640E-05   4.22521844E-04   1.85286466E-04
             1195  -6.90609741E-04  -1.13478389E-04   5.64943650E-04   3.99602228E-04
             1196   2.03619406E-04   7.72245985E-04   8.17694236E-04   2.17318564E-04
             1197  -4.46471677E-04  -1.03078310E-04   2.22673567E-04   2.33471685E-04
             1198  -7.29519757E-04  -5.65324226E-05   2.61750363E-04   2.32967999E-04
             1199   2.25095864E-04   4.01177822E-04   3.69649933E-04  -6.15138124E-05
             1200  -4.98446461E-04  -1.22733807E-04   3.34903802E-04   3.02380213E-04
             1201  -4.09157621E-03  -4.71949643E-05   1.52989267E-03   4.59097500E-04
             1202  -8.09687772E-04  -1.01207697E-04   3.62095801E-04   3.22418608E-04
             1203  -1.04627677E-03  -6.60562364E-05   3.84726154E-04   3.02172732E-04
             1204   4.12567140E-04   6.72853377E-04   6.30913710E-04   1.36256407E-04
             1205   3.09101277E-04   6.08451490E-04   3.34414479E-04  -3.24143402E-05
             1206   7.08596490E-05   2.17094450E-04   5.29723533E-04   5.58237771E-05
             1207  -3.41953728E-06  -5.06174074E-05   2.94946891E-04   1.31314999E-04
             1208   2.79248867E-04   8.18662578E-04   8.98188737E-04   3.23238957E-04
             1209   1.87432699E-04   1.37765586E-04   2.46519718E-04  -5.60372282E-05
             1210   2.13082501E-04   3.87372798E-04   2.02559633E-04  -1.16769559E-04
             1211   2.36369000E-04   4.35331196E-04   2.65842711E-04  -1.02645703E-04
             1212   3.38886923E-04   6.66935230E-04   6.30680064E-04   1.25316088E-04
             1213   2.46439362E-04   7.72268919E-04   8.09456338E-04   2.28936013E-04
             1214   4.20501834E-04   6.65515661E-04   6.02113723E-04   1.15085248E-04
             1215   1.98432928E-04   2.20856833E-04   1.83657772E-04  -1.11551228E-04
             1216   2.46297859E-04   4.52577369E-04   4.08027816E-04  -4.65775229E-05
             1217   4.33744339E-04   6.36578887E-04   4.88205347E-04   4.22001758E-05
             1218  -9.04085347E-04  -6.62374296E-05   3.18829785E-04   2.56753643E-04
             1219   1.88215941E-04   5.07861841E-04   1.89164130E-04  -8.88100185E-05
             1220  -2.68741889E-04  -1.05479368E-04   4.16950905E-04   2.53370090E-04
             1221   4.56978451E-04   6.37797406E-04   5.40594570E-04   7.31159671E-05
             1222   2.92569923E-04   5.76707942E-04   4.53335437E-04  -5.02864259E-06
             1223  -5.49630786E-05  -1.04497733E-04   2.15086329E-04   1.40087228E-04
             1224   1.65258971E-04   5.49472985E-04   1.64938494E-04  -2.15771361E-05
             1225   2.94880825E-04   5.61803696E-04   3.79823265E-04  -3.77126853E-05
             1226   1.95361223E-04   3.68517416E-04   1.71079286E-04  -1.26589963E-04
             1227   2.76773440E-04   6.05480280E-04   2.86548020E-04  -3.89700217E-05
             1228   7.50864856E-05  -3.31500451E-05   2.23268173E-04   5.14022868E-05
             1229  -1.59432006E-04   8.56329825E-06   5.30115620E-04   1.81169104E-04
             1230  -1.87136023E-03  -1.65453705E-04   9.40782193E-04   5.14683663E-04
             1231  -6.47302193E-04   2.31306349E-05   8.30792473E-04   3.64837790E-04
             1232  -6.73411705E-05  -9.46748769E-05   2.94733094E-04   1.54791400E-04
             1233  -8.77887127E-04  -1.25572087E-05   2.32371371E-04   9.52203991E-05
             1234   2.70978082E-04   5.50905359E-04   3.05640395E-04  -6.58589124E-05
             1235   2.71051947E-04   5.76462131E-04   2.88525713E-04  -5.64763031E-05
             1236   2.87286472E-04   5.86156035E-04   3.20193241E-04  -4.87045472E-05
             1237  -1.92375178E-03  -5.09819183E-05   5.60904329E-04   2.33512314E-04
             1238   2.28225035E-04   3.25898523E-04   2.80765322E-04  -9.20116508E-05
             1239   1.94159208E-03  -6.02558604E-04   2.04956834E-03   6.19747909E-04
             1240   2.23334835E-04   5.68312476E-04   2.28965349E-04  -6.38087367E-05
             1241  -9.66461201E-04  -2.02594656E-05   2.63590075E-04   1.26072060E-04
             1242  -2.22319388E-03  -2.60284214E-05   6.69915171E-04   2.60888832E-04
             1243   2.24444637E-04   6.39843638E-04   6.46869128E-04   8.76632330E-05
             1244   3.55325057E-04   6.90065266E-04   6.60830236E-04   1.50624270E-04
             1245   3.55454977E-04   6.23731234E-04   4.46594786E-04   1.42957606E-05
             1246   7.30929081E-04   5.28751290E-04   7.43967772E-04   7.25698847E-05
             1247   7.07613421E-04   5.58702101E-04   8.29750381E-04   2.29509693E-04
             1248  -8.34613456E-04   2.98557919E-04   1.23629498E-03   2.77821498E-04
             1249  -8.06630487E-05   4.29758074E-04   8.73894838E-04   1.20546778E-04
             1250   5.66589879E-04   6.98702876E-04   1.05474005E-03   5.07301243E-04
             1251  -6.86279163E-05  -1.06955697E-04   2.48060795E-04   1.56959039E-04
             1252  -7.08785257E-04  -4.25458056E-05   2.34343679E-04   1.98607231E-04
             1253   2.72367499E-04   5.18909015E-04   3.89325520E-04  -4.44245234E-05
             1254   2.13973311E-04   6.10478164E-04   6.52332848E-04   7.49478568E-05
             1255   3.21564003E-04   6.23670407E-04   3.41569888E-04  -1.99205097E-05
             1256   4.84858843E-04   7.07045838E-04   8.61488457E-04   3.36424506E-04
             1257   1.79159292E-03  -4.37235431E-04   1.86746439E-03   4.60217183E-04
             1258   2.59010441E-04   4.66306752E-04   3.75934178E-04  -5.70210323E-05
             1259   2.05668432E-04   4.15754563E-04   1.94120163E-04  -1.16391384E-04
             1260   3.44640721E-04   6.17843354E-04   4.08044842E-04  -4.00937870E-06
             1261   4.58536175E-04   6.78278971E-04   6.92368543E-04   1.86884048E-04
             1262  -8.28032862E-05  -7.63252174E-05   3.49191105E-04   1.69546940E-04
             1263   1.67772465E-04   5.31713522E-05   1.92817984E-04  -3.87359178E-05
             1264   1.73302554E-03  -3.72056267E-04   1.75548811E-03   3.11596959E-04
             1265   1.75408190E-04   5.12713799E-04   1.64057885E-04  -7.21274482E-05
             1266   2.87443807E-04   6.02693646E-04   3.02058819E-04  -4.21296936E-05
             1267   1.01258839E-03   3.28725262E-04   1.50504883E-03   8.39778455E-04
             1268   2.31774233E-04   8.33555707E-04   9.06029949E-04   3.11283977E-04
             1269   2.32734063E-04   6.81021018E-04   6.88658212E-04   1.26990082E-04
             1270   2.04699114E-03  -7.54746143E-04   2.09431280E-03   4.17029019E-04
             1271  -9.16777179E-04  -1.54151727E-04   6.86377927E-04   4.03635175E-04
             1272   2.57880980E-04   5.09799924E-04   2.97422812E-04  -8.10961938E-05
             1273  -2.94111174E-04  -1.27705338E-04   2.19252543E-04   2.16561704E-04
             1274   3.20165098E-04   6.47752546E-04   5.81969623E-04   8.36594118E-05
             1275   9.76588228E-04   3.63759202E-04   1.60434679E-03   9.67764528E-04
             1276   5.39655739E-04   6.15058292E-04   5.46252530E-04   2.67072646E-05
             1277   1.69925648E-03  -3.35349614E-04   1.82298839E-03   5.53611724E-04
             1278   5.78538049E-04   6.05475623E-04   6.12924458E-04   7.85338416E-05
             1279   1.81912270E-04   3.75602773E-04   4.75923327E-04   2.97506631E-07
             1280  -1.33316801E-03  -6.10990101E-05   4.72095679E-04   3.26694309E-04
             1281   1.77984053E-04   9.54743446E-05   2.15215201E-04  -4.65228877E-05
             1282   8.74920341E-04   4.53811546E-04   1.17012660E-03   5.29470795E-04
             1283   3.75479052E-04   6.32851676E-04   4.27029736E-04   1.07170699E-05
             1284   2.26935386E-04   5.22098737E-04   2.27748053E-04  -9.33893971E-05
             1285   6.59847341E-04   6.19779632E-04   1.02404715E-03   4.60028910E-04
             1286   2.84348032E-04   5.55658655E-04   3.41080187E-04  -5.41287918E-05
             1287   3.52483941E-04   6.28000125E-04   3.83892824E-04  -6.27372492E-06
             1288   6.46158704E-04   6.70189795E-04   1.37800537E-03   8.30028381E-04
             1289   2.62748712E-04   4.92987223E-04   4.22546407E-04  -3.44357359E-05
             1290   1.85327226E-04   4.31131688E-04   5.26703603E-04   3.77875404E-06
             1291   1.73958507E-03  -3.93727212E-04   1.99466432E-03   8.53165402E-04
             1292   3.99731594E-04   7.49570201E-04   8.46855459E-04   3.09930358E-04
             1293  -2.30013556E-03  -1.59173331E-04   8.50710145E-04   4.53537097E-04
             1294   3.02816974E-04   5.88989467E-04   3.52901930E-04  -3.80765196E-05
             1295  -1.35169947E-03  -7.27552106E-05   9.48305009E-04   5.27889293E-04
             1296   2.73596786E-04   7.33662688E-04   7.45866040E-04   1.90030871E-04
             1297  -5.91664400E-04  -8.74081088E-05   2.65019742E-04   2.45201867E-04
             1298   2.41507194E-04   4.16620926E-04   3.47823603E-04  -7.38027011E-05
             1299  -2.26188544E-03  -1.75084060E-05   6.09080424E-04   1.20662837E-04
             1300  -7.25464080E-04  -7.39724492E-05   2.90810131E-04   2.68180534E-04
             1301   8.00932059E-04   5.05093078E-04   9.65404208E-04   3.22171487E-04
             1302   2.19471811E-04   3.54667893E-04   2.63492111E-04  -1.05857594E-04
             1303   1.97863730E-04   1.90024090E-04   2.80245498E-04  -5.97875733E-05
             1304   1.77066235E-04   4.82384668E-04   1.60804761E-04  -8.98720100E-05
             1305   5.83651592E-04   6.33027405E-04   7.96291337E-04   2.57609325E-04
             1306   5.16562257E-04   6.31233735E-04   6.06282905E-04   1.11857749E-04
             1307   2.45155854E-04   5.10317739E-04   2.67119874E-04  -8.81663946E-05
             1308   1.21476536E-03   1.48176419E-04   1.43169891E-03   5.75911137E-04
             1309  -3.16296326E-04  -1.20518715E-04   3.60778766E-04   2.64329021E-04
             1310   2.49544886E-04   5.06969518E-04   4.69478982E-04  -1.55492016E-05
             1311   1.40476157E-04   1.13643153E-04   3.38776124E-04   1.05324498E-05
             1312   2.70117889E-04   5.15329768E-04   4.18431475E-04  -3.33624848E-05
             1313  -1.29867066E-03   5.05708485E-05   1.11776066E-03   4.86425939E-04
             1314   2.40778361E-04   4.83101263E-04   2.60210974E-04  -9.79540127E-05
             1315  -2.14593398E-04  -1.26866827E-04   2.54172308E-04   2.14188563E-04
             1316   3.68574052E-04   7.36451650E-04   7.76367378E-04   2.45512696E-04
             1317   1.75460329E-04   5.56574902E-04   1.78252027E-04  -3.91970825E-05
             1318   3.28221795E-04   6.28228183E-04   3.37157631E-04  -1.63834484E-05
             1319   3.42773041E-04   7.63264834E-04   8.20902060E-04   2.75912753E-04
             1320   1.33221433E-03   1.21310341E-05   1.63549301E-03   7.66988087E-04
             1321   2.81477434E-04   8.60294269E-04   1.00393919E-03   4.23324527E-04
             1322   4.06301406E-04   6.39835722E-04   5.15870051E-04   6.54866526E-05
             1323  -4.67686070E-04  -1.26338127E-04   4.56737791E-04   3.21439031E-04
             1324   2.54521874E-04   5.38727501E-04   4.71074018E-04  -3.72456429E-06
             1325  -8.99539213E-04  -8.11513237E-05   3.50897200E-04   3.02248896E-04
             1326  -6.58695062E-04  -1.16360803E-04   4.86865931E-04   3.79101140E-04
             1327  -4.43649618E-03  -3.87919226E-06   1.32988393E-03   2.00142153E-04
             1328   2.16655972E-04   3.15473735E-04   1.94886554E-04  -1.26783445E-04
             1329   1.41885146E-04   2.85446527E-04   4.83039621E-04   2.06219029E-05
             1330   2.13151041E-04   7.04243896E-04   7.29261432E-04   1.48335021E-04
             1331   3.28551803E-04   6.14435179E-04   3.70857335E-04  -1.88826471E-05
             1332  -1.09849847E-03  -9.45538995E-05   4.40438511E-04   3.49410693E-04
             1333   2.27161916E-04   5.20314439E-04   2.46242766E-04  -9.34652562E-05
             1334   1.77292270E-04   5.56759536E-04   6.25513319E-04   5.55234474E-05
             1335   1.67767727E-03  -3.47797264E-04   1.99044566E-03   9.47424094E-04
             1336   5.37053624E-04   6.68364984E-04   8.31848884E-04   3.10695061E-04
             1337   3.78209224E-04   6.79189863E-04   6.49189518E-04   1.42373203E-04
             1338  -7.67869060E-04   1.23905585E-04   1.12810789E-03   3.17686616E-04
             1339   5.17780893E-04   6.58663281E-04   7.41176947E-04   2.27063749E-04
             1340  -1.65035541E-03  -2.25892636E-05   4.24852100E-04   1.07578007E-05
             1341  -1.56316312E-03  -1.13242430E-04   5.69368480E-04   3.88240122E-04
             1342  -1.93046359E-03  -7.75559020E-05   8.21329653E-04   4.96258202E-04
             1343   2.84700538E-04   5.73383528E-04   4.82558564E-04   3.59466162E-06
             1344   6.89269364E-05   7.92138890E-05   4.49865038E-04   6.94745540E-05
             1345  -2.23680399E-03   1.65503552E-05   1.44850451E-03   5.33030718E-04
             1346   1.10496383E-03   2.71669385E-04   1.13138312E-03   1.46182647E-04
             1347  -1.41866819E-03  -1.65918318E-05   3.96365387E-04   1.96695793E-04
             1348   2.46013835E-04   5.71332464E-04   2.56111991E-04  -6.60767182E-05
             1349   2.90383003E-04   6.22941181E-04   5.52780461E-04   5.10284372E-05
             1350   2.48408760E-04   4.71809646E-04   4.42622433E-04  -4.00096396E-05
             1351   2.51459365E-04   6.96744653E-04   6.85879961E-04   1.39930620E-04
             1352   5.36282139E-04   7.28552754E-04   1.07867259E-03   5.34500345E-04
             1353   1.39372751E-05   3.35784192E-04   6.51988434E-04   9.46666405E-05
             1354   2.29279744E-04   3.94361909E-04   2.56636180E-04  -1.15169321E-04
             1355   2.16313012E-04   2.61744135E-04   1.98268142E-04  -1.12171161E-04
             1356  -4.29219217E-04   2.40339185E-04   9.00368672E-04   1.74652203E-04
             1357   5.08117319E-06  -2.44035127E-05   1.78349019E-05   1.93577580E-05
             1358   4.02490587E-05   6.55284020E-05   1.19029937E-05  -4.97240180E-05
             1359  -6.36576660E-05  -4.62622447E-05   5.24807292E-05   6.66814230E-05
             1360   2.98492154E-07  -9.24222974E-08   5.27254969E-08  -1.29286406E-07
             1361   5.48257922E-05   2.13557534E-04   3.12780430E-05  -7.77164460E-05
             1362   7.74565212E-09  -5.40035971E-09   1.47952872E-09  -1.59985913E-09
             1363   2.13804197E-10  -6.52830914E-11   1.55469387E-11  -9.03208480E-11
             1364   6.97318756E-05  -1.13794476E-05   3.96056093E-05  -2.33601095E-05
             1365  -2.70595832E-04  -4.42501223E-05   1.01856465E-04   1.13347887E-04
             1366   1.01277561E-04   1.19635566E-04   4.91514184E-05  -9.13194599E-05
             1367   8.87324973E-07   1.36497192E-06   1.05466462E-08  -1.38437520E-06
             1368   7.28455634E-05   3.47111229E-04   6.09015260E-05  -6.56293632E-05
             1369   7.66260840E-12  -1.25256645E-11   2.00642197E-13   4.23157342E-12
             1370   7.24667348E-09  -1.80357542E-08   6.82544954E-09   8.74420891E-09
             1371  -7.92128776E-05  -7.45892175E-05   9.64814390E-05   1.08898035E-04
             1372   7.53715140E-05  -5.45822659E-05   8.44553579E-05   2.34488398E-05
             1373  -3.79857881E-11  -6.02213557E-10   3.01088154E-10   5.05352926E-10
             1374   1.12669746E-04   2.71459940E-05   6.84589832E-05  -5.70974589E-05
             1375  -3.76181617E-07  -1.47937544E-06   8.07781703E-07   1.45479760E-06
             1376   3.11183856E-11   3.40089103E-11  -4.48801976E-12  -4.64925910E-11
             1377   3.80273519E-08   1.01958591E-07  -4.24737934E-09  -8.15505814E-08
             1378   1.24996935E-04   2.05624034E-04   7.54408466E-05  -1.19750388E-04
             1379   7.41727672E-06   2.79090564E-05   5.80522737E-07  -1.62697979E-05
             1380   5.31015787E-10   8.12453604E-10  -4.98851307E-11  -1.10443843E-09
             1381   1.10529319E-09   3.01409631E-09  -1.65009395E-10  -2.04177319E-09
             1382   2.14805095E-06   1.04402770E-05  -1.09999746E-07  -4.42424653E-06
             1383   8.67608207E-09   3.03951069E-08  -1.58572366E-09  -1.96676151E-08
             1384  -5.37230653E-06  -3.55936572E-06   2.90411231E-06   4.74789795E-06
             1385  -6.90728257E-07  -3.27546104E-07   2.99338978E-07   5.61034881E-07
             1386  -6.42007905E-08  -7.75247813E-08   4.80926730E-08   9.53694865E-08
             1387  -4.80473915E-04  -1.22158226E-05   1.36241157E-04   1.00162528E-04
             1388  -1.75847508E-05  -9.22045001E-06   9.18470141E-06   1.51825889E-05
             1389  -3.75684275E-11  -5.02519311E-11   1.95973602E-11   5.89816737E-11
             1390   2.24998502E-07   6.91388436E-07  -1.98508729E-08  -4.87660998E-07
             1391   9.55463911E-05   4.49496554E-04   9.43477426E-05  -3.39222024E-05
             1392  -2.68421834E-04  -6.35099859E-05   1.30425353E-04   1.51345565E-04
             1393   1.56873619E-04   1.81252602E-04   1.00383986E-04  -1.19673299E-04
             1394  -4.34663416E-05  -1.12651396E-05   1.78682803E-05   2.60311062E-05
             1395  -2.30950925E-10  -4.13066248E-09   1.63502334E-09   2.99344727E-09
             1396  -1.67912567E-05  -9.17294528E-05   1.28199739E-04   9.45713036E-05
             1397  -1.83775570E-04  -1.50145770E-05   5.70779957E-05   5.60596236E-05
             1398   1.91275522E-05   1.36581279E-04   9.34422314E-06  -3.91442918E-05
             1399   6.24895344E-11   2.50702792E-10  -1.82037267E-11  -1.62502442E-10
             1400  -1.95729585E-10  -1.59857572E-10   9.34912772E-11   1.96483912E-10
             1401   6.10951201E-06   6.27482805E-05   9.02289798E-07  -2.09126447E-05
             1402   1.01277197E-04  -3.64383231E-05   1.06254338E-04   7.62448599E-06
             1403   3.42360158E-06   1.06665937E-07   5.12156475E-07  -2.09391760E-06
             1404   1.01521633E-04   3.90083122E-04   8.65639377E-05  -8.20803034E-05
             1405  -3.61905172E-08  -2.12632028E-08   1.57845115E-08   2.99094935E-08
             1406  -1.34866580E-08  -5.91790794E-09   5.20688914E-09   1.00824806E-08
             1407  -8.93602410E-05  -8.99647148E-06   2.89853815E-05   3.23488130E-05
             1408  -3.98182368E-04  -5.47740019E-05   1.50781969E-04   1.59258547E-04
             1409  -1.83913726E-04  -9.46138534E-05   1.46310907E-04   1.62293989E-04
             1410   2.83328718E-05   2.82271067E-04   3.03344041E-05  -4.51883789E-05
             1411   5.00159246E-12   2.66895690E-11  -3.07782174E-13  -1.22839152E-11
             1412   1.30309636E-04   3.26643960E-04   9.99911354E-05  -1.21249512E-04
             1413   1.07923901E-04   4.36364615E-04   1.00090925E-04  -6.71843736E-05
             1414  -1.65881284E-11  -1.36092439E-11   4.21057850E-12   2.19119445E-11
             1415   4.22545909E-08   3.12067129E-07  -1.54686752E-08  -1.51886994E-07
             1416   1.12672049E-09   1.21421007E-08  -6.11094675E-10  -5.06855313E-09
             1417   2.82005276E-05  -7.68541868E-05   1.41107972E-04   7.04326958E-05
             1418   7.87001113E-07   4.35032052E-06  -1.29708681E-07  -2.44057242E-06
             1419   1.61666139E-06   2.11712650E-05  -2.67671652E-07  -7.43618057E-06
             1420   1.38953095E-04   6.20836072E-05   9.46704749E-05  -7.01007812E-05
             1421   3.96278119E-05   2.39464248E-06   1.31620372E-05  -2.38568227E-05
             1422   1.27999141E-04   3.64833715E-04   1.00349338E-04  -9.94353541E-05
             1423   1.48314575E-04   2.76849954E-04   1.06425534E-04  -1.29883803E-04
             1424   6.80723957E-08  -4.79597340E-08   2.14748166E-08   3.14104498E-09
             1425  -1.30865648E-11  -5.00705684E-12  -1.66619669E-12   6.79952058E-12
             1426   1.41173241E-05  -6.97874566E-05   5.53018726E-05   5.43689930E-05
             1427   1.46136008E-04   2.40907702E-05   1.22047939E-04  -4.12046320E-05
             1428   3.71168929E-11  -4.20002089E-11   7.21913328E-12   7.98787685E-12
             1429   7.17031867E-07  -4.54428061E-07   1.98811335E-07  -8.32399110E-08
             1430   1.42183032E-09  -7.51081475E-10   2.59270633E-10  -4.69733197E-10
             1431  -6.73535804E-04   2.14217289E-06   1.73915440E-04   6.08998344E-05
             1432   2.12873183E-05   2.22553626E-05   3.49182301E-06  -2.41747257E-05
             1433  -3.73362098E-04  -1.21115991E-05   1.04140236E-04   7.98083420E-05
             1434   7.77626847E-05   2.07452889E-04   4.38614261E-05  -9.67048036E-05
             1435   1.66901103E-07   1.82670829E-06  -8.21796675E-08  -8.26362395E-07
             1436  -1.43755163E-09  -7.43955231E-10   5.71050152E-10   1.26591948E-09
             1437   6.55730764E-06   7.07180970E-06   6.15712224E-07  -8.57682426E-06
             1438  -3.60492527E-06  -1.46330194E-06   1.51952895E-06   2.56128578E-06
             1439  -1.22856136E-06  -5.18970808E-07   5.13131567E-07   9.16745591E-07
             1440  -5.28515787E-10  -1.96232225E-10   1.78112303E-10   2.53629395E-10
             1441   1.57753784E-05   1.83790587E-04   1.29406435E-05  -2.93900976E-05
             1442   1.88852128E-11   1.33209055E-10  -1.07045622E-11  -6.67876032E-11
             1443   1.76183590E-07   1.76109310E-07   2.51222443E-09  -2.24968161E-07
             1444   3.45137297E-09   6.32150545E-08  -3.87744636E-09  -2.36946853E-08
             1445   6.64702020E-05   2.83386580E-05   1.83285028E-05  -5.18233792E-05
             1446   2.27209949E-08   2.88041635E-09   4.10410761E-10  -2.00532160E-08
             1447  -1.79330002E-07  -1.34012168E-07   9.48490140E-08   1.87737982E-07
             1448  -5.14970779E-05  -9.97797179E-05   1.47792249E-04   1.16464529E-04
             1449   4.66418533E-05   1.31532244E-04   1.85059835E-05  -6.82880418E-05
             1450  -3.19744548E-04  -6.57734490E-05   1.62341952E-04   1.66968195E-04
             1451   1.25582031E-10   4.93502184E-10  -3.10899535E-11  -3.21883936E-10
             1452   6.51264272E-05   3.91403504E-04   6.47822744E-05  -2.98127034E-05
             1453   6.37372341E-06  -3.57970057E-05   2.88081155E-05   2.85980259E-05
             1454  -5.59990294E-04  -1.83027769E-05   1.67881066E-04   1.14439456E-04
             1455   2.62736194E-10   2.13471485E-09  -1.26593097E-10  -1.06730091E-09
             1456   8.19976049E-06  -7.07324580E-06   4.61968102E-06   1.50858534E-06
             1457   1.03149039E-04  -3.59377955E-05   1.38899471E-04   2.12912673E-05
             1458   1.58174065E-04   1.47612896E-04   1.06651343E-04  -1.04535386E-04
             1459   3.06284028E-06  -3.12488373E-06   1.09605594E-06  -1.02035678E-07
             1460  -1.13309696E-04  -5.68992145E-05   6.87208449E-05   7.96823006E-05
             1461   1.01828053E-04   4.79606097E-04   1.06695319E-04  -1.82530930E-05
             1462  -1.27130775E-07  -9.04936748E-09   3.34341408E-08   4.38675727E-08
             1463   7.60780416E-09   1.58855357E-07  -7.42369766E-09  -5.32490994E-08
             1464  -1.27174517E-05  -2.89005129E-06   4.27611485E-06   5.99922168E-06
             1465   1.57307396E-11  -2.31731930E-12  -1.11317661E-12  -1.02739570E-11
             1466  -8.65518723E-06  -5.21261200E-07   2.34938761E-06   2.19719141E-06
             1467  -8.09415035E-11  -8.98774458E-12   1.41425456E-11   2.96362761E-11
             1468  -6.90078014E-05  -2.34069716E-06   1.83118118E-05   1.49017169E-05
             1469  -1.43741394E-10  -3.97832670E-11   3.82279555E-11   8.22064569E-11
             1470  -7.05478058E-08   8.94864206E-06  -4.03906483E-07  -2.21076516E-06
             1471   9.29436865E-08  -1.82372474E-07   7.80045539E-08   9.39752738E-08
             1472   2.91289520E-10  -2.65670097E-10   5.44489662E-11  -1.77229047E-11
             1473  -4.04824285E-10   2.52101025E-08  -1.56265956E-09  -6.90687241E-09
             1474   2.48703759E-06   4.03035920E-05  -3.83133909E-07  -1.24688859E-05
             1475   1.75664572E-05  -1.18827957E-05   8.41889505E-06   3.24395614E-07
             1476   1.94558688E-05   6.83101753E-05   4.85967985E-06  -3.60385748E-05
             1477  -4.49941756E-04  -5.17132912E-06   1.17001946E-04   4.79313894E-05
             1478   5.13786080E-09   6.17149531E-09  -5.53134448E-11  -7.08767400E-09
             1479  -6.88204295E-07  -5.22582084E-08   1.82084165E-07   2.17977032E-07
             1480  -2.46544740E-08   8.27795020E-07  -3.46821025E-08  -2.23341800E-07
             1481   9.10323870E-05   2.83272293E-05   4.50416737E-05  -5.69036420E-05
             1482  -4.30229630E-09  -3.17951138E-10   1.09767395E-09   1.25385324E-09
             1483  -3.07243085E-04  -4.53780922E-06   8.01620481E-05   4.08511332E-05
             1484  -5.63278954E-05  -1.72719774E-05   2.62568756E-05   3.83340557E-05
             1485   8.01832559E-14   1.32937927E-09  -9.17048104E-11  -3.92714999E-10
             1486  -4.44428883E-10  -3.09295506E-11   1.07157942E-10   1.42200363E-10
             1487   3.70707731E-09  -4.69937831E-08   1.73887944E-08   3.23453264E-08
             1488   9.46785894E-06   1.47257073E-04   7.50608933E-06  -2.08866659E-05
             1489   1.16452873E-04   4.36458591E-04   1.10642075E-04  -8.90777374E-05
             1490  -7.98706157E-10  -7.89350096E-09   3.57258334E-09   5.82672000E-09
             1491  -1.18887704E-06  -8.09544574E-08   3.15502945E-07   3.66799753E-07
             1492  -1.11820445E-05  -6.93140828E-05   8.07178585E-05   6.85680279E-05
             1493  -8.77697737E-09  -2.92276559E-09   3.19755400E-09   5.39279243E-09
             1494   6.16726392E-11  -1.28955013E-10   3.13461965E-11   5.79438650E-11
             1495   1.25709033E-04   4.79589216E-04   1.20894663E-04  -5.36208317E-05
             1496   2.80321401E-05  -8.81370870E-05   1.64265395E-04   8.08111727E-05
             1497  -1.61328862E-04  -1.36001893E-06   4.08386186E-05   2.41037778E-05
             1498   3.38877038E-10   6.55705268E-09  -4.07455070E-10  -2.48186383E-09
             1499   1.56226754E-09   2.68078726E-10   4.35953287E-11  -1.39119183E-09
             1500   1.51373955E-04   1.09881388E-04   1.23833117E-04  -8.75406986E-05
             1501   1.55612088E-06   2.30762703E-06   5.13864684E-08  -2.39839028E-06
             1502   3.24709763E-05   1.73899462E-04   1.75273472E-05  -6.17863407E-05
             1503  -1.78008615E-11   4.31872732E-10  -3.83153509E-11  -1.26024552E-10
             1504   1.21493072E-12  -5.98897668E-12  -9.13479036E-13   3.35391545E-12
             1505   6.08199116E-07   2.02012316E-07   5.13691809E-08  -5.38975996E-07
             1506   2.33857822E-10   2.44202214E-10  -7.83956233E-12  -2.52695670E-10
             1507   6.87337015E-05   2.81252112E-04   4.82335890E-05  -8.19026100E-05
             1508   1.44029429E-04   3.84053797E-04   1.19492557E-04  -1.13651033E-04
             1509  -1.96528363E-05  -1.49660045E-05   1.39063277E-05   2.18240857E-05
             1510  -3.22901942E-05  -2.50987750E-06   8.86686576E-06   8.66460414E-06
             1511   3.89188131E-08   1.26402483E-06  -5.46302310E-08  -4.17423735E-07
             1512  -3.89110093E-04  -2.82683632E-05   1.22463331E-04   1.21272307E-04
             1513   8.23172502E-11   1.99109414E-12  -2.14554286E-13  -6.51397478E-11
             1514   2.92083314E-06  -4.84641942E-06   2.67640166E-06   2.62058734E-06
             1515   8.32342412E-05  -2.51851143E-05   5.56254599E-05  -1.87503138E-05
             1516   1.53785673E-04   3.36535071E-04   1.22062556E-04  -1.27684849E-04
             1517   1.12855007E-04   6.89496082E-05   5.94377925E-05  -7.58416136E-05
             1518   1.46362727E-04   1.87370897E-05   1.50019448E-04  -2.76649171E-05
             1519  -2.25023342E-07  -1.63764575E-08   5.94745373E-08   8.03167381E-08
             1520  -3.48360160E-11  -4.50391937E-12   2.72434115E-12   1.42344253E-11
             1521  -4.16325676E-08  -2.75583778E-09   1.06832738E-08   1.29066278E-08
             1522   2.59983372E-05   2.56666623E-04   2.49607383E-05  -3.06851107E-05
             1523  -3.35795767E-06  -1.97607335E-07   8.92934054E-07   9.26479515E-07
             1524  -1.37253431E-09  -9.51816334E-11   3.36192629E-10   4.43896586E-10
             1525   4.58222275E-05   3.15488665E-04   4.21218356E-05  -3.87589680E-05
             1526  -1.84466451E-04  -5.48065909E-05   9.52069968E-05   1.17282078E-04
             1527   9.85288240E-13   3.69060130E-11   1.21439344E-13  -8.00744800E-12
             1528  -2.76615730E-10   4.15269952E-08  -2.97664937E-09  -1.13850991E-08
             1529  -3.91813141E-04  -7.52641790E-05   1.79901006E-04   1.90494509E-04
             1530  -2.62338232E-04  -9.60010220E-05   1.76768342E-04   1.91765910E-04
             1531   4.05556648E-07   1.51894747E-05  -3.66343784E-07  -3.50779055E-06
             1532   7.82957553E-12   7.29524080E-12   1.38900176E-12  -6.80415576E-12
             1533  -5.25801093E-04  -4.54788315E-05   1.82347620E-04   1.75251014E-04
             1534  -1.06908367E-07   3.62666924E-06  -2.34542199E-07  -8.97381312E-07
             1535  -1.31180699E-04  -1.06439104E-04   1.69799721E-04   1.56904527E-04
             1536   2.15504753E-10  -1.10596710E-09   4.72619166E-10   7.91904431E-10
             1537   1.04694715E-04   2.64726667E-04   6.89161825E-05  -1.12832102E-04
             1538  -5.64896851E-04  -5.89157935E-06   1.44286081E-04   4.15096256E-05
             1539  -2.51318212E-04  -1.89834427E-05   7.73551146E-05   7.16473005E-05
             1540  -1.24553961E-11  -7.35842810E-12  -5.53135445E-13   1.06835643E-11
             1541  -6.59493846E-04  -2.00284230E-05   1.90065271E-04   1.24391372E-04
             1542   1.11467796E-06  -8.53067831E-07   3.67124045E-07   2.08881445E-08
             1543   4.04189705E-05  -2.86276736E-05   2.54300467E-05   3.49850825E-06
             1544  -8.27191689E-05  -2.43202394E-05   3.83478618E-05   5.23225535E-05
             1545   1.23594436E-05   1.20585091E-05   1.62189315E-06  -1.46052744E-05
             1546   8.72316619E-08  -9.51732346E-08   4.19507522E-08   2.68393805E-08
             1547   4.78447255E-08   9.63637170E-09   3.01217251E-09  -3.77965002E-08
             1548   8.00566419E-11  -3.84786980E-10   1.33959760E-10   2.60458738E-10
             1549   7.92450592E-05  -4.77048270E-05   1.57370596E-04   3.78925215E-05
             1550   1.69062419E-04   2.93762772E-04   1.28894346E-04  -1.33107649E-04
             1551   6.16090756E-06  -1.20604375E-06   1.34800223E-06  -2.96063763E-06
             1552   1.77018097E-04   2.19178415E-04   1.29163047E-04  -1.24493701E-04
             1553  -8.73959725E-05  -8.49840435E-05   1.24886225E-04   1.22025442E-04
             1554  -1.59433723E-04  -7.85288503E-05   1.17977164E-04   1.37203868E-04
             1555   7.74002692E-05   4.22969810E-04   7.70135666E-05  -1.66720001E-05
             1556  -9.34964532E-08  -8.77061495E-07   4.53947195E-07   7.88360182E-07
             1557   3.15534749E-06   4.95081031E-06   1.56242308E-07  -4.60524325E-06
             1558  -2.22088944E-04  -7.82235759E-07   5.68856121E-05   3.16603182E-05
             1559   2.87973023E-07   8.08956465E-05   5.59622436E-07  -1.23958707E-05
             1560   5.48503326E-11   8.98947028E-11  -7.29820718E-12  -9.45339917E-11
             1561  -7.16409616E-08  -5.86575544E-09   1.87565270E-08   2.28776855E-08
             1562   1.16945446E-11   3.06966778E-11  -2.87356879E-12  -2.38617546E-11
             1563  -1.24175687E-11   2.56461602E-10  -2.35050486E-11  -6.38164174E-11
             1564   8.26094401E-05   4.03716607E-04   7.66406156E-05  -5.20266913E-05
             1565   1.33917376E-04   4.62428492E-04   1.24771657E-04  -7.87323515E-05
             1566   1.40289136E-04   4.26884973E-04   1.24627622E-04  -1.04264371E-04
             1567   2.55228042E-05   2.13088992E-04   1.90766932E-05  -4.68836733E-05
             1568   6.62316088E-05  -5.65261398E-05   1.20697638E-04   4.09359418E-05
             1569   1.43755242E-05  -7.39936149E-05   1.02706435E-04   6.88954824E-05
             1570   1.23952486E-04   4.87902144E-04   1.21008656E-04  -4.03301165E-05
             1571  -9.92166310E-13   8.59384924E-11  -7.16321273E-12  -2.49890560E-11
             1572   1.36083880E-04   1.45427068E-04   7.39704119E-05  -1.10334426E-04
             1573   1.76996822E-04   1.56327224E-04   1.38309741E-04  -1.03617487E-04
             1574   1.69649240E-04   8.40952271E-05   1.41929253E-04  -7.29739622E-05
             1575  -4.18255740E-06  -6.11153155E-06   4.24770997E-06   7.11142366E-06
             1576   4.04991368E-07   2.70330929E-06  -1.02363011E-07  -1.45533920E-06
             1577  -2.34049785E-05  -9.29344387E-05   1.66681653E-04   1.10456327E-04
             1578  -4.55760106E-04  -6.21983345E-05   1.78578048E-04   1.84607867E-04
             1579   3.87152532E-09  -8.20869983E-10   4.68952488E-10  -1.77507087E-09
             1580  -2.07692787E-11  -2.34533421E-12  -1.24908460E-12   5.62017360E-12
             1581  -1.96273453E-04  -1.03036386E-04   1.72238593E-04   1.77371112E-04
             1582   1.49760686E-04   3.79280304E-04   1.28596846E-04  -1.24908227E-04
             1583   1.28632397E-04   4.72226006E-04   1.22495854E-04  -6.74478506E-05
             1584  -3.94621202E-05  -6.04727647E-05   6.65424013E-05   7.52921114E-05
             1585   5.32662780E-05   2.98960542E-04   4.32668385E-05  -6.35763136E-05
             1586   4.32988418E-05  -3.81452664E-05   3.94906565E-05   1.23716891E-05
             1587   1.26096187E-04  -7.36854281E-06   1.56351642E-04  -5.89888032E-07
             1588   4.43397803E-05  -5.99409541E-05   1.66237733E-04   5.61069173E-05
             1589   6.58993086E-12   1.66356807E-11   2.73162070E-12  -7.58243728E-12
             1590   1.59351315E-04   3.32809286E-04   1.32428540E-04  -1.33799927E-04
             1591  -2.04565929E-08  -1.18316743E-08   9.16986842E-09   1.88309173E-08
             1592   6.29814022E-05   8.15698586E-05   2.21308037E-05  -6.70467125E-05
             1593  -2.44442528E-08  -1.28144406E-09   6.05529937E-09   6.69614808E-09
             1594   8.46887997E-05   3.40285769E-04   6.74256662E-05  -8.56598708E-05
             1595   2.97597799E-05   2.84158850E-05   8.02915292E-06  -2.92689328E-05
             1596   9.09207956E-05   3.94189003E-04   7.98942783E-05  -6.72733440E-05
             1597   4.16696366E-06   1.78091850E-05   5.46791981E-08  -1.07299275E-05
             1598   1.61383592E-04   5.05234821E-05   1.45088226E-04  -5.28584605E-05
             1599   1.01206388E-04  -1.81933356E-05   7.49564060E-05  -2.09153095E-05
             1600  -1.12861409E-04  -1.67319342E-06   2.87212915E-05   1.83876200E-05
             1601   7.86367735E-08  -3.16262287E-07   1.43121213E-07   2.15538748E-07
             1602  -4.73282329E-04  -3.17100239E-05   1.52014371E-04   1.38770454E-04
             1603  -5.25617054E-07  -2.93813969E-06   1.60461445E-06   2.52493737E-06
             1604  -2.74483852E-10  -9.68190892E-12   6.00327704E-11   7.05712017E-11
             1605  -1.18697132E-08   3.04133891E-07  -1.44619889E-08  -6.44837854E-08
             1606   4.28815838E-05  -5.44176401E-05   6.15046229E-05   2.87019648E-05
             1607  -1.28816275E-04  -3.02907920E-05   5.42926973E-05   7.03386540E-05
             1608  -2.79433832E-09  -5.48073897E-09   2.56518162E-09   3.63120978E-09
             1609  -2.36173373E-11  -2.95071953E-11   9.78718061E-12   3.27633025E-11
             1610   2.58917865E-08   2.59210058E-08  -9.67828373E-10  -3.25875007E-08
             1611   1.56466541E-07   3.18316015E-05  -6.70116833E-07  -5.28712098E-06
             1612  -3.75870331E-05  -6.20630453E-06   1.26245295E-05   1.76387075E-05
             1613   5.51318408E-06  -4.98319860E-05   4.28463391E-05   4.14645838E-05
             1614  -7.62184965E-04   1.60858121E-07   1.87840589E-04   4.04011953E-05
             1615  -2.05166657E-07   2.64629421E-06  -1.73713914E-07  -6.37311132E-07
             1616   1.25363804E-04   1.28506986E-06   9.78092357E-05  -2.92627046E-05
             1617   1.50399864E-12   4.91034123E-11  -2.30171481E-12  -1.25775119E-11
             1618  -2.09827090E-06  -8.51943071E-07   8.88730256E-07   1.55903263E-06
             1619  -2.41672948E-09   1.16656963E-07  -6.84494195E-09  -2.67508380E-08
             1620  -1.76276671E-06   5.91451644E-05  -7.60701028E-07  -6.94705250E-06
             1621   2.25211298E-08  -8.80858764E-09   2.43387421E-09  -1.02199422E-08
             1622   1.51013723E-04   2.25812939E-04   1.00103221E-04  -1.27501204E-04
             1623  -1.39050149E-08  -5.57045465E-10   3.45616691E-09   3.52796414E-09
             1624  -2.02878118E-06  -1.11140835E-07   5.35104277E-07   5.82328880E-07
             1625  -6.07270290E-10  -4.04563494E-10   2.88720103E-10   6.03299410E-10
             1626   1.14308047E-08   6.20705620E-09   9.49936588E-11  -1.24701875E-08
             1627   2.99061885E-05   9.94491857E-05   1.03674283E-05  -5.01204340E-05
             1628   1.83230281E-06  -1.57919067E-06   6.91731884E-07   1.84378820E-07
             1629   6.69672590E-05   1.51898072E-04   2.64280898E-05  -8.06354801E-05
             1630   9.90571789E-05   2.00589449E-04   5.71197634E-05  -1.09710607E-04
             1631  -7.83240250E-10  -4.71413429E-11   1.89412611E-10   2.35165387E-10
             1632  -2.04150226E-08   5.00865610E-07  -2.34365363E-08  -1.17596798E-07
             1633   3.41962902E-07   2.01419809E-07   1.82467517E-08  -3.59070782E-07
             1634   9.78207169E-08   4.79047117E-07  -1.94662775E-08  -2.76130521E-07
             1635  -1.90348306E-04  -3.81246682E-05   7.72865969E-05   9.20261809E-05
             1636  -2.35293209E-11   7.64386887E-10  -6.03690153E-11  -2.34607195E-10
             1637   8.49449425E-05   2.69952638E-04   5.66237504E-05  -9.84262515E-05
             1638   3.42658471E-11   1.39248471E-08  -7.76625597E-10  -3.87280696E-09
             1639   9.25651292E-11  -2.25860386E-10   5.65046759E-11   8.50200674E-11
             1640  -2.41860914E-08   5.60265516E-06  -3.05933753E-07  -1.37806171E-06
             1641   1.50611763E-11   6.74460487E-11  -5.98595349E-12  -4.31782145E-11
             1642  -3.30335024E-04  -8.47524934E-05   1.80526942E-04   1.89688144E-04
             1643  -4.16463212E-04  -1.66163227E-05   1.20652468E-04   1.13154420E-04
             1644  -5.49524430E-06  -2.97786556E-07   1.48809022E-06   1.47355604E-06
             1645   1.05257391E-06   1.67505917E-07   1.11016703E-07  -8.32706917E-07
             1646  -2.48982651E-05  -8.31650323E-05   1.50260399E-04   1.00586331E-04
             1647  -3.36124504E-04  -4.90950406E-05   1.25135688E-04   1.41975586E-04
             1648   1.58965286E-05   1.93583284E-04   1.38837677E-05  -2.43747272E-05
             1649  -1.62631728E-10  -7.16005597E-12   3.15160120E-11   3.82032808E-11
             1650  -7.28558443E-05  -1.04759849E-04   1.68227620E-04   1.33489899E-04
             1651  -2.44386067E-09  -2.05706646E-10   6.06546924E-10   7.72533981E-10
             1652   4.75812783E-07   9.46928481E-07  -1.07548939E-08  -8.07387380E-07
             1653   3.90695462E-11  -6.22217278E-11   1.49350862E-11   2.22292428E-11
             1654   1.24746857E-05   4.41174307E-05   1.89971388E-06  -2.48563883E-05
             1655   8.53441484E-10   1.48655388E-09  -9.02455541E-11  -1.47124091E-09
             1656  -3.79216799E-04   8.05560035E-07   9.42434199E-05   9.65143045E-06
             1657   1.38298055E-04   1.05356237E-04   8.12337094E-05  -9.12475225E-05
             1658  -3.94931192E-07  -3.16116981E-08   1.04250830E-07   1.28863164E-07
             1659   2.57408628E-05   4.91937408E-06   6.48837113E-06  -1.72721757E-05
             1660   2.50898502E-09   1.74108337E-08  -8.47494075E-10  -9.31566291E-09
             1661  -4.60394570E-12   1.47543339E-10  -1.35399487E-11  -3.44528364E-11
             1662   1.50157632E-06   7.02270927E-06  -1.51517312E-07  -3.66264840E-06
             1663  -6.26478106E-11   4.06229361E-09  -2.49380128E-10  -9.88513937E-10
             1664   7.83460127E-05   1.39696640E-04   3.38093305E-05  -8.43013913E-05
             1665  -2.05961078E-05  -8.07543699E-07   5.31037176E-06   4.31896660E-06
             1666   6.76348354E-05   3.60026257E-04   5.92290889E-05  -4.79738083E-05
             1667   1.72665168E-04   2.55707739E-04   1.27523759E-04  -1.30276443E-04
             1668   8.83657592E-08   1.30656105E-07  -3.30883942E-09  -1.34022585E-07
             1669   1.77654962E-04   1.87629863E-04   1.33419468E-04  -1.14803144E-04
             1670   5.48320722E-10  -5.42675016E-10   1.73743159E-10   6.20218599E-11
             1671  -5.97554666E-04  -3.06292022E-05   1.87279176E-04   1.47512867E-04
             1672   1.06844804E-04  -1.88290069E-05   1.63250268E-04   6.28222733E-06
             1673   7.73107273E-11  -2.99391900E-11   7.27218936E-12  -5.02562610E-11
             1674   2.55387222E-09   1.70554360E-09   1.12649586E-11  -2.63793387E-09
             1675  -3.67675568E-07  -2.05920372E-07   1.70119193E-07   3.26712637E-07
             1676  -1.34852617E-05  -6.47300908E-07   3.52581696E-06   2.75426441E-06
             1677  -1.48297954E-11  -1.48361878E-12  -2.83928827E-12   3.58500729E-12
             1678  -5.86069829E-04  -1.18472590E-05   1.62404292E-04   9.24818305E-05
             1679   2.78543355E-10   9.24662291E-10  -5.07193107E-11  -6.67138289E-10
             1680   1.06447686E-07   1.06828901E-09   9.55668344E-09  -7.38857153E-08
             1681  -6.46277113E-06  -2.16700960E-06   2.39917154E-06   3.64687594E-06
             1682   1.14980212E-04   4.31541092E-04   1.04791376E-04  -7.84309959E-05
             1683  -7.62327890E-09  -3.97567979E-10   1.95895566E-09   1.98867078E-09
             1684   1.23306221E-04   5.05726202E-04   1.24842452E-04  -1.16565552E-05
             1685   1.15280855E-04   3.95701703E-04   9.98247197E-05  -9.76154552E-05
             1686   2.63718402E-06   2.52058690E-05  -2.86026108E-07  -1.17742666E-05
             1687   2.29722456E-11   2.04558870E-10  -1.76786329E-11  -7.56160343E-11
             1688   1.01666028E-05   9.26068969E-05   3.70069984E-06  -2.95611844E-05
             1689  -5.93239602E-05  -7.52835549E-05   1.08044951E-04   1.16967931E-04
             1690  -7.83742255E-12  -1.08995703E-11   9.68410139E-13   1.82137708E-11
             1691  -5.94581131E-08  -3.87204899E-08   2.69749201E-08   5.22073584E-08
             1692   4.15695343E-12   2.42408368E-11   3.49010404E-12  -5.10860017E-12
             1693   7.63421531E-12  -1.03410910E-12  -8.03587448E-13  -4.84574533E-12
             1694   1.82227654E-06   2.05946989E-07   2.36061467E-07  -1.30904311E-06
             1695  -3.24790889E-11   2.37676900E-09  -1.45162243E-10  -5.97558281E-10
             1696  -2.47235643E-04  -4.50960652E-05   1.07328036E-04   1.13642549E-04
             1697   9.64703868E-05   3.34264652E-04   7.51124753E-05  -9.92346540E-05
             1698   6.21391519E-05   5.14233034E-06   2.45090378E-05  -3.21829466E-05
             1699   3.74149245E-08  -2.83753678E-08   1.07479901E-08   1.85176086E-09
             1700   3.74997949E-12   4.60478496E-11  -3.16177640E-12  -1.97536050E-11
             1701   1.04109790E-06  -1.59867832E-05   1.07708356E-05   1.32964988E-05
             1702   3.47410468E-11  -2.12700300E-13  -1.13837347E-12  -2.49577442E-11
             1703   1.10483554E-04   3.28727940E-04   8.50722136E-05  -1.10097608E-04
             1704   2.63036402E-08  -7.02460383E-08   2.64519855E-08   5.67089273E-08
             1705   5.45240075E-10  -2.21784524E-09   8.91607510E-10   1.91533700E-09
             1706   5.84585635E-12  -1.47278890E-12  -1.91740517E-13  -1.44395119E-12
             1707   2.86803115E-05  -1.78067985E-05   1.50876185E-05   1.60763761E-07
             1708  -6.55743992E-12  -5.14815838E-12  -2.30819465E-12   5.26152255E-12
             1709   1.83366708E-07  -2.20058070E-08   2.45084379E-08  -1.03913223E-07
             1710  -8.07321779E-11  -8.02491129E-11   3.90468075E-11   1.11513888E-10
             1711   1.02127233E-04   4.69552004E-04   1.02425700E-04  -1.14338764E-05
             1712   4.53463181E-05   3.39572784E-04   4.60112715E-05  -1.87942023E-05
             1713   1.55214584E-04   1.22820711E-04   1.15767878E-04  -9.13622207E-05
             1714  -3.42719519E-04  -6.75335614E-05   1.55378919E-04   1.66635349E-04
             1715   1.53282134E-08   8.76889743E-08  -4.56130778E-09  -4.64643648E-08
             1716   1.11433319E-11   2.92872237E-12  -7.21631630E-13  -7.38516540E-12
             1717  -5.11807448E-05  -1.45031095E-06   1.26847062E-05   3.87858745E-06
             1718   1.31754623E-05  -1.79106792E-08   2.98295913E-06  -8.08552340E-06
             1719  -9.85546297E-11  -2.01766867E-11   2.28000726E-11   7.06825640E-11
             1720   2.29716091E-09   6.11280093E-09  -2.59185617E-10  -4.57579175E-09
             1721   4.39729738E-05   3.13624405E-05   1.24672670E-05  -4.01701145E-05
             1722   1.02119047E-04   4.43583122E-04   9.73496790E-05  -5.20937429E-05
             1723  -2.59031745E-04  -7.80614064E-05   1.53438101E-04   1.75694498E-04
             1724  -1.28437619E-04  -1.26917857E-05   4.08313317E-05   4.39019896E-05
             1725  -3.76827738E-05  -3.13737728E-05   3.39368635E-05   4.65022604E-05
             1726  -2.35617317E-05  -2.31157719E-05   2.18962196E-05   3.18762432E-05
             1727  -1.53977126E-05  -5.37095866E-06   6.24567929E-06   1.00036768E-05
             1728  -2.72029776E-09  -1.29145172E-09   1.01617625E-09   2.18094520E-09
             1729  -4.16183710E-09   1.86126272E-07  -9.16401888E-09  -3.83285546E-08
             1730   1.61854488E-10   9.60906216E-11  -3.52412544E-12  -1.68400321E-10
             1731   1.25324703E-04  -9.53454764E-06   1.28374857E-04  -1.03021212E-05
             1732   4.61569357E-07  -2.26042900E-07   1.03212450E-07  -1.26773699E-07
             1733  -1.11072836E-06   4.59496878E-05  -8.20936350E-07  -2.15270711E-06
             1734   1.93327195E-11  -2.08946714E-11   2.79692784E-12   5.27275229E-12
             1735  -2.04599296E-10  -6.56816268E-11   6.10837422E-11   8.02395234E-11
             1736   4.85515739E-10   3.10462522E-09  -1.81059154E-10  -1.27202626E-09
             1737  -7.10125335E-07   2.29516354E-05  -5.60520732E-07  -1.36666154E-06
             1738  -6.72859605E-04  -6.23407061E-07   1.66141981E-04   3.38379832E-05
             1739   2.90567605E-05   4.28593739E-05   6.71050657E-06  -3.54570911E-05
             1740   3.68584469E-10   1.91616431E-10   2.81199630E-12  -3.50422691E-10
             1741   1.57272501E-04   6.36589029E-05   1.20029363E-04  -7.34444548E-05
             1742  -7.19473697E-04  -6.34970411E-06   1.90905135E-04   8.48170894E-05
             1743  -1.57136870E-09   7.23382954E-08  -4.92378094E-09  -1.89309173E-08
             1744   7.69106628E-05   4.13929811E-04   7.56917289E-05  -4.39157920E-05
             1745   5.68362157E-05   3.88458866E-04   5.99045052E-05  -5.88493094E-06
             1746   4.16701269E-08  -5.44091847E-07   2.57973710E-07   4.35511993E-07
             1747   9.25334825E-05   1.20157783E-05   5.47868440E-05  -5.24084171E-05
             1748   1.86021025E-11   1.15930711E-11  -2.04002765E-12  -2.00126617E-11
             1749  -5.15963183E-09  -1.70223347E-09   1.87340476E-09   3.33023897E-09
             1750   6.79039547E-10  -1.41794632E-11   3.60696438E-11  -4.89841001E-10
             1751  -1.15677693E-04  -9.79489269E-05   1.46343766E-04   1.37345181E-04
             1752  -1.05265608E-04  -6.27948757E-05   8.06624448E-05   9.82101483E-05
             1753   8.94172236E-12   1.44515381E-11  -5.68054718E-13  -1.23242250E-11
             1754  -2.63402353E-06  -9.67404230E-06   6.61492686E-06   9.45612919E-06
             1755   9.62183133E-13  -5.66560991E-12  -1.49037282E-12   3.07608734E-12
             1756   8.19415945E-05   5.39848297E-05   3.36203484E-05  -6.56505217E-05
             1757   1.25871884E-04   2.67156080E-04   8.55475882E-05  -1.22185171E-04
             1758  -5.10057108E-09  -3.00269889E-08   1.22709904E-08   1.89751130E-08
             1759   1.71299791E-04   1.24221508E-04   1.40921693E-04  -8.91848031E-05
             1760   3.79101448E-06   1.11784575E-04   3.39446729E-06  -1.74569432E-05
             1761   1.23837075E-04   4.99108748E-04   1.23630787E-04  -2.43366740E-05
             1762  -3.19119048E-04  -2.58729015E-05   9.95335067E-05   9.63113707E-05
             1763  -7.01297904E-05  -2.57172132E-06   2.16068638E-05   2.40830559E-05
             1764   2.49664913E-06   1.28757356E-05  -3.32521175E-08  -6.74887087E-06
             1765   1.36746094E-04   4.50413005E-04   1.25966049E-04  -8.85422269E-05
             1766   1.46503432E-08   2.11064076E-07  -1.04946771E-08  -8.78654092E-08
             1767   4.10762586E-05   2.51462334E-04   2.94539768E-05  -5.81008571E-05
             1768  -1.06280077E-05  -1.80431789E-06   3.28766941E-06   3.74672140E-06


