********************************************************************************
Field Output Report, written Mon Oct  3 11:03:08 2016

Source 1
---------

   ODB: /home/lcharleux/Documents/Programmation/Python/Modules/argiope/doc/abq/abqpostproc/workdir/indentation_demo.odb
   Step: LOADING2
   Frame: Increment     50: Step Time =    1.000

Loc 1 : Nodal values from source 1

Output sorted by column "Node Label".

Field Output reported at nodes for part: I_SAMPLE
   Computation algorithm: EXTRAPOLATE_COMPUTE_AVERAGE
   Averaged at nodes
   Averaging regions: ODB_REGIONS

             Node            S.S11            S.S22            S.S33            S.S12
            Label           @Loc 1           @Loc 1           @Loc 1           @Loc 1
--------------------------------------------------------------------------------------
                1  -1.06995655E-02  -1.10354461E-03  -1.11075323E-02  -1.15791266E-03
                2   1.69242034E-03  -1.19316624E-03   1.75584224E-03   3.59701880E-06
                3   1.56270195E-04   4.75079694E-04   6.05170266E-04   5.06185934E-05
                4  -5.99346962E-03   2.02323790E-04   1.74105528E-03   2.28122488E-04
                5   1.41266384E-04   5.30052406E-04   1.41438562E-04  -1.28338888E-05
                6  -8.66693328E-04   6.84850511E-06   2.08622878E-04   2.53526723E-05
                7   5.77966208E-09   2.12570015E-08   4.84756635E-09  -7.98278665E-10
                8  -1.25403918E-08  -3.09563508E-09  -3.67364184E-09  -2.55946042E-10
                9  -1.14775617E-02  -1.58133474E-03  -1.11646317E-02  -1.31410465E-03
               10  -1.21918144E-02  -1.94346090E-03  -1.18951127E-02   2.71220168E-04
               11  -1.02998894E-02  -3.09563545E-03  -1.07086599E-02  -3.53518873E-04
               12  -9.39466991E-03  -2.35683285E-03  -9.27968509E-03  -7.27826700E-05
               13  -8.95995367E-03  -2.36610789E-03  -8.95119272E-03  -3.28778173E-04
               14  -8.49359110E-03  -2.60744989E-03  -8.46387818E-03  -1.10685258E-04
               15  -7.81982485E-03  -2.97003658E-03  -7.78086856E-03  -2.34482388E-04
               16  -6.99884212E-03  -3.29562579E-03  -6.98034186E-03  -5.99176565E-05
               17  -5.99294063E-03  -3.46944667E-03  -5.96804498E-03  -1.03134684E-04
               18  -4.83882800E-03  -3.45696718E-03  -4.84483968E-03   5.53149039E-06
               19  -3.55334254E-03  -3.22823087E-03  -3.55103286E-03  -1.53043329E-05
               20  -2.18817079E-03  -2.83309538E-03  -2.19990220E-03   3.78837467E-05
               21  -7.97373184E-04  -2.31458130E-03  -8.03208502E-04   2.57092797E-05
               22   5.76446124E-04  -1.72427460E-03   5.50178869E-04   4.05385690E-05
               23   1.72554865E-03  -1.20266562E-03   1.75194768E-03   1.40035088E-04
               24   1.72274141E-03  -1.15520356E-03   1.76488317E-03   2.95924314E-04
               25   1.74379558E-03  -1.13735371E-03   1.82655011E-03   4.42198187E-04
               26   1.74243446E-03  -1.03688729E-03   1.86364574E-03   5.87894290E-04
               27   1.73088000E-03  -9.16502671E-04   1.90990616E-03   7.21137214E-04
               28   1.70907727E-03  -7.86076940E-04   1.96731207E-03   8.47610063E-04
               29   1.65063376E-03  -6.44526561E-04   2.02991441E-03   9.60312667E-04
               30   1.57109578E-03  -5.08844852E-04   2.08226079E-03   1.08149089E-03
               31   1.45008299E-03  -2.57087086E-04   2.02702545E-03   1.14070822E-03
               32   1.31352281E-03  -2.60290362E-05   1.96563080E-03   1.17231114E-03
               33   1.18178444E-03   1.64340643E-04   1.90110074E-03   1.17538613E-03
               34   1.03788218E-03   3.17868660E-04   1.81325281E-03   1.15698983E-03
               35   9.09808034E-04   4.19429562E-04   1.72078703E-03   1.12302485E-03
               36   7.79807102E-04   5.35555184E-04   1.63850607E-03   1.07165938E-03
               37   6.58663979E-04   6.54538278E-04   1.55900279E-03   1.00842502E-03
               38   5.55631937E-04   7.55585497E-04   1.48035528E-03   9.30374197E-04
               39   4.78977017E-04   8.17150343E-04   1.40255841E-03   8.50187964E-04
               40   4.08898457E-04   8.61805980E-04   1.32661872E-03   7.67105841E-04
               41   3.47133551E-04   8.93836666E-04   1.25341234E-03   6.84951723E-04
               42   2.93978519E-04   9.15341196E-04   1.18500891E-03   6.03487832E-04
               43   2.54858984E-04   9.16917401E-04   1.12009025E-03   5.23375988E-04
               44   2.23314506E-04   9.04937042E-04   1.05534052E-03   4.46329737E-04
               45   1.99735528E-04   8.81484302E-04   9.90521279E-04   3.73386109E-04
               46   1.81875599E-04   8.46830313E-04   9.29857895E-04   3.07479466E-04
               47   1.69850158E-04   8.04348616E-04   8.76115868E-04   2.53229809E-04
               48   1.61528951E-04   7.57880742E-04   8.25225841E-04   2.01058661E-04
               49   1.56328097E-04   7.05704850E-04   7.75990542E-04   1.57168353E-04
               50   1.53661706E-04   6.50232716E-04   7.30351079E-04   1.20840712E-04
               51   1.52693901E-04   5.92990313E-04   6.87823456E-04   9.12137693E-05
               52   1.53275570E-04   5.35074039E-04   6.47464709E-04   6.70349255E-05
               53   9.94613220E-05   4.95636719E-04   6.68471039E-04   7.12087713E-05
               54   2.18438618E-05   5.39621338E-04   7.65934412E-04   1.01416575E-04
               55  -6.82299287E-05   5.70520584E-04   8.53451551E-04   1.34362504E-04
               56  -1.68011073E-04   5.98296756E-04   9.54581017E-04   1.70164305E-04
               57  -2.79217085E-04   5.99886349E-04   1.05733878E-03   2.05905177E-04
               58  -4.64799436E-04   5.73635625E-04   1.14703178E-03   2.11610022E-04
               59  -6.99640776E-04   5.90384589E-04   1.30693906E-03   2.31611717E-04
               60  -9.59729834E-04   5.23505150E-04   1.42256008E-03   2.77335639E-04
               61  -1.30297651E-03   4.22696408E-04   1.53199676E-03   3.34525859E-04
               62  -1.76065147E-03   2.98844127E-04   1.62682764E-03   4.22501471E-04
               63  -2.36593792E-03   1.65459758E-04   1.69981318E-03   5.31684491E-04
               64  -3.17497831E-03   8.29139899E-05   1.75521022E-03   6.13517419E-04
               65  -4.17928258E-03   4.48769460E-05   1.78262102E-03   5.87689457E-04
               66  -5.24085667E-03  -3.81127757E-06   1.76303857E-03   4.11970541E-04
               67  -6.57378370E-03   2.60501925E-04   1.96122308E-03   2.09554288E-04
               68  -7.10843783E-03   3.19088111E-04   2.19738856E-03   2.20524351E-04
               69  -7.67141860E-03   3.93086200E-04   2.47767777E-03   2.01441289E-04
               70  -8.16566125E-03   5.13999257E-04   2.64392863E-03   6.81106758E-05
               71  -8.49632546E-03   5.83508052E-04   2.22979439E-03  -1.74175249E-04
               72  -8.90214182E-03   6.50001573E-04   1.51511864E-03  -3.38825950E-04
               73  -9.25155729E-03   6.64964202E-04   8.69413721E-04  -3.55900818E-04
               74  -9.53041762E-03   6.40835031E-04   3.11527372E-04  -4.23451216E-04
               75  -9.71767493E-03   6.79385033E-04  -1.79182200E-04  -5.18511049E-04
               76  -9.82150063E-03   7.60626397E-04  -5.66632138E-04  -6.67039654E-04
               77  -9.94517840E-03   9.42835119E-04  -7.25924678E-04  -8.03276140E-04
               78  -9.91675630E-03   1.24002213E-03  -5.71877463E-04  -8.98455735E-04
               79  -9.65216011E-03   1.67888170E-03   2.15446926E-06  -1.01206824E-03
               80  -9.19445977E-03   2.00726371E-03   1.14358682E-03  -1.13059278E-03
               81  -7.87631795E-03   2.51531508E-03   1.59204844E-03  -3.36411409E-03
               82  -4.50708857E-03   7.27110193E-04  -9.79939010E-04  -5.13695646E-03
               83  -2.72685848E-03  -2.74350028E-03  -2.97835469E-03  -5.30505367E-03
               84  -2.60280306E-03  -3.86641966E-03  -2.66045891E-03  -3.77705647E-03
               85  -2.41636392E-03  -2.94799451E-03  -1.65121129E-03  -1.59095763E-03
               86  -2.05512298E-03  -1.82293099E-03  -2.00732565E-03  -9.81595134E-04
               87  -2.08272925E-03  -1.49673235E-03  -2.95107439E-03  -1.06879242E-03
               88  -2.44265748E-03  -1.33170979E-03  -3.85530014E-03  -1.14965823E-03
               89  -2.96153105E-03  -1.24570599E-03  -4.73258737E-03  -1.27125706E-03
               90  -3.59126716E-03  -1.19048241E-03  -5.63589856E-03  -1.41749135E-03
               91  -4.31508292E-03  -1.16239022E-03  -6.63213246E-03  -1.60616776E-03
               92  -5.12376800E-03  -1.15868519E-03  -7.77705247E-03  -1.83994253E-03
               93  -6.04652474E-03  -1.16108218E-03  -9.19185858E-03  -2.11948855E-03
               94  -6.97855745E-03  -1.01943384E-03  -1.10322628E-02  -2.71547958E-03
               95  -8.02702829E-03  -1.60360045E-03  -1.14130760E-02  -3.10895080E-03
               96  -9.85419843E-03  -1.95434736E-03  -1.05089741E-02  -3.05894623E-03
               97   1.94170815E-03  -6.30193274E-04   1.95942493E-03   7.79446927E-05
               98   1.57037517E-03  -1.66179743E-04   1.56241120E-03   1.25367314E-05
               99   1.28563005E-03   1.17141331E-04   1.32439891E-03  -6.00392195E-06
              100   1.06510299E-03   2.91515375E-04   1.07465894E-03   4.50998414E-06
              101   8.12804501E-04   4.73450113E-04   8.21071095E-04   1.18698681E-05
              102   6.81969104E-04   5.50786324E-04   6.63067680E-04  -1.35211794E-05
              103   5.64282236E-04   6.11139811E-04   5.59880224E-04  -9.82914480E-06
              104   4.63437464E-04   6.35029864E-04   4.67436737E-04  -1.40345892E-05
              105   3.84119892E-04   6.36652228E-04   3.86724831E-04  -1.13882597E-05
              106   3.21871310E-04   6.33662625E-04   3.26996495E-04  -1.33935073E-05
              107   2.65084964E-04   6.14886754E-04   2.65105569E-04  -1.20356144E-05
              108   2.02577474E-04   5.92971861E-04   2.06790748E-04  -1.20037730E-05
              109   1.65781486E-04   5.56302257E-04   1.65239049E-04  -9.77241325E-06
              110   1.41511526E-04   5.27490978E-04   1.41438315E-04  -1.96541660E-05
              111   1.44090882E-04   5.19094872E-04   1.41385623E-04  -3.77963443E-05
              112   1.50493157E-04   5.16470056E-04   1.47506071E-04  -5.40541369E-05
              113   1.49838612E-04   5.00870694E-04   1.45267972E-04  -6.97044306E-05
              114   1.56371825E-04   4.81120893E-04   1.45938960E-04  -8.32141523E-05
              115   1.61333475E-04   4.60749376E-04   1.46955004E-04  -9.73140122E-05
              116   1.65337697E-04   4.41033510E-04   1.49165440E-04  -1.09538138E-04
              117   1.71595646E-04   4.15270741E-04   1.50974374E-04  -1.20921075E-04
              118   1.75970345E-04   3.84898449E-04   1.51209300E-04  -1.29828273E-04
              119   1.83593758E-04   3.47886205E-04   1.52261724E-04  -1.32258545E-04
              120   1.87543046E-04   3.08791117E-04   1.54710535E-04  -1.33319947E-04
              121   1.88278180E-04   2.68152769E-04   1.57363131E-04  -1.27189967E-04
              122   1.90237741E-04   2.20664471E-04   1.59122414E-04  -1.18302589E-04
              123   1.89283630E-04   1.72497501E-04   1.60911353E-04  -1.03614657E-04
              124   1.85602898E-04   1.26278086E-04   1.63365126E-04  -8.49053176E-05
              125   1.75287016E-04   8.52366793E-05   1.67091654E-04  -6.87703287E-05
              126   1.57031478E-04   4.65078556E-05   1.70415078E-04  -4.42002274E-05
              127   1.36661445E-04   4.51524147E-06   1.72353612E-04  -1.58982330E-05
              128   1.06423278E-04  -2.82527617E-05   1.75791472E-04   1.78199352E-05
              129   6.49801659E-05  -5.93496443E-05   1.87738362E-04   5.97180151E-05
              130   5.62866626E-06  -8.38757769E-05   1.86868856E-04   1.01059108E-04
              131  -5.52891179E-05  -1.00915509E-04   1.90834500E-04   1.39127602E-04
              132  -1.24243641E-04  -1.10928340E-04   1.95104541E-04   1.70772502E-04
              133  -2.03686446E-04  -1.12438443E-04   2.00059716E-04   1.96706605E-04
              134  -2.97347637E-04  -1.04057108E-04   2.05954217E-04   2.12784522E-04
              135  -3.94228846E-04  -9.04751214E-05   2.10517319E-04   2.21093534E-04
              136  -4.89043305E-04  -7.36910515E-05   2.12205880E-04   2.17053632E-04
              137  -5.81242552E-04  -5.57599597E-05   2.10969636E-04   1.96036388E-04
              138  -6.89148961E-04  -3.74776828E-05   2.17455017E-04   1.75425012E-04
              139  -7.62988930E-04  -1.76639078E-05   2.11374892E-04   1.24651284E-04
              140  -8.28708406E-04  -5.69590384E-06   2.09558988E-04   6.18699924E-05
              141  -9.77756572E-04   1.02842896E-05   2.38313572E-04   1.21430985E-05
              142  -1.11157470E-03   1.58976800E-05   2.70250399E-04  -2.47613934E-06
              143  -1.26869546E-03   2.28326244E-05   3.06769973E-04   5.66287781E-07
              144  -1.45766395E-03   3.27370144E-05   3.54038959E-04   1.69537416E-05
              145  -1.66890584E-03   2.74802951E-05   4.12969239E-04   4.75734887E-05
              146  -1.91700249E-03   2.20772290E-05   4.79005917E-04  -7.82292773E-07
              147  -2.19560321E-03   3.56188029E-05   5.53207705E-04  -2.07152298E-05
              148  -2.51206476E-03   5.03834599E-05   6.41281251E-04  -1.36560484E-05
              149  -2.90537905E-03   6.61282247E-05   7.54511799E-04   6.75997217E-06
              150  -3.41169955E-03   8.50372162E-05   9.03365784E-04   1.02048805E-04
              151  -3.95892793E-03   7.36132060E-05   1.08580128E-03   1.96512497E-04
              152  -4.57095820E-03   7.15989736E-05   1.28322898E-03   1.65853155E-04
              153  -5.29602868E-03   1.28732339E-04   1.50643522E-03   1.47816667E-04
              154   1.18928758E-04   5.01165166E-04   1.19739125E-04  -8.72942564E-06
              155   9.88807151E-05   4.55132074E-04   9.51961702E-05  -5.42388852E-06
              156   7.58531387E-05   4.09947243E-04   7.14963389E-05  -9.67165124E-06
              157   4.95144159E-05   3.52357834E-04   4.83636177E-05  -1.25110419E-05
              158   2.92167060E-05   2.93089164E-04   3.04023743E-05  -1.33471513E-05
              159   2.37695913E-05   2.44282855E-04   2.06402328E-05  -6.29597434E-06
              160   1.71924185E-05   1.96481516E-04   1.20912082E-05  -1.10905885E-05
              161   8.31526449E-06   1.58206414E-04   6.03107765E-06  -1.06369171E-05
              162   4.82260930E-06   1.18911710E-04   2.70372220E-06  -6.94380105E-06
              163   3.47843616E-06   8.52937737E-05   8.70611586E-07  -6.07741231E-06
              164   1.15545184E-07   5.54417456E-05   1.45366769E-07  -4.73880982E-06
              165  -1.69137161E-06   3.73157018E-05  -3.36002699E-07  -1.13409374E-06
              166  -9.06576190E-07   2.69904376E-05  -7.28605698E-07  -2.42293390E-06
              167  -1.67199403E-07   1.78052196E-05  -5.21660127E-07  -1.05661059E-06
              168  -1.59324429E-08   1.08468321E-05  -4.25033988E-07  -1.48750644E-06
              169  -4.04226427E-07   7.44714771E-06  -4.48686393E-07  -7.40691007E-07
              170  -1.62435384E-07   4.70984924E-06  -3.52656684E-07  -3.66615382E-07
              171  -1.08734234E-07   2.99230442E-06  -2.60086267E-07  -2.52994965E-07
              172   1.91492742E-08   1.78531275E-06  -1.42917941E-07  -2.45929712E-08
              173   3.15696980E-09   1.05690015E-06  -8.76372184E-08  -1.56096291E-07
              174  -1.91415790E-08   6.49443962E-07  -6.18194136E-08  -3.87655525E-08
              175  -1.39283518E-08   3.25674534E-07  -2.06639772E-08  -4.56521470E-08
              176  -2.72795582E-08   1.90805665E-07  -8.53399307E-09  -4.79448214E-09
              177  -8.67420447E-09   1.13402379E-07  -8.31962055E-09  -6.34613606E-09
              178  -2.72587841E-09   7.20979045E-08  -5.39916822E-09  -9.59181889E-09
              179  -2.06969686E-09   4.54833042E-08  -2.83251844E-09  -3.64678998E-09
              180   3.08853898E-09   2.87072002E-08   2.09919104E-09  -3.16784865E-09
              181   6.21559115E-09   1.86251619E-08   4.49486404E-09  -3.36668671E-09
              182   6.94885927E-09   1.29223094E-08   3.73805875E-09  -4.54797178E-09
              183   6.60849597E-09   6.96439750E-09   2.61384869E-09  -4.28079172E-09
              184   4.92498664E-09  -5.58276758E-10   4.10566747E-10  -1.23810862E-09
              185  -1.09097353E-09  -4.34415393E-09  -1.64320890E-09   2.03747463E-09
              186  -6.72328770E-09  -5.12908160E-09  -3.08183590E-09   3.37230155E-09
              187  -1.10381091E-08  -3.87932753E-09  -3.61540664E-09   2.49403920E-09
              188  -1.67747061E-08  -7.04888592E-10  -2.71989342E-09   1.66796521E-09
              189  -2.56910635E-08   6.31339425E-12  -8.24696311E-10   3.48512152E-09
              190  -4.29621423E-08   4.98200370E-10   2.06259965E-09   4.39036185E-09
              191  -7.18764142E-08   1.26142496E-09   7.67833974E-09   6.34687769E-09
              192  -1.21774747E-07   2.04500372E-09   1.83428313E-08   1.11127214E-08
              193  -2.10457316E-07  -4.35851355E-10   3.89793939E-08   2.80839032E-08
              194  -3.54771942E-07  -4.12122647E-09   8.02518656E-08   3.93777242E-08
              195  -5.98309555E-07  -2.49189167E-08   1.42947272E-07   7.12647008E-08
              196  -1.05877166E-06  -2.91419866E-08   2.40164610E-07   1.07507006E-07
              197  -1.75722039E-06  -4.72121613E-08   4.14448948E-07   1.79808097E-07
              198  -2.89583022E-06  -8.97024179E-08   6.97791165E-07   2.81966521E-07
              199  -4.81796724E-06  -1.41508337E-07   1.14673639E-06   4.36400995E-07
              200  -7.63150092E-06  -1.34727969E-07   1.85193687E-06   6.31955913E-07
              201  -1.19892775E-05  -9.90871172E-08   2.85599253E-06   9.28572035E-07
              202  -1.89686434E-05   1.14340367E-07   4.54772726E-06   1.59900765E-06
              203  -2.85279239E-05  -5.67932545E-07   7.06037827E-06   3.26635495E-06
              204  -4.47230705E-05  -1.41837660E-07   1.06249227E-05   1.53487304E-06
              205  -6.63690662E-05   2.80746292E-07   1.57922404E-05   6.37531411E-06
              206  -9.59156605E-05  -8.45996226E-07   2.27776291E-05   8.30246972E-06
              207  -1.38313393E-04  -4.45682929E-07   3.22558044E-05   8.15694966E-06
              208  -1.90698076E-04   6.69604105E-08   4.44849429E-05   1.14623945E-05
              209  -2.55965919E-04   3.11060830E-06   5.85470734E-05   1.33098447E-05
              210  -3.24554770E-04  -2.36880237E-06   8.20488349E-05   2.99548647E-05
              211  -4.25257022E-04  -4.42755027E-06   1.06131090E-04   2.04988810E-05
              212  -5.29569341E-04  -3.12756538E-06   1.28450833E-04   1.84452729E-05
              213  -6.42769854E-04  -3.65088397E-07   1.52850494E-04   2.01068924E-05
              214  -7.58797512E-04   4.02397063E-06   1.79888637E-04   2.01325747E-05
              215  -1.08585488E-02  -1.55169994E-03  -1.15036452E-02  -1.66416995E-03
              216  -9.73288435E-03  -1.19478663E-03  -1.18559953E-02  -1.30084029E-03
              217  -8.98337923E-03  -5.17821230E-04  -1.11687956E-02  -1.17003755E-03
              218  -8.22188985E-03  -4.28986910E-04  -9.72583797E-03  -1.02215784E-03
              219  -7.63369678E-03  -2.90341442E-04  -8.59359186E-03  -9.36961209E-04
              220  -7.11692683E-03  -1.72937842E-04  -7.67344423E-03  -9.00108134E-04
              221  -6.68263249E-03  -1.12688329E-04  -6.90804515E-03  -8.92294571E-04
              222  -6.33850554E-03  -1.18405078E-04  -6.23707939E-03  -9.33576608E-04
              223  -6.08675973E-03  -2.47179065E-04  -5.64135564E-03  -1.06938358E-03
              224  -5.93706500E-03  -5.85351139E-04  -5.13883960E-03  -1.38331822E-03
              225  -5.87813184E-03  -1.20557495E-03  -4.94823698E-03  -1.96906668E-03
              226  -5.92472171E-03  -1.55331520E-03  -5.41520491E-03  -2.51036650E-03
              227  -6.04251586E-03  -1.34689989E-03  -5.92077523E-03  -2.27967044E-03
              228  -5.53070428E-03  -1.68070558E-03  -4.96205874E-03  -1.13981939E-03
              229  -5.88519685E-03  -3.05317604E-04  -3.43224453E-03  -1.83117425E-03
              230  -5.07066352E-03   5.59014370E-06  -2.05093296E-03  -2.79365899E-03
              231  -5.91218285E-03   6.88767410E-04  -1.00093079E-03  -2.93193967E-03
              232  -6.78237434E-03   5.90242737E-04  -5.53396763E-04  -2.41686776E-03
              233  -7.58332107E-03   4.93110623E-04  -2.05803983E-04  -1.80201384E-03
              234  -8.20329692E-03   4.41538461E-04   2.96243146E-04  -1.24674011E-03
              235  -8.61414336E-03   4.08301596E-04   9.22567036E-04  -8.32971476E-04
              236  -8.68105236E-03   3.22185311E-04   1.47743011E-03  -5.34389052E-04
              237  -8.59159045E-03   2.87984556E-04   2.05695187E-03  -2.81120534E-04
              238  -8.34942888E-03   2.75534694E-04   2.68574781E-03  -2.44205967E-05
              239  -7.98031781E-03   2.17987035E-04   3.04445834E-03   1.99312519E-04
              240  -7.47607462E-03   1.65372825E-04   3.08337668E-03   3.18957347E-04
              241  -6.87091192E-03   1.14749782E-04   2.85211066E-03   3.38854559E-04
              242  -6.40005618E-03   5.11064500E-05   2.50605773E-03   3.61822080E-04
              243  -5.99283865E-03   1.33327849E-05   2.22618342E-03   3.83903389E-04
              244  -5.60549786E-03  -3.98938573E-06   1.98906311E-03   3.94737115E-04
              245  -1.15828719E-02  -2.04525958E-03  -1.21304411E-02  -1.94531909E-04
              246  -1.10029792E-02  -1.82862382E-03  -1.16767660E-02  -3.45693144E-04
              247  -1.05816778E-02  -1.04717328E-03  -1.10477470E-02  -2.32355582E-04
              248  -1.01652276E-02  -6.09399634E-04  -1.04234973E-02  -3.33761738E-04
              249  -9.81396623E-03  -5.51808975E-04  -9.74831730E-03  -4.73476190E-04
              250  -9.56513453E-03  -5.02700335E-04  -9.24523175E-03  -5.90635696E-04
              251  -9.39063728E-03  -5.28392731E-04  -8.83044582E-03  -7.43847049E-04
              252  -9.28934105E-03  -6.65804197E-04  -8.50848015E-03  -9.45407490E-04
              253  -9.27154161E-03  -9.82313883E-04  -8.29326082E-03  -1.22373074E-03
              254  -9.31892172E-03  -1.58927159E-03  -8.27851705E-03  -1.58939534E-03
              255  -9.27233510E-03  -2.39156606E-03  -8.61683674E-03  -1.91470189E-03
              256  -9.02730040E-03  -2.78416835E-03  -8.89237039E-03  -1.98383094E-03
              257  -8.70369654E-03  -2.47676019E-03  -8.43046512E-03  -1.91769423E-03
              258  -8.51007830E-03  -1.74671214E-03  -7.40758562E-03  -1.98483723E-03
              259  -7.82728475E-03  -1.60127925E-03  -6.38061482E-03  -1.90763071E-03
              260  -7.43729901E-03  -3.25253524E-04  -5.27074840E-03  -2.28181877E-03
              261  -6.70414278E-03   9.29769012E-04  -3.74025572E-03  -2.80993665E-03
              262  -6.32862095E-03   1.43707753E-03  -2.18193652E-03  -3.02006793E-03
              263  -6.23336388E-03   1.48850144E-03  -8.33280035E-04  -2.85936636E-03
              264  -6.21870114E-03   1.29604794E-03   4.46040533E-04  -2.41769315E-03
              265  -6.24293741E-03   1.05320243E-03   1.59802369E-03  -1.89052429E-03
              266  -6.19484112E-03   8.31602782E-04   2.57106428E-03  -1.34735927E-03
              267  -6.04718970E-03   7.41039927E-04   3.38060339E-03  -8.07716162E-04
              268  -5.85256703E-03   7.42497097E-04   3.87228117E-03  -3.46100598E-04
              269  -5.50264772E-03   5.78009931E-04   3.65174795E-03  -1.50729084E-05
              270  -5.30112255E-03   4.33772570E-04   3.21204774E-03   2.14584448E-04
              271  -5.05762221E-03   3.17800179E-04   2.84573087E-03   3.72338749E-04
              272  -4.79175244E-03   1.87622121E-04   2.52563064E-03   4.62368713E-04
              273  -4.53898450E-03   9.37443037E-05   2.25052889E-03   5.19707974E-04
              274  -4.29545948E-03   3.55977136E-05   2.01656367E-03   5.55447827E-04
              275  -1.05574736E-02  -2.52403924E-03  -1.06643708E-02  -1.29349108E-04
              276  -1.05972569E-02  -1.89253874E-03  -1.05481194E-02   8.63887108E-05
              277  -1.05230790E-02  -1.42601831E-03  -1.03788553E-02  -5.14461535E-05
              278  -1.04722958E-02  -1.05396635E-03  -1.01993540E-02  -2.16080545E-04
              279  -1.03799598E-02  -9.62487422E-04  -1.00101558E-02  -4.28657222E-04
              280  -1.03246616E-02  -1.01111317E-03  -9.80989076E-03  -6.64536608E-04
              281  -1.02898655E-02  -1.15560240E-03  -9.63181909E-03  -9.18942678E-04
              282  -1.02699380E-02  -1.43706740E-03  -9.49508231E-03  -1.21502765E-03
              283  -1.02435872E-02  -1.91062340E-03  -9.44739487E-03  -1.54318626E-03
              284  -1.01445327E-02  -2.54068128E-03  -9.56645049E-03  -1.82593032E-03
              285  -9.93336737E-03  -3.09163309E-03  -9.72412899E-03  -1.95276306E-03
              286  -9.65892896E-03  -3.32644745E-03  -9.64340009E-03  -1.92279695E-03
              287  -9.44698881E-03  -3.05789174E-03  -9.15578473E-03  -1.79220317E-03
              288  -9.25668702E-03  -2.45716935E-03  -8.25636648E-03  -1.71788968E-03
              289  -9.13646631E-03  -1.70115137E-03  -7.23521225E-03  -1.77918398E-03
              290  -8.71347543E-03  -1.17299729E-03  -6.30342402E-03  -1.77156937E-03
              291  -8.13319627E-03  -1.29814987E-04  -5.18753147E-03  -1.98020763E-03
              292  -7.29362154E-03   1.07832684E-03  -3.68002965E-03  -2.27132183E-03
              293  -6.52373163E-03   1.78136851E-03  -1.92788267E-03  -2.43562134E-03
              294  -5.88136958E-03   2.04386748E-03  -2.27767043E-04  -2.34729238E-03
              295  -5.35263261E-03   2.01397459E-03   1.32580171E-03  -2.05008872E-03
              296  -4.90817986E-03   1.90148700E-03   2.61268765E-03  -1.61037443E-03
              297  -4.53109108E-03   1.88352889E-03   3.59420432E-03  -1.11321849E-03
              298  -4.27040737E-03   1.77620596E-03   3.96606699E-03  -6.42253726E-04
              299  -3.98829905E-03   1.33629178E-03   3.62407928E-03  -2.59716006E-04
              300  -3.80343292E-03   8.94186960E-04   3.17166792E-03   3.06993934E-05
              301  -3.65222828E-03   6.00585248E-04   2.79648788E-03   2.40105030E-04
              302  -3.50912334E-03   4.01044206E-04   2.48310575E-03   3.85390042E-04
              303  -3.36461980E-03   2.51998892E-04   2.21611164E-03   4.81533760E-04
              304  -3.22505971E-03   1.47541461E-04   1.98756927E-03   5.41168440E-04
              305  -9.39140283E-03  -2.29807198E-03  -9.34426580E-03   6.57242781E-05
              306  -9.50839464E-03  -2.07002438E-03  -9.46476310E-03  -6.20584542E-05
              307  -9.68034007E-03  -1.78528705E-03  -9.57600679E-03  -1.21851321E-04
              308  -9.79880709E-03  -1.62958447E-03  -9.62155871E-03  -2.92271521E-04
              309  -9.89079848E-03  -1.58198131E-03  -9.64697450E-03  -5.17572218E-04
              310  -9.95338894E-03  -1.67415407E-03  -9.64432582E-03  -7.52338790E-04
              311  -9.99697484E-03  -1.89653051E-03  -9.61690862E-03  -1.00390869E-03
              312  -1.00102536E-02  -2.23777746E-03  -9.59973503E-03  -1.25451584E-03
              313  -9.96338204E-03  -2.66586803E-03  -9.63375531E-03  -1.46433944E-03
              314  -9.83660482E-03  -3.07028764E-03  -9.67480056E-03  -1.57334597E-03
              315  -9.65647027E-03  -3.30073782E-03  -9.60762892E-03  -1.55967078E-03
              316  -9.46911797E-03  -3.22706159E-03  -9.30820592E-03  -1.44257792E-03
              317  -9.26742610E-03  -2.92764371E-03  -8.74833204E-03  -1.31353701E-03
              318  -8.98619834E-03  -2.58352840E-03  -8.03161971E-03  -1.23007898E-03
              319  -8.54937639E-03  -2.26880796E-03  -7.18820468E-03  -1.14930130E-03
              320  -8.19347240E-03  -1.66250300E-03  -6.18644292E-03  -1.09992747E-03
              321  -7.80734140E-03  -8.18414846E-04  -5.14617329E-03  -1.09496003E-03
              322  -7.29029439E-03   2.74206628E-04  -3.95459821E-03  -1.21230469E-03
              323  -6.55586738E-03   1.34449732E-03  -2.48074508E-03  -1.36648118E-03
              324  -5.80039062E-03   2.07717740E-03  -8.42875161E-04  -1.46395061E-03
              325  -5.08638564E-03   2.48597097E-03   7.36742804E-04  -1.41839799E-03
              326  -4.45453217E-03   2.67650094E-03   2.13997904E-03  -1.23567728E-03
              327  -3.92448902E-03   2.79093068E-03   3.29410937E-03  -9.54525196E-04
              328  -3.54255503E-03   2.59652943E-03   3.77892982E-03  -6.24847598E-04
              329  -3.15277441E-03   1.98103138E-03   3.46518424E-03  -3.43089836E-04
              330  -2.91058375E-03   1.42060046E-03   3.04715661E-03  -9.36754586E-05
              331  -2.73148553E-03   9.99469776E-04   2.69349176E-03   1.03634724E-04
              332  -2.59626750E-03   6.89801120E-04   2.39324267E-03   2.55777442E-04
              333  -2.48902687E-03   4.66179976E-04   2.13749101E-03   3.68853885E-04
              334  -2.39717774E-03   3.00121726E-04   1.91701064E-03   4.49337706E-04
              335  -8.99329409E-03  -2.31184997E-03  -8.95564537E-03  -1.38726755E-04
              336  -9.02254879E-03  -2.23156274E-03  -8.95801373E-03  -1.33484893E-04
              337  -9.05933231E-03  -2.17632134E-03  -8.98369681E-03  -2.87667353E-04
              338  -9.12490860E-03  -2.14206660E-03  -9.04757157E-03  -4.45326994E-04
              339  -9.18351952E-03  -2.19131657E-03  -9.08775628E-03  -6.22595719E-04
              340  -9.22104530E-03  -2.33401125E-03  -9.12385527E-03  -8.28483433E-04
              341  -9.22981557E-03  -2.56454805E-03  -9.15637426E-03  -1.01927435E-03
              342  -9.19281039E-03  -2.85348808E-03  -9.18440241E-03  -1.17010786E-03
              343  -9.09764413E-03  -3.13442922E-03  -9.17879492E-03  -1.24810718E-03
              344  -8.94894078E-03  -3.33230640E-03  -9.09148250E-03  -1.24104775E-03
              345  -8.76170862E-03  -3.38320970E-03  -8.85875709E-03  -1.15544838E-03
              346  -8.54247250E-03  -3.28133022E-03  -8.45212396E-03  -1.02795649E-03
              347  -8.30244459E-03  -3.01039172E-03  -7.87191186E-03  -8.84106848E-04
              348  -8.05063359E-03  -2.57554441E-03  -7.13421078E-03  -7.44352234E-04
              349  -7.77070690E-03  -2.05477420E-03  -6.31399732E-03  -6.26805471E-04
              350  -7.37780705E-03  -1.54337147E-03  -5.46087977E-03  -5.21164038E-04
              351  -6.94844965E-03  -9.14450153E-04  -4.51580854E-03  -4.35425172E-04
              352  -6.51684450E-03  -5.80181731E-05  -3.48317390E-03  -4.05547791E-04
              353  -6.01740833E-03   9.32181836E-04  -2.30340706E-03  -4.60693002E-04
              354  -5.40649937E-03   1.83795299E-03  -9.59185418E-04  -5.45696006E-04
              355  -4.76648565E-03   2.50892481E-03   4.46010876E-04  -6.00099447E-04
              356  -4.14035330E-03   2.95523088E-03   1.79039571E-03  -5.76366088E-04
              357  -3.55310040E-03   3.25117656E-03   3.01026483E-03  -4.74661298E-04
              358  -3.10064200E-03   3.10742809E-03   3.54390289E-03  -3.23454035E-04
              359  -2.63702404E-03   2.42427946E-03   3.24187870E-03  -1.96191308E-04
              360  -2.34334287E-03   1.80624856E-03   2.86099920E-03  -6.01246684E-05
              361  -2.13221507E-03   1.33150246E-03   2.53848825E-03   6.73456962E-05
              362  -1.97807373E-03   9.65595536E-04   2.26312317E-03   1.79653987E-04
              363  -1.86333014E-03   6.83781051E-04   2.02641683E-03   2.73754122E-04
              364  -1.77549478E-03   4.69121122E-04   1.82231737E-03   3.49993585E-04
              365  -8.48349091E-03  -2.61165737E-03  -8.44565313E-03  -9.90487169E-05
              366  -8.48721340E-03  -2.61012325E-03  -8.44033249E-03  -2.34157429E-04
              367  -8.49690475E-03  -2.61017121E-03  -8.44369270E-03  -3.29884671E-04
              368  -8.49059969E-03  -2.65461765E-03  -8.43475573E-03  -4.71616193E-04
              369  -8.47102050E-03  -2.74406280E-03  -8.45264364E-03  -6.24757027E-04
              370  -8.43421649E-03  -2.87927827E-03  -8.46327655E-03  -7.53540662E-04
              371  -8.36148858E-03  -3.04863416E-03  -8.46524164E-03  -8.56836792E-04
              372  -8.24906863E-03  -3.21424380E-03  -8.43252148E-03  -9.06458707E-04
              373  -8.09913408E-03  -3.33438953E-03  -8.33301805E-03  -8.93881079E-04
              374  -7.91980978E-03  -3.36686452E-03  -8.12836830E-03  -8.19227309E-04
              375  -7.71963131E-03  -3.28947022E-03  -7.80149316E-03  -6.97750482E-04
              376  -7.50420801E-03  -3.08878254E-03  -7.34854303E-03  -5.47271920E-04
              377  -7.26741832E-03  -2.79089669E-03  -6.78163115E-03  -3.92378162E-04
              378  -6.99083321E-03  -2.43025273E-03  -6.12925086E-03  -2.49553501E-04
              379  -6.68311957E-03  -1.97993568E-03  -5.39027387E-03  -1.14725648E-04
              380  -6.37300778E-03  -1.40898826E-03  -4.57108021E-03   8.23755272E-06
              381  -6.02696696E-03  -7.51933549E-04  -3.70613392E-03   1.11847490E-04
              382  -5.63730253E-03  -1.84690871E-05  -2.77277641E-03   1.83441254E-04
              383  -5.21732587E-03   8.10874160E-04  -1.75280857E-03   2.04526645E-04
              384  -4.74636536E-03   1.65494427E-03  -6.27718226E-04   1.74051704E-04
              385  -4.21699975E-03   2.39954912E-03   5.79113315E-04   1.25351304E-04
              386  -3.66206421E-03   2.99375458E-03   1.78218749E-03   9.95358787E-05
              387  -3.15470109E-03   3.41011677E-03   2.92425044E-03   1.17134798E-04
              388  -2.66494183E-03   3.22764739E-03   3.31760081E-03   1.01988779E-04
              389  -2.22620927E-03   2.57738587E-03   2.96755228E-03   7.14979906E-05
              390  -1.92597404E-03   2.00033607E-03   2.63537234E-03   8.08357872E-05
              391  -1.70296873E-03   1.53271342E-03   2.35001557E-03   1.20942961E-04
              392  -1.53860205E-03   1.15767017E-03   2.10413011E-03   1.74037457E-04
              393  -1.41741114E-03   8.58671323E-04   1.89142837E-03   2.30464575E-04
              394  -1.32693257E-03   6.20912411E-04   1.70667737E-03   2.83876696E-04
              395  -7.81399384E-03  -2.97741499E-03  -7.79146282E-03  -1.49528903E-04
              396  -7.79872900E-03  -2.99696089E-03  -7.77794281E-03  -1.98511567E-04
              397  -7.77416956E-03  -3.03878472E-03  -7.75461411E-03  -3.08626244E-04
              398  -7.73483794E-03  -3.09299771E-03  -7.74130505E-03  -3.97987314E-04
              399  -7.67142465E-03  -3.16386810E-03  -7.70386588E-03  -4.74282599E-04
              400  -7.57238874E-03  -3.24609387E-03  -7.66206719E-03  -5.37041749E-04
              401  -7.44455447E-03  -3.31594422E-03  -7.58582959E-03  -5.56896266E-04
              402  -7.28683081E-03  -3.35480412E-03  -7.45751243E-03  -5.35664556E-04
              403  -7.10421056E-03  -3.34004615E-03  -7.25612883E-03  -4.71398933E-04
              404  -6.90277666E-03  -3.25676892E-03  -6.97057042E-03  -3.70061141E-04
              405  -6.68575522E-03  -3.09408619E-03  -6.59380388E-03  -2.41340415E-04
              406  -6.45512389E-03  -2.85336981E-03  -6.12782128E-03  -9.72707567E-05
              407  -6.20948058E-03  -2.53204047E-03  -5.58154052E-03   5.26978547E-05
              408  -5.95274754E-03  -2.12585088E-03  -4.96025290E-03   2.03634350E-04
              409  -5.67256892E-03  -1.66108075E-03  -4.28339047E-03   3.44416942E-04
              410  -5.36177587E-03  -1.14045932E-03  -3.55696585E-03   4.71965875E-04
              411  -5.03568538E-03  -5.43957227E-04  -2.76861130E-03   5.82038425E-04
              412  -4.69561573E-03   1.34111513E-04  -1.92143698E-03   6.66539534E-04
              413  -4.32847813E-03   8.65524344E-04  -1.00752676E-03   7.15697941E-04
              414  -3.92779894E-03   1.62313937E-03  -2.61152309E-05   7.25968159E-04
              415  -3.48827243E-03   2.33883131E-03   1.01423706E-03   7.06613355E-04
              416  -3.00807180E-03   2.96677090E-03   2.08548573E-03   6.79583289E-04
              417  -2.61748699E-03   3.35538900E-03   2.92489585E-03   6.16436009E-04
              418  -2.13152496E-03   3.04130814E-03   2.99592130E-03   4.59531759E-04
              419  -1.80991890E-03   2.48386501E-03   2.66993325E-03   3.27558693E-04
              420  -1.55224791E-03   2.00190954E-03   2.38757906E-03   2.48198514E-04
              421  -1.35119748E-03   1.59187138E-03   2.14203773E-03   2.13767067E-04
              422  -1.19743031E-03   1.24848401E-03   1.92814332E-03   2.09511200E-04
              423  -1.08218042E-03   9.64431558E-04   1.74125913E-03   2.23649287E-04
              424  -9.98194097E-04   7.31452892E-04   1.57709967E-03   2.47408025E-04
              425  -6.98214676E-03  -3.30148544E-03  -6.95651723E-03  -6.81072488E-05
              426  -6.94784615E-03  -3.31767555E-03  -6.93582464E-03  -1.44174250E-04
              427  -6.89795893E-03  -3.34059144E-03  -6.91031665E-03  -1.87053898E-04
              428  -6.82744524E-03  -3.36923520E-03  -6.85494812E-03  -2.28344870E-04
              429  -6.72939932E-03  -3.39332432E-03  -6.78887311E-03  -2.50035431E-04
              430  -6.60813553E-03  -3.39792762E-03  -6.67968951E-03  -2.38816952E-04
              431  -6.45716861E-03  -3.37754400E-03  -6.53007766E-03  -2.05555174E-04
              432  -6.28382340E-03  -3.31698358E-03  -6.32542418E-03  -1.41632147E-04
              433  -6.09230390E-03  -3.20789171E-03  -6.05924148E-03  -5.04704585E-05
              434  -5.88513119E-03  -3.04299244E-03  -5.72686316E-03   6.26951369E-05
              435  -5.66530693E-03  -2.81974231E-03  -5.32854255E-03   1.91929270E-04
              436  -5.43244695E-03  -2.53642653E-03  -4.86745220E-03   3.30028415E-04
              437  -5.18787373E-03  -2.19394313E-03  -4.34630224E-03   4.71958076E-04
              438  -4.92696185E-03  -1.79768575E-03  -3.77238914E-03   6.10638643E-04
              439  -4.65552788E-03  -1.33620459E-03  -3.14540160E-03   7.45287514E-04
              440  -4.37110150E-03  -8.16391490E-04  -2.46936455E-03   8.69543117E-04
              441  -4.07040864E-03  -2.42792681E-04  -1.74922496E-03   9.78484051E-04
              442  -3.75147886E-03   3.79286270E-04  -9.78599302E-04   1.06597762E-03
              443  -3.41449725E-03   1.04244612E-03  -1.57782793E-04   1.12729683E-03
              444  -3.05562234E-03   1.71586673E-03   7.14035705E-04   1.15834584E-03
              445  -2.66919006E-03   2.39284220E-03   1.62234192E-03   1.16513052E-03
              446  -2.33726995E-03   2.94422568E-03   2.50873016E-03   1.13654032E-03
              447  -1.98242464E-03   3.02375923E-03   2.86354963E-03   9.69429035E-04
              448  -1.62554753E-03   2.67062802E-03   2.64057284E-03   7.10988883E-04
              449  -1.39209023E-03   2.24830233E-03   2.37021456E-03   5.06007636E-04
              450  -1.19800260E-03   1.87280623E-03   2.13432126E-03   3.77663149E-04
              451  -1.03817042E-03   1.53958052E-03   1.92727952E-03   2.97581806E-04
              452  -9.09564144E-04   1.24801416E-03   1.74503925E-03   2.52789730E-04
              453  -8.08170531E-04   9.96457413E-04   1.58437248E-03   2.32786580E-04
              454  -7.28770799E-04   7.82095594E-04   1.44277210E-03   2.31947750E-04
              455  -5.97488694E-03  -3.47346067E-03  -5.96901495E-03  -4.01318903E-05
              456  -5.93505334E-03  -3.47149791E-03  -5.93470503E-03  -2.84579000E-05
              457  -5.87296532E-03  -3.46557610E-03  -5.87503705E-03  -3.41552186E-05
              458  -5.78401843E-03  -3.44836293E-03  -5.80042182E-03  -1.93955057E-05
              459  -5.67383552E-03  -3.41252680E-03  -5.68251964E-03   1.38734795E-05
              460  -5.53847617E-03  -3.35466815E-03  -5.53295016E-03   6.17800106E-05
              461  -5.38604287E-03  -3.26245138E-03  -5.33484994E-03   1.34590024E-04
              462  -5.21438755E-03  -3.13398871E-03  -5.08930674E-03   2.24103205E-04
              463  -5.02587762E-03  -2.96369148E-03  -4.79303906E-03   3.29091621E-04
              464  -4.82362043E-03  -2.74858298E-03  -4.44548205E-03   4.47185332E-04
              465  -4.60854638E-03  -2.48597353E-03  -4.04665945E-03   5.74138423E-04
              466  -4.38369671E-03  -2.17385846E-03  -3.59753869E-03   7.07550149E-04
              467  -4.14601341E-03  -1.81448821E-03  -3.10362969E-03   8.41800997E-04
              468  -3.89662967E-03  -1.40746403E-03  -2.56607588E-03   9.74134600E-04
              469  -3.63504817E-03  -9.55593481E-04  -1.98715087E-03   1.10034680E-03
              470  -3.36501235E-03  -4.53872344E-04  -1.36590924E-03   1.21802057E-03
              471  -3.08089470E-03   8.98160797E-05  -7.03489350E-04   1.32205838E-03
              472  -2.78330548E-03   6.63143175E-04  -1.97876079E-06   1.40774669E-03
              473  -2.46863649E-03   1.27149397E-03   7.45953876E-04   1.47260458E-03
              474  -2.15665926E-03   1.92340231E-03   1.52484362E-03   1.51543750E-03
              475  -1.86750898E-03   2.43216520E-03   2.29920563E-03   1.53188186E-03
              476  -1.60392234E-03   2.66649225E-03   2.67504575E-03   1.36400643E-03
              477  -1.33030955E-03   2.52698618E-03   2.53353151E-03   1.05863321E-03
              478  -1.17168715E-03   2.24912493E-03   2.29408289E-03   7.94576190E-04
              479  -1.01734500E-03   1.96261378E-03   2.07970617E-03   5.95530437E-04
              480  -8.78931489E-04   1.68289081E-03   1.88732613E-03   4.49867133E-04
              481  -7.60645024E-04   1.42337848E-03   1.71586615E-03   3.49403126E-04
              482  -6.61956146E-04   1.18752709E-03   1.56313402E-03   2.82762543E-04
              483  -5.81957109E-04   9.77104297E-04   1.42703007E-03   2.41567323E-04
              484  -5.20945527E-04   7.94374850E-04   1.30568212E-03   2.15720502E-04
              485  -4.82144905E-03  -3.44931264E-03  -4.81671561E-03   4.05435603E-05
              486  -4.77612019E-03  -3.42746335E-03  -4.76962235E-03   7.16441209E-05
              487  -4.70874831E-03  -3.38875409E-03  -4.69781365E-03   1.24383325E-04
              488  -4.62159235E-03  -3.33098345E-03  -4.58644191E-03   1.83509866E-04
              489  -4.50992491E-03  -3.25213047E-03  -4.45023691E-03   2.52283760E-04
              490  -4.38071229E-03  -3.14420299E-03  -4.27079713E-03   3.36458761E-04
              491  -4.23116470E-03  -3.00743547E-03  -4.05406998E-03   4.29143663E-04
              492  -4.06747079E-03  -2.83470005E-03  -3.79330502E-03   5.35187370E-04
              493  -3.89152253E-03  -2.62488378E-03  -3.48919630E-03   6.51459675E-04
              494  -3.70177813E-03  -2.37782625E-03  -3.14377528E-03   7.73713633E-04
              495  -3.49891721E-03  -2.09269440E-03  -2.75762798E-03   9.00036772E-04
              496  -3.28303920E-03  -1.76805339E-03  -2.33214814E-03   1.02804997E-03
              497  -3.05921817E-03  -1.39879086E-03  -1.86593481E-03   1.15814339E-03
              498  -2.82783061E-03  -9.88031505E-04  -1.36171968E-03   1.28559326E-03
              499  -2.58372701E-03  -5.42407623E-04  -8.22510337E-04   1.40544318E-03
              500  -2.32409383E-03  -6.72156311E-05  -2.51852791E-04   1.51530164E-03
              501  -2.05847854E-03   4.45789832E-04   3.56860983E-04   1.61400693E-03
              502  -1.79047463E-03   1.01037801E-03   1.00128283E-03   1.70228048E-03
              503  -1.51358405E-03   1.56051083E-03   1.68151513E-03   1.76330854E-03
              504  -1.26893329E-03   1.96803827E-03   2.28398619E-03   1.77149742E-03
              505  -1.10045599E-03   2.21754890E-03   2.51555443E-03   1.59632973E-03
              506  -9.56784352E-04   2.21585436E-03   2.37884419E-03   1.28280232E-03
              507  -8.72582779E-04   2.05951813E-03   2.17203912E-03   1.01244857E-03
              508  -7.78928516E-04   1.87110878E-03   1.98228587E-03   7.85821583E-04
              509  -6.86811807E-04   1.67364080E-03   1.81049702E-03   6.06884714E-04
              510  -5.99056482E-04   1.47450925E-03   1.65540690E-03   4.68922837E-04
              511  -5.18950110E-04   1.27944665E-03   1.51526486E-03   3.65505141E-04
              512  -4.49016137E-04   1.09454931E-03   1.38884981E-03   2.91192206E-04
              513  -3.89651046E-04   9.22562322E-04   1.27481692E-03   2.39705521E-04
              514  -3.38298094E-04   7.61810807E-04   1.17165828E-03   2.07371981E-04
              515  -3.53682623E-03  -3.22062941E-03  -3.54130240E-03   7.83024516E-05
              516  -3.49723594E-03  -3.18702171E-03  -3.49077978E-03   1.69850347E-04
              517  -3.43663595E-03  -3.12987319E-03  -3.40516167E-03   2.55177205E-04
              518  -3.35376686E-03  -3.04789725E-03  -3.29128047E-03   3.48182366E-04
              519  -3.25574214E-03  -2.93755764E-03  -3.13429860E-03   4.50104009E-04
              520  -3.13876569E-03  -2.80126464E-03  -2.94736470E-03   5.56709419E-04
              521  -3.00621660E-03  -2.63535348E-03  -2.72486126E-03   6.70886831E-04
              522  -2.85586016E-03  -2.44042417E-03  -2.46861298E-03   7.87730096E-04
              523  -2.69075390E-03  -2.21250486E-03  -2.17494857E-03   9.08973510E-04
              524  -2.51572439E-03  -1.94725033E-03  -1.84122275E-03   1.03608973E-03
              525  -2.33286433E-03  -1.64336327E-03  -1.46869570E-03   1.16690947E-03
              526  -2.13970151E-03  -1.30632101E-03  -1.06457714E-03   1.29757600E-03
              527  -1.92811387E-03  -9.44949395E-04  -6.33819320E-04   1.42141723E-03
              528  -1.70437456E-03  -5.53381862E-04  -1.71250838E-04   1.54031278E-03
              529  -1.47640065E-03  -1.18618838E-04   3.29893432E-04   1.65658433E-03
              530  -1.25531305E-03   3.70298279E-04   8.69211101E-04   1.77068589E-03
              531  -1.01930730E-03   8.53627571E-04   1.42490678E-03   1.86543423E-03
              532  -7.81996932E-04   1.22300070E-03   1.98138971E-03   1.94536871E-03
              533  -6.39219070E-04   1.54989131E-03   2.34090118E-03   1.87618867E-03
              534  -5.97297680E-04   1.78581639E-03   2.37747771E-03   1.67243951E-03
              535  -5.70454169E-04   1.85223226E-03   2.19266815E-03   1.37289986E-03
              536  -5.42517984E-04   1.77670480E-03   2.01689219E-03   1.11853378E-03
              537  -5.08156605E-04   1.67682685E-03   1.85420201E-03   9.00494517E-04
              538  -4.64178127E-04   1.55722932E-03   1.70545001E-03   7.18102616E-04
              539  -4.13987320E-04   1.42118032E-03   1.56894268E-03   5.67019568E-04
              540  -3.62712541E-04   1.27747818E-03   1.44411484E-03   4.45576647E-04
              541  -3.13419790E-04   1.13241654E-03   1.33031840E-03   3.50564253E-04
              542  -2.68102624E-04   9.90122790E-04   1.22667314E-03   2.78317544E-04
              543  -2.28291698E-04   8.54046317E-04   1.13235111E-03   2.26112374E-04
              544  -1.95943183E-04   7.27906532E-04   1.04661146E-03   1.90663515E-04
              545  -2.17810995E-03  -2.82049179E-03  -2.17460818E-03   1.27191859E-04
              546  -2.14631064E-03  -2.78310059E-03  -2.12653517E-03   2.39158733E-04
              547  -2.09580641E-03  -2.71930918E-03  -2.05057370E-03   3.58823861E-04
              548  -2.02734140E-03  -2.62727356E-03  -1.93579227E-03   4.77890659E-04
              549  -1.93770521E-03  -2.50749453E-03  -1.79078244E-03   5.97159786E-04
              550  -1.83395902E-03  -2.35612830E-03  -1.60540873E-03   7.21734483E-04
              551  -1.71827618E-03  -2.17437046E-03  -1.38451590E-03   8.50290176E-04
              552  -1.59225380E-03  -1.96263450E-03  -1.13047322E-03   9.83161619E-04
              553  -1.45145284E-03  -1.72371976E-03  -8.48794996E-04   1.11507101E-03
              554  -1.29428855E-03  -1.45607954E-03  -5.37309854E-04   1.24455197E-03
              555  -1.11934543E-03  -1.15910557E-03  -1.97721718E-04   1.37263932E-03
              556  -9.33465257E-04  -8.28865159E-04   1.73192835E-04   1.50110864E-03
              557  -7.54076755E-04  -4.52169334E-04   5.88680559E-04   1.63361023E-03
              558  -5.77910105E-04  -3.99228593E-05   1.03113079E-03   1.76380598E-03
              559  -3.67635221E-04   3.28328111E-04   1.47580029E-03   1.86002650E-03
              560  -1.71276537E-04   6.26313093E-04   1.90881372E-03   1.94025703E-03
              561  -6.80080120E-05   9.44017083E-04   2.18812772E-03   1.91060989E-03
              562  -9.73432034E-05   1.25304610E-03   2.26623355E-03   1.77999889E-03
              563  -1.59763164E-04   1.45957305E-03   2.14173575E-03   1.54295075E-03
              564  -1.96591107E-04   1.48404983E-03   1.98834972E-03   1.32883200E-03
              565  -2.23586670E-04   1.47188711E-03   1.84091297E-03   1.11715891E-03
              566  -2.38739944E-04   1.44591555E-03   1.70644152E-03   9.31911170E-04
              567  -2.34283012E-04   1.38614909E-03   1.58057327E-03   7.64508208E-04
              568  -2.19313719E-04   1.30493473E-03   1.46338297E-03   6.19737199E-04
              569  -1.97822141E-04   1.21021655E-03   1.35506457E-03   4.97334229E-04
              570  -1.72350643E-04   1.10630842E-03   1.25512667E-03   3.95796291E-04
              571  -1.45436832E-04   9.97744268E-04   1.16314250E-03   3.13553435E-04
              572  -1.19011704E-04   8.88281036E-04   1.07866060E-03   2.48829921E-04
              573  -9.45223146E-05   7.81142677E-04   1.00126234E-03   1.99138070E-04
              574  -7.27008010E-05   6.78811281E-04   9.30574199E-04   1.63196106E-04
              575  -7.88385572E-04  -2.30287085E-03  -7.90915277E-04   1.43364916E-04
              576  -7.64777302E-04  -2.26271222E-03  -7.40517746E-04   2.82802677E-04
              577  -7.27383187E-04  -2.19391054E-03  -6.57254248E-04   4.23518883E-04
              578  -6.73318922E-04  -2.09780154E-03  -5.50737430E-04   5.66872128E-04
              579  -6.04317058E-04  -1.97436893E-03  -4.14416427E-04   7.10080378E-04
              580  -5.14789950E-04  -1.82609074E-03  -2.53608916E-04   8.47776770E-04
              581  -4.06643725E-04  -1.65052083E-03  -6.02363070E-05   9.81372432E-04
              582  -2.85464514E-04  -1.44101866E-03   1.73853769E-04   1.11420697E-03
              583  -1.64437937E-04  -1.18839857E-03   4.57923161E-04   1.25650002E-03
              584  -3.99254495E-05  -8.99668201E-04   7.69668375E-04   1.40506180E-03
              585   9.82762140E-05  -5.98230748E-04   1.08261814E-03   1.54718535E-03
              586   2.51999387E-04  -3.20105813E-04   1.40389951E-03   1.65937969E-03
              587   4.08601074E-04  -9.33114279E-05   1.74419640E-03   1.75831770E-03
              588   5.10793063E-04   1.96141147E-04   1.98339787E-03   1.79239688E-03
              589   4.98358393E-04   4.90086386E-04   2.13894178E-03   1.78801618E-03
              590   3.86893022E-04   7.88329518E-04   2.15931679E-03   1.70354685E-03
              591   2.65207782E-04   1.04531273E-03   2.03432143E-03   1.53561740E-03
              592   1.78916889E-04   1.13642914E-03   1.90650299E-03   1.36855920E-03
              593   1.11593894E-04   1.17471570E-03   1.77776953E-03   1.19747920E-03
              594   4.71719868E-05   1.21486408E-03   1.66008389E-03   1.03733235E-03
              595   5.94810217E-06   1.22395018E-03   1.54967338E-03   8.87607690E-04
              596  -1.84058936E-05   1.20212208E-03   1.44433731E-03   7.47298356E-04
              597  -3.25083929E-05   1.16380770E-03   1.34595996E-03   6.22021966E-04
              598  -3.63767431E-05   1.10854418E-03   1.25391246E-03   5.10470883E-04
              599  -3.30415824E-05   1.04063726E-03   1.16801774E-03   4.13749949E-04
              600  -2.48375090E-05   9.64032253E-04   1.08814577E-03   3.31608375E-04
              601  -1.37328643E-05   8.81683431E-04   1.01394847E-03   2.63479858E-04
              602  -1.51761083E-06   7.96914159E-04   9.45234671E-04   2.08150130E-04
              603   1.06437947E-05   7.11961940E-04   8.81692686E-04   1.64595098E-04
              604   2.16489498E-05   6.28984533E-04   8.23037000E-04   1.29824286E-04
              605   5.81776083E-04  -1.71483506E-03   5.80956694E-04   1.58989889E-04
              606   6.06229820E-04  -1.67234568E-03   6.32096140E-04   3.04486486E-04
              607   6.44128886E-04  -1.59995130E-03   7.07869302E-04   4.57625138E-04
              608   6.89968932E-04  -1.49887719E-03   8.17033462E-04   6.11967349E-04
              609   7.45261728E-04  -1.37223979E-03   9.50618298E-04   7.68729835E-04
              610   8.05869116E-04  -1.22342561E-03   1.10934849E-03   9.26572015E-04
              611   8.74269637E-04  -1.06078922E-03   1.28524064E-03   1.07455731E-03
              612   9.55032883E-04  -9.03174048E-04   1.48082979E-03   1.20020506E-03
              613   1.05247658E-03  -7.52861437E-04   1.68290897E-03   1.31851656E-03
              614   1.10971148E-03  -5.10853133E-04   1.82168162E-03   1.40381581E-03
              615   1.11634086E-03  -2.62031594E-04   1.94472692E-03   1.47510017E-03
              616   1.04882289E-03  -3.39431026E-05   2.05759751E-03   1.52659370E-03
              617   9.17112338E-04   2.39063695E-04   2.07431288E-03   1.52957113E-03
              618   7.68604805E-04   5.31106023E-04   1.98154012E-03   1.45572098E-03
              619   6.34226599E-04   7.03878817E-04   1.88461633E-03   1.36569934E-03
              620   5.31198457E-04   7.88340578E-04   1.77479361E-03   1.25637988E-03
              621   4.24816943E-04   8.72563280E-04   1.66890456E-03   1.14102487E-03
              622   3.30830808E-04   9.56809963E-04   1.57252781E-03   1.02559745E-03
              623   2.58933054E-04   1.01230550E-03   1.48048694E-03   9.07362439E-04
              624   2.05452146E-04   1.03389169E-03   1.39025436E-03   7.91942002E-04
              625   1.62359473E-04   1.03810057E-03   1.30426965E-03   6.82440179E-04
              626   1.30205037E-04   1.02668779E-03   1.22312992E-03   5.80502441E-04
              627   1.08679633E-04   9.98473261E-04   1.14621292E-03   4.86343633E-04
              628   9.45596184E-05   9.58943216E-04   1.07393984E-03   4.01991303E-04
              629   8.78819701E-05   9.07455455E-04   1.00582722E-03   3.27121408E-04
              630   8.54858881E-05   8.48219497E-04   9.41811246E-04   2.62338086E-04
              631   8.58295243E-05   7.84976408E-04   8.82136403E-04   2.07092598E-04
              632   8.83255852E-05   7.18371361E-04   8.26409610E-04   1.61512085E-04
              633   9.17537764E-05   6.50066300E-04   7.74355023E-04   1.24474274E-04
              634   9.51672919E-05   5.81097731E-04   7.25600228E-04   9.59219615E-05
              635   3.97707161E-04   6.42536499E-04   4.72220243E-04   3.67003813E-05
              636   2.83536152E-04   5.48154756E-04   4.16479685E-04  -3.07414593E-05
              637  -8.83503933E-04  -1.19791192E-04   5.37579996E-04   4.03225364E-04
              638   4.62703058E-04   6.81635051E-04   7.31678214E-04   2.18760208E-04
              639   2.43569099E-04   4.31972556E-04   4.07289859E-04  -3.90130663E-05
              640   7.06089122E-05   1.81043379E-05   3.36085825E-04   7.20160897E-05
              641   3.10702017E-04   6.93763723E-04   6.66276435E-04   1.43363679E-04
              642   6.92452420E-04   5.89179923E-04   1.01237546E-03   4.37531940E-04
              643   1.80375369E-04   2.19329057E-04   3.59854166E-04  -2.94250603E-05
              644  -1.96409717E-04  -1.93616756E-06   5.55891835E-04   2.10953978E-04
              645   2.70929391E-04   6.09595096E-04   2.76644074E-04  -3.25784422E-05
              646  -1.70586212E-03  -1.02837650E-04   8.28237855E-04   5.31946251E-04
              647   2.31222366E-04   6.28455542E-04   5.90578886E-04   6.25956891E-05
              648   1.24669028E-03   1.21508849E-04   1.35529123E-03   3.90047295E-04
              649   2.59235734E-04   5.36612875E-04   2.84616370E-04  -7.40591204E-05
              650   4.90806764E-04   6.36631739E-04   5.21997747E-04   3.53254291E-05
              651  -2.78313382E-04  -1.31450608E-04   3.20900988E-04   2.46737443E-04
              652  -9.00493236E-04  -6.98193544E-05   3.26808542E-04   2.66876101E-04
              653   1.02174340E-03   3.21826898E-04   1.29258551E-03   5.71250101E-04
              654   2.23505805E-04   3.53835931E-04   2.48622324E-04  -1.07532556E-04
              655   4.41135402E-04   7.68000260E-04   9.71218396E-04   4.30562941E-04
              656   3.35577235E-04   6.17108482E-04   4.37845301E-04   4.18964510E-06
              657   2.12111176E-04   2.28460238E-04   2.49627104E-04  -8.74440520E-05
              658  -7.58274109E-04  -3.73248586E-05   8.12962535E-04   4.00173885E-04
              659  -1.55903527E-03  -6.85264022E-05   5.49973978E-04   3.68993089E-04
              660   2.21138980E-04   4.42529039E-04   4.82194679E-04  -7.13321867E-07
              661   1.26341227E-04   2.10662110E-04   4.56015143E-04   2.02815118E-05
              662   5.33886254E-04   6.45832391E-04   7.10078573E-04   1.97285786E-04
              663   2.75041675E-04   5.89478412E-04   2.94659811E-04  -4.97951696E-05
              664   8.70606164E-04   4.37607960E-04   8.92703596E-04   1.23675622E-04
              665   2.36439097E-04   4.52180131E-04   2.55266437E-04  -1.00683246E-04
              666  -6.07788155E-04  -1.18462274E-04   3.46520334E-04   3.10201372E-04
              667   6.16978738E-04   6.69085304E-04   1.14466960E-03   5.91178250E-04
              668   3.09296942E-04   7.88569450E-04   8.52969766E-04   2.94033467E-04
              669   3.35873308E-04   6.35641161E-04   5.32557955E-04   5.55903898E-05
              670  -2.07907615E-05  -7.91811181E-05   2.67846510E-04   1.27242616E-04
              671  -2.96706357E-03  -2.27501314E-05   1.17988139E-03   5.85596019E-04
              672   1.45778307E-04   6.08963128E-05   2.50287936E-04  -6.27799682E-06
              673   1.51282432E-03  -1.39601136E-04   1.59980287E-03   4.10394103E-04
              674   1.82149350E-04   3.61049257E-04   4.73836873E-04  -8.58387830E-06
              675   2.77545740E-04   5.72027813E-04   4.79516137E-04   1.39348572E-06
              676   2.41443166E-04   7.19021307E-04   7.29567895E-04   1.64483848E-04
              677   5.35371364E-04   6.18608552E-04   5.98873594E-04   9.86315426E-05
              678   1.31324783E-03   4.35536131E-05   1.55533606E-03   6.51322829E-04
              679   9.45858250E-04   3.93045571E-04   1.40535156E-03   7.57559901E-04
              680   4.27393570E-05   1.80480725E-04   5.82933135E-04   1.16482202E-04
              681   3.58087244E-04   6.36082783E-04   3.62926541E-04  -6.13607881E-06
              682   2.55201710E-04   4.58680792E-04   3.65642161E-04  -6.47850975E-05
              683  -4.65704215E-04  -1.17990690E-04   4.83027310E-04   3.22765234E-04
              684  -3.57141806E-04   1.62821045E-04   8.24626652E-04   2.64456816E-04
              685   2.00288749E-04   5.76979830E-04   6.14109391E-04   5.55157385E-05
              686  -2.10654782E-03  -7.27655279E-05   7.27148552E-04   3.77165386E-04
              687   3.73663934E-04   6.31115341E-04   3.99992306E-04   3.76603157E-06
              688   2.09106031E-04   3.51348164E-04   3.98642267E-04  -4.10345783E-05
              689  -2.45762003E-05  -5.08816665E-05   3.74380732E-04   1.45904924E-04
              690  -1.50606351E-03   2.90781209E-05   1.02914346E-03   5.82039705E-04
              691   2.29645942E-04   5.95650286E-04   2.29409619E-04  -2.38283646E-05
              692  -1.05610723E-03  -3.02183435E-05   3.04862129E-04   1.69843581E-04
              693   7.83699448E-04   5.17444743E-04   9.75665462E-04   3.50915565E-04
              694   2.00525872E-04   5.20149129E-04   2.03543575E-04  -8.94849800E-05
              695  -1.32600393E-03  -3.37905876E-05   4.06724721E-04   2.28697390E-04
              696   2.24243820E-04   5.64632530E-04   2.26751727E-04  -6.58860590E-05
              697   7.56810943E-04   5.67144481E-04   1.31527288E-03   7.35146285E-04
              698   4.08758875E-04   6.49233698E-04   5.52366488E-04   8.43709277E-05
              699   1.59189315E-03  -2.22022063E-04   1.75040122E-03   5.94661105E-04
              700   2.11852021E-04   6.82919810E-04   6.98489486E-04   1.23864229E-04
              701   3.83272796E-04   7.14866444E-04   7.37367664E-04   2.16658387E-04
              702   3.16638761E-04   6.03185152E-04   3.63920728E-04  -2.83899790E-05
              703   6.72763330E-04   5.66854142E-04   7.25171063E-04   1.27555657E-04
              704   6.43598905E-04   5.72757039E-04   6.52436749E-04   5.63853318E-05
              705   2.30574238E-04   3.60899634E-04   3.09357303E-04  -8.57493724E-05
              706   3.79123172E-04   8.10466590E-04   9.96484770E-04   4.46163933E-04
              707   4.82599426E-04   7.66917656E-04   1.10612228E-03   5.60276501E-04
              708  -5.80133288E-04  -1.14519171E-04   2.71186786E-04   2.67046882E-04
              709  -3.25031288E-04  -1.21710451E-04   2.60181434E-04   2.44935916E-04
              710   5.36022941E-04   6.79216464E-04   8.76631238E-04   3.41567444E-04
              711  -9.87584936E-04  -1.04460880E-04   4.31568653E-04   3.50825605E-04
              712   2.78246094E-04   5.46120922E-04   3.47997848E-04  -5.44181530E-05
              713   1.22192141E-03   1.56679947E-04   1.24835595E-03   1.60941359E-04
              714  -1.22506800E-03  -1.02148275E-04   6.21179934E-04   4.51995293E-04
              715   7.66692901E-05  -2.07975299E-05   2.39674962E-04   5.22920054E-05
              716   1.20007060E-03   1.39029027E-04   1.53808005E-03   7.46770937E-04
              717   1.77048263E-04   1.72846354E-04   2.66064395E-04  -6.15122262E-05
              718   2.08319150E-04   4.38428484E-04   2.04793701E-04  -1.15715186E-04
              719   2.52705533E-04   5.07602468E-04   4.60414682E-04  -1.45906124E-05
              720   1.90309278E-04   5.55828505E-04   1.88710561E-04  -4.65131270E-05
              721  -4.75383014E-04  -5.59579639E-05   6.43861771E-04   3.17083613E-04
              722  -1.42268196E-04  -1.20081750E-04   2.55755120E-04   1.95575791E-04
              723   2.23071213E-04   2.50584853E-04   2.12073850E-04  -1.12390000E-04
              724   2.48570868E-04   4.56017617E-04   3.08296760E-04  -8.92279058E-05
              725  -6.63966581E-04   1.48531239E-04   1.01125473E-03   3.14358040E-04
              726  -6.14149303E-06   9.52125920E-05   4.92631109E-04   1.00600089E-04
              727   2.23426410E-04   3.62078310E-04   2.10973551E-04  -1.28403452E-04
              728   1.91117579E-04   4.79848764E-04   5.48926299E-04   2.33366227E-05
              729   1.03497610E-03   3.18895851E-04   1.18128350E-03   3.95805866E-04
              730  -2.37354357E-03  -3.62465944E-05   1.25511573E-03   5.64916409E-04
              731  -1.19144656E-03  -9.48240777E-05   7.41698546E-04   4.68580693E-04
              732  -7.95669504E-04  -4.68204526E-05   2.68861360E-04   2.17589375E-04
              733  -1.51747168E-04   2.81283632E-04   7.63073447E-04   1.57232134E-04
              734   2.29395213E-04   5.23157010E-04   5.22174989E-04   9.22706477E-06
              735   4.45971382E-04   6.33556978E-04   4.53035580E-04   1.11025483E-05
              736   1.28120970E-04   3.65226617E-04   5.29646815E-04   4.60552610E-06
              737   5.56484214E-04   6.52327144E-04   8.02409253E-04   2.72907258E-04
              738  -2.69950810E-03  -6.82506798E-05   8.71145283E-04   3.65001004E-04
              739   5.93359546E-05   3.36234050E-04   6.09938812E-04   5.55454826E-05
              740  -1.94980484E-03  -2.96347134E-05   5.84672089E-04   2.72155157E-04
              741   2.70631164E-04   6.56142074E-04   6.37776393E-04   1.05238563E-04
              742   2.59999040E-04   7.95314205E-04   8.48620839E-04   2.72834732E-04
              743   1.43967962E-04   1.40862889E-04   3.61845538E-04   2.43541626E-06
              744   6.48718793E-04   5.86594804E-04   7.94916181E-04   2.29449302E-04
              745   1.91812578E-04   2.50988960E-04   3.18080187E-04  -6.13438242E-05
              746   3.07302485E-04   5.91907999E-04   4.17017378E-04  -1.51681152E-05
              747   9.78238881E-04   3.60554928E-04   1.03014009E-03   2.17736189E-04
              748   3.13161174E-04   6.28486625E-04   5.36683772E-04   5.02595904E-05
              749  -8.14846135E-04  -1.08278997E-04   6.25263317E-04   3.95420589E-04
              750   2.06015393E-04   1.38705174E-04   2.10742845E-04  -7.99384070E-05
              751   8.38689622E-04   4.85617958E-04   1.15793745E-03   5.29601646E-04
              752   2.40704307E-04   3.15376179E-04   3.27114103E-04  -7.91119965E-05
              753   2.81339599E-04   7.12137204E-04   7.08669308E-04   1.64132536E-04
              754  -3.92103009E-03  -6.24389359E-05   1.37026841E-03   3.08691466E-04
              755   3.86964181E-04   6.54602656E-04   5.61216730E-04   7.72852873E-05
              756   1.88322490E-04   3.96754243E-04   5.26910124E-04   1.13479027E-05
              757   4.56124777E-04   6.27694360E-04   4.88792779E-04   3.95574825E-05
              758   1.91160268E-03  -5.75077313E-04   1.94716465E-03   3.57425393E-04
              759   4.02461999E-04   6.37302001E-04   4.18952259E-04   4.41416842E-06
              760   2.71435129E-04   6.28707872E-04   2.80008971E-04  -1.04422397E-05
              761   3.63413157E-04   6.31059404E-04   4.43735626E-04   1.92218940E-05
              762   3.39348451E-04   6.22452586E-04   3.80153389E-04  -1.33685789E-05
              763   2.93855934E-04   5.78835374E-04   3.51924362E-04  -4.38862044E-05
              764   1.61557211E-04   7.06171340E-05   2.03526244E-04  -4.21737750E-05
              765   6.23151660E-04   6.77360396E-04   1.26483059E-03   7.22113298E-04
              766  -2.14347630E-04  -9.06315618E-05   4.15629416E-04   2.43877759E-04
              767   4.57837043E-04   7.08157662E-04   8.08543351E-04   2.83269357E-04
              768   2.85357150E-04   8.41505127E-04   9.44884086E-04   3.82292317E-04
              769   2.05574135E-04   3.03020119E-04   1.93661792E-04  -1.18651296E-04
              770   4.79068316E-04   6.66499604E-04   6.83705497E-04   1.77748603E-04
              771   4.71487692E-05  -6.51666487E-05   2.27982659E-04   7.87443423E-05
              772  -1.21738168E-03  -5.63574795E-05   4.27129271E-04   2.70519929E-04
              773  -1.75088306E-03  -7.99577901E-06   4.93105268E-04   2.03984091E-04
              774   5.10973798E-04   7.31391716E-04   1.02104060E-03   4.78002214E-04
              775   4.70661616E-04   6.41959603E-04   5.63589798E-04   8.62840534E-05
              776  -4.36761999E-04  -1.03774611E-04   2.49374862E-04   2.49487086E-04
              777  -1.30089407E-03  -9.97006828E-06   3.45854700E-04   1.15870236E-04
              778   1.76819594E-04   1.34614005E-04   2.99553387E-04  -2.91211818E-05
              779   2.84247180E-05  -3.36070188E-05   3.23763874E-04   1.04779712E-04
              780   1.09339962E-04  -7.99315603E-06   2.08792408E-04   2.56193143E-05
              781  -1.22766971E-04  -1.01227532E-04   3.22675915E-04   1.85771918E-04
              782   1.91728759E-04   4.68175596E-04   1.83882308E-04  -1.05328269E-04
              783   1.95717323E-04   5.73658268E-04   1.94564171E-04  -2.09225909E-05
              784   2.85713089E-04   6.02513552E-04   2.95748876E-04  -3.71611022E-05
              785   1.54177877E-04   2.21375332E-04   4.10604960E-04  -2.62342223E-06
              786   7.62330950E-04   5.49478515E-04   1.17842434E-03   5.86399750E-04
              787  -9.49830457E-04  -2.78666867E-05   2.55367515E-04   9.48084999E-05
              788  -8.47441261E-04  -9.07617214E-05   3.54509335E-04   3.06797505E-04
              789   2.67609896E-04   5.66545292E-04   2.90492491E-04  -6.53028255E-05
              790   8.09925914E-05   1.00391815E-04   4.21048404E-04   5.18133020E-05
              791   2.60848639E-04   6.04746630E-04   5.57958090E-04   4.88396763E-05
              792   1.97696849E-04   4.09754372E-04   4.70837025E-04  -1.05992167E-05
              793   8.10324971E-04   4.80324641E-04   8.22829083E-04   5.88511430E-05
              794   1.03032892E-03   3.26632988E-04   1.04994210E-03   1.16679716E-04
              795  -4.05955507E-04  -1.28534040E-04   3.48488626E-04   2.91531556E-04
              796   1.52950129E-03  -1.37772644E-04   1.53043878E-03   1.23206628E-04
              797   2.26847085E-04   4.36305709E-04   4.36941569E-04  -3.31138908E-05
              798   8.97839433E-04   4.30412270E-04   1.09194941E-03   4.12170193E-04
              799   2.23240277E-04   7.78611749E-04   8.24025716E-04   2.30074045E-04
              800   9.50729416E-04   3.87663953E-04   1.54968502E-03   9.16280260E-04
              801   2.49914505E-04   4.97850997E-04   2.82248337E-04  -8.95518024E-05
              802   2.88842362E-04   6.24128734E-04   2.95553589E-04  -2.22526342E-05
              803   4.21771139E-04   8.23657843E-04   1.16521050E-03   6.09586830E-04
              804   1.05658593E-03   2.76645762E-04   1.56243972E-03   8.91107484E-04
              805   1.84440432E-04   6.62657374E-04   7.03898841E-04   1.13287235E-04
              806  -3.35057033E-04   3.88382119E-04   9.38973855E-04   1.92668303E-04
              807   1.17290256E-04   4.27273189E-05   2.94859085E-04   2.69717530E-05
              808   1.41329609E-03  -1.07794447E-04   1.81209820E-03   9.43010789E-04
              809   1.60078984E-03  -2.61207460E-04   1.88015611E-03   8.34166189E-04
              810   1.87587889E-03  -5.30725811E-04   2.01286748E-03   6.53702184E-04
              811  -6.00715466E-05  -1.01454658E-04   2.23882045E-04   1.47470855E-04
              812   2.11018531E-04   4.16007475E-04   2.10851300E-04  -1.13305621E-04
              813   6.08201430E-04   6.20851468E-04   8.13753868E-04   2.65656825E-04
              814  -2.44609197E-03  -8.48530835E-05   9.85169201E-04   5.26743068E-04
              815   1.80527830E-04   4.93714062E-04   1.74153698E-04  -8.84318360E-05
              816  -3.14914109E-03  -2.57264855E-05   1.46923156E-03   5.90631622E-04
              817   7.90166319E-04   5.03764139E-04   8.71769153E-04   2.10617131E-04
              818  -1.11958230E-04   1.44083300E-04   6.34792144E-04   1.62081837E-04
              819  -1.19225052E-03  -7.67635720E-05   5.24052710E-04   4.02657315E-04
              820  -5.01094401E-05   3.68297508E-04   7.39181240E-04   1.13610098E-04
              821   2.65632203E-04   5.17166685E-04   4.07856249E-04  -3.67451867E-05
              822  -1.97580128E-04  -5.82666835E-05   4.79296083E-04   2.31083250E-04
              823   6.82266254E-04   6.18299469E-04   1.16217998E-03   5.96457336E-04
              824   5.37795131E-04   6.15180354E-04   5.77261962E-04   7.40623509E-05
              825   6.63474319E-04   5.77784958E-04   7.52251653E-04   1.74922869E-04
              826  -3.61935305E-03  -2.12907362E-05   1.10753044E-03   3.07646464E-04
              827   3.09985771E-04   6.02826884E-04   4.85982746E-04   1.46369375E-05
              828   3.35875287E-04   6.70658890E-04   6.13588083E-04   1.13980655E-04
              829   1.94062406E-04   5.30086632E-04   5.82164444E-04   3.79061312E-05
              830   4.26233339E-04   6.44621556E-04   5.31722559E-04   7.51185435E-05
              831   2.39726796E-04   4.05532221E-04   3.03202018E-04  -8.89777366E-05
              832   2.90061434E-04   6.24286535E-04   5.57343126E-04   5.66232775E-05
              833   1.20483595E-03   1.58120791E-04   1.38135918E-03   4.89956583E-04
              834   2.32014208E-04   4.07083135E-04   2.53325154E-04  -1.08971799E-04
              835   2.49144126E-04   4.66221943E-04   4.01356927E-04  -4.89369850E-05
              836  -7.19514734E-04  -1.27690932E-04   4.28688858E-04   3.57027544E-04
              837  -6.19132537E-04  -1.19331555E-04   5.25786483E-04   3.60231992E-04
              838  -2.20969639E-04  -1.29989523E-04   2.52013851E-04   2.18917863E-04
              839   6.75759511E-05   2.09773687E-04   5.10147773E-04   6.62897291E-05
              840  -1.90312811E-03  -1.10115667E-04   1.02548325E-03   5.44984709E-04
              841   2.61669076E-04   5.01572504E-04   3.15471261E-04  -7.61194824E-05
              842   1.91661151E-04   5.64640039E-04   1.89341372E-04  -2.73451988E-05
              843  -1.75988872E-03   9.47265216E-05   1.41315465E-03   5.18116984E-04
              844   3.87276581E-04   6.81065489E-04   6.31235365E-04   1.39922224E-04
              845  -1.09564397E-03  -4.19276694E-05   3.33823031E-04   2.08199417E-04
              846  -5.25580253E-04   1.36389053E-05   7.83572788E-04   3.26276873E-04
              847  -1.03274309E-04  -2.26946704E-05   4.52467095E-04   1.68698636E-04
              848   3.92781047E-04   6.37336401E-04   3.97135300E-04   7.34016169E-07
              849  -3.28091788E-04   3.80338752E-05   7.01782585E-04   2.70005810E-04
              850   2.22202856E-04   2.96646584E-04   2.52897909E-04  -9.86095256E-05
              851  -8.45978560E-04  -3.28261740E-05   2.53984617E-04   1.62220997E-04
              852   2.39705376E-04   5.50755416E-04   2.38597597E-04  -7.77826790E-05
              853  -3.62312887E-04  -1.25664097E-04   3.91077570E-04   2.87101080E-04
              854  -1.01038534E-03  -1.20698001E-04   6.32408890E-04   4.40203119E-04
              855  -2.64280895E-03  -1.77902839E-05   7.38420989E-04   1.90180494E-04
              856   7.38858420E-04   5.90770040E-04   1.43100007E-03   8.63867695E-04
              857   2.25086376E-04   6.01134263E-04   6.06581045E-04   6.29612550E-05
              858   3.19035986E-04   8.59213294E-04   1.05039531E-03   4.79884853E-04
              859   2.01011542E-04   1.92795516E-04   1.95885674E-04  -9.89615073E-05
              860   1.88186823E-04   5.39439730E-04   1.85841549E-04  -6.49331778E-05
              861   5.52893442E-04   7.42146978E-04   1.29419379E-03   7.44884717E-04
              862   2.12350540E-04   2.76904146E-04   3.95091716E-04  -4.21720215E-05
              863   4.67152480E-04   6.31887699E-04   4.94430598E-04   2.88338215E-05
              864   2.03952572E-04   7.46197940E-04   7.87547848E-04   1.94274035E-04
              865   5.05162461E-04   6.73096278E-04   7.69116275E-04   2.52376689E-04
              866   3.40249477E-04   6.26082299E-04   4.86467528E-04   3.38280915E-05
              867   1.33142702E-03   4.77428548E-05   1.39727630E-03   3.15774465E-04
              868  -1.02857966E-03  -7.68024038E-05   8.56747734E-04   4.50090214E-04
              869  -4.86682926E-04   3.21451545E-04   1.03706378E-03   2.76227423E-04
              870   7.26513623E-04   5.27967291E-04   7.46617035E-04   8.58646890E-05
              871   6.10969379E-04   6.54846139E-04   1.02162478E-03   4.70134342E-04
              872   3.06193688E-04   7.30649976E-04   7.41873926E-04   2.00573704E-04
              873  -1.57639862E-03  -1.57948034E-05   4.24409867E-04   1.32240282E-04
              874   2.36413805E-04   6.56891905E-04   6.49702270E-04   1.00998419E-04
              875   2.39622357E-04   4.20485943E-04   3.60355305E-04  -7.82300049E-05
              876   5.91536402E-04   5.96805708E-04   6.20936917E-04   7.07121435E-05
              877   1.15327921E-03   2.18043060E-04   1.20495388E-03   2.33087398E-04
              878  -1.15990569E-03  -1.03235543E-05   2.96443177E-04   7.43319106E-05
              879  -1.89304363E-03  -1.04832041E-04   7.68711732E-04   4.61385789E-04
              880   3.12929158E-04   6.22454158E-04   3.25937290E-04  -1.93954111E-05
              881   1.01261691E-03   3.30545066E-04   1.36405125E-03   6.60905149E-04
              882   5.40129782E-04   6.11808675E-04   5.38838853E-04   1.64452922E-05
              883   2.24334464E-04   5.02242765E-04   2.27824450E-04  -9.46481232E-05
              884   2.38905195E-04   5.93260920E-04   2.39724512E-04  -3.47919522E-05
              885   1.16200559E-03   1.80682444E-04   1.42481783E-03   6.27718517E-04
              886   2.13758409E-04   4.09592845E-04   4.45518002E-04  -2.26131888E-05
              887   2.47789692E-04   5.24098403E-04   4.29918640E-04  -2.84165999E-05
              888  -2.26649136E-04  -1.43008860E-04   2.75641418E-04   2.34574312E-04
              889  -1.51581701E-03  -4.89822378E-05   4.73770429E-04   2.80731882E-04
              890   7.20126845E-04   5.66332485E-04   9.78160650E-04   3.86014144E-04
              891   2.07499834E-03  -8.11598846E-04   2.10150192E-03   2.64997245E-04
              892   3.45143999E-05  -3.62715218E-05   3.62224237E-04   1.09516259E-04
              893  -6.47048291E-04  -6.07980946E-05   2.42842303E-04   2.26086064E-04
              894   3.63937201E-04   7.62628682E-04   8.38493637E-04   2.98082712E-04
              895  -5.37984131E-04  -1.14692302E-04   2.86482769E-04   2.78692227E-04
              896   2.16175831E-04   5.72580262E-04   2.16795524E-04  -4.76043897E-05
              897  -8.31279845E-04  -9.77423952E-07   9.54225776E-04   4.02588048E-04
              898   2.57237029E-04   4.95091896E-04   3.61255836E-04  -5.17602602E-05
              899   1.76056346E-03  -4.03834798E-04   1.96319376E-03   7.51288433E-04
              900   1.42919878E-03  -5.51948579E-05   1.55312649E-03   4.86656849E-04
              901   3.43685679E-04   7.04467180E-04   6.97045180E-04   1.77887239E-04
              902   1.98358973E-03  -6.62420643E-04   2.06479756E-03   5.40921639E-04
              903   4.28594591E-04   7.30153290E-04   8.36224062E-04   3.09738738E-04
              904   1.24851125E-04   4.13010566E-04   5.81608911E-04   3.01557084E-05
              905  -1.43689883E-03  -9.75448129E-05   7.18575611E-04   4.92147170E-04
              906   1.38334045E-03  -8.75487785E-06   1.53657061E-03   5.30728314E-04
              907   2.10384664E-04   5.05304022E-04   5.39194327E-04   1.67690778E-05
              908   7.38704402E-05  -2.34744821E-05   2.10222715E-04   6.21886284E-05
              909   2.32411490E-04   8.27419164E-04   8.97105841E-04   3.04812973E-04
              910   4.26612969E-04   7.95995817E-04   1.05422409E-03   5.02916926E-04
              911  -7.26170372E-04  -7.42849152E-05   2.86052149E-04   2.62160815E-04
              912   7.53176049E-04   5.29002980E-04   8.82982567E-04   2.63988128E-04
              913   3.53706302E-04   6.25961926E-04   4.12093446E-04   1.21085804E-06
              914   1.21341622E-03   1.07781088E-04   1.68160221E-03   9.27892223E-04
              915   5.99129708E-04   6.43232546E-04   9.05149791E-04   3.56454228E-04
              916  -2.27463502E-03  -1.53568035E-05   6.21390063E-04   1.39366690E-04
              917   1.38731790E-04   3.06852744E-05   2.07619756E-04  -8.85791269E-06
              918   4.73442837E-04   6.34922297E-04   4.91481158E-04   2.45281171E-05
              919   3.27094487E-04   6.07718248E-04   3.95519135E-04  -1.58303483E-05
              920   3.67136003E-04   6.39209873E-04   5.09508012E-04   4.84741031E-05
              921   4.68173326E-04   6.51134120E-04   6.14532328E-04   1.28844578E-04
              922  -2.40249978E-03  -7.70662955E-05   1.10573554E-03   5.63538750E-04
              923  -1.43681699E-03  -9.20807433E-05   9.01850348E-04   5.23082912E-04
              924   1.93626023E-04   3.89744673E-04   1.76877686E-04  -1.23352394E-04
              925   5.52460784E-04   7.23383680E-04   1.16006529E-03   6.10451505E-04
              926   3.01616674E-04   5.82815963E-04   3.82840255E-04  -3.24558132E-05
              927   2.21920927E-04   2.95932667E-04   2.87847099E-04  -8.63686437E-05
              928   2.51960097E-04   8.53813544E-04   9.55633004E-04   3.67661763E-04
              929   2.49560399E-04   5.45340823E-04   5.13097970E-04   1.30448843E-05
              930   2.01173141E-04   3.56447475E-04   1.86332371E-04  -1.25272651E-04
              931   6.73922244E-04   6.36215846E-04   1.28040125E-03   7.20721902E-04
              932  -4.47851606E-04  -1.24365586E-04   3.06617294E-04   2.79842876E-04
              933   3.31485149E-04   6.35321660E-04   3.44738626E-04  -1.28205193E-05
              934   1.12480717E-03   2.27263416E-04   1.33568910E-03   5.32040314E-04
              935   8.97579070E-04   4.25226055E-04   9.88597050E-04   2.55733845E-04
              936   4.26406565E-04   6.67483255E-04   6.28897978E-04   1.37758499E-04
              937   1.29471591E-03   9.78014214E-05   1.29884901E-03   7.31089312E-05
              938   5.63232403E-04   6.04704837E-04   5.75442566E-04   3.86939500E-05
              939   1.91986852E-04   1.94256485E-04   3.00625048E-04  -5.13490595E-05
              940   2.11403798E-03  -8.63886613E-04   2.12782691E-03   1.74334506E-04
              941   7.68383834E-05  -4.19261323E-06   2.84457055E-04   5.90472009E-05
              942   1.86250225E-04   4.61409596E-04   1.68400962E-04  -9.75284784E-05
              943   2.22885225E-04   3.67517059E-04   3.80302052E-04  -5.69888434E-05
              944  -2.33709766E-03  -9.65247455E-05   8.56475672E-04   4.56297828E-04
              945  -3.09548719E-04  -1.18441712E-04   2.33160434E-04   2.32870123E-04
              946  -5.40767738E-04  -9.10713061E-05   2.44092837E-04   2.43513336E-04
              947   2.96829676E-04   5.78915991E-04   4.73139400E-04   1.48568165E-06
              948  -1.13517419E-03  -7.00669916E-05   5.57398307E-04   4.26160666E-04
              949   2.31024635E-04   4.88573511E-04   2.45078263E-04  -9.68300446E-05
              950  -9.24286258E-04  -5.41736663E-05   3.01514287E-04   2.22612071E-04
              951  -2.00588908E-03  -3.25701149E-06   5.33353712E-04   9.72794223E-05
              952   2.53352977E-04   5.78698644E-04   2.61681766E-04  -5.88190815E-05
              953   2.28030287E-04   4.49049141E-04   2.34771593E-04  -9.90970075E-05
              954   1.60203374E-04   2.83719390E-04   4.54086927E-04   2.58393993E-06
              955   4.83928772E-04   7.87690748E-04   1.22618815E-03   6.76229422E-04
              956   1.90747465E-04   4.25064412E-04   1.77493173E-04  -1.15139490E-04
              957  -2.41548056E-04   2.08802507E-04   7.85087235E-04   2.04192271E-04
              958   3.66507214E-04   8.47468153E-04   1.10417954E-03   5.43926144E-04
              959   1.53681345E-03  -2.41501664E-04   1.91514264E-03   9.72764101E-04
              960  -6.73080212E-04  -7.59895483E-05   6.91455905E-04   3.73311923E-04
              961   8.34007049E-04   5.05044940E-04   1.48579117E-03   8.89864168E-04
              962   3.65841261E-05  -5.09858801E-05   2.73786020E-04   9.33724004E-05
              963   1.95444576E-04   1.72056622E-04   2.47987598E-04  -7.03214610E-05
              964  -3.11066117E-03  -2.80525710E-05   8.92917858E-04   2.20742921E-04
              965  -3.18180653E-04  -3.38669197E-05   5.94965997E-04   2.65963085E-04
              966   5.51590383E-05   4.05790110E-04   6.95610768E-04   9.31537143E-05
              967   2.16738263E-04   2.40965121E-04   2.27020180E-04  -9.56532895E-05
              968   6.57342258E-04   5.71528275E-04   6.60651596E-04   3.33692988E-05
              969   2.98471947E-04   5.96772821E-04   3.29796690E-04  -4.03311788E-05
              970   1.74228000E-04   5.08044614E-04   5.92194672E-04   4.06725339E-05
              971  -1.04491087E-03  -7.86235760E-05   3.95343784E-04   3.06637376E-04
              972  -1.24462153E-04  -1.15646886E-04   2.23786366E-04   1.79360388E-04
              973   1.16498668E-04   1.54145255E-05   2.48229073E-04   2.33336104E-05
              974   1.90528634E-04   7.11412111E-04   7.47917511E-04   1.52820809E-04
              975   1.79767289E-04   6.10500458E-04   6.63868210E-04   8.25307507E-05
              976   1.00193545E-03   3.48136964E-04   1.03872700E-03   1.79822950E-04
              977  -1.85124634E-04  -1.30366418E-04   2.90454918E-04   2.17059700E-04
              978   3.90699977E-04   6.38636120E-04   4.43145109E-04   2.12003742E-05
              979  -1.85176951E-03  -4.34406029E-05   6.24429609E-04   3.54690215E-04
              980   8.48416763E-04   4.87568614E-04   1.35500799E-03   7.47673272E-04
              981   1.05907256E-03   2.95439502E-04   1.14558591E-03   2.97529099E-04
              982   3.19837156E-04   6.34755008E-04   3.24732304E-04  -5.64069887E-06
              983   4.61940450E-04   6.32470939E-04   5.19929454E-04   5.99008308E-05
              984   3.31521645E-04   8.13579478E-04   9.35005548E-04   3.75935517E-04
              985  -1.29601290E-03   1.98621419E-04   1.34897348E-03   4.26742219E-04
              986   4.98309615E-04   7.12583133E-04   9.02105414E-04   3.68492620E-04
              987  -2.05285251E-04   4.25634644E-04   9.08175018E-04   1.55451999E-04
              988  -6.66363921E-04   3.35851626E-04   1.15860952E-03   2.97412276E-04
              989   4.23500489E-04   6.93646027E-04   7.18771364E-04   2.06670549E-04
              990   2.18113317E-04   2.98863655E-04   2.25328404E-04  -1.12939379E-04
              991  -2.34295893E-03   1.22918173E-05   1.46464491E-03   5.64650807E-04
              992   5.48038981E-04   6.31762203E-04   6.88496395E-04   1.72867687E-04
              993   2.20085538E-04   3.59393947E-04   2.25239797E-04  -1.11999645E-04
              994  -3.11905569E-05  -7.00856617E-05   3.20299354E-04   1.34930640E-04
              995  -9.18759208E-04  -9.51320981E-05   7.27493956E-04   4.18966025E-04
              996   2.38540742E-04   5.48633281E-04   2.48299213E-04  -7.54658249E-05
              997   1.06103206E-03   2.96837912E-04   1.06610055E-03   6.18231497E-05
              998   2.46560929E-04   4.73926193E-04   4.44983569E-04  -1.60415675E-05
              999  -5.10350161E-04   1.60394557E-04   9.03771666E-04   2.88822484E-04
             1000   1.63172663E-04   4.09657252E-04   5.53582795E-04   2.52914288E-05
             1001   2.35489395E-04   4.06866136E-04   2.77000596E-04  -9.97431489E-05
             1002  -8.36141480E-05  -9.87457097E-05   2.63643888E-04   1.64339683E-04
             1003   9.07126989E-04   4.29384876E-04   1.16611598E-03   4.94905806E-04
             1004   1.74301196E-04   1.11727109E-04   2.48577679E-04  -4.06778745E-05
             1005   2.84363166E-04   5.75662125E-04   3.22726468E-04  -5.44116920E-05
             1006   2.07372781E-04   2.72070407E-04   3.56392469E-04  -5.23772142E-05
             1007   2.86551047E-04   5.59878594E-04   3.86749191E-04  -3.94405979E-05
             1008  -4.56636160E-04  -9.50327958E-05   5.52698039E-04   3.22986132E-04
             1009   1.06204912E-04   3.70718946E-04   5.96202037E-04   4.95214917E-05
             1010   1.78353410E-04   5.33650105E-04   1.71890526E-04  -6.33034797E-05
             1011  -9.28583555E-04  -1.21301666E-04   4.74584318E-04   3.80301033E-04
             1012   2.29815516E-04   3.51797615E-04   2.76737992E-04  -9.72549606E-05
             1013   3.17783764E-04   6.13857934E-04   3.40555998E-04  -2.77391955E-05
             1014   2.06943951E-04   2.39533125E-04   1.88694627E-04  -1.13635746E-04
             1015   1.82087650E-04   1.00618272E-04   1.95414177E-04  -6.59374200E-05
             1016   2.68276199E-04   5.39764063E-04   3.13614553E-04  -6.80871890E-05
             1017   4.65808815E-04   6.30168535E-04   4.66124795E-04   7.55492010E-06
             1018   2.75255588E-04   6.85045787E-04   6.88778528E-04   1.45597660E-04
             1019   2.12809857E-04   7.21700257E-04   7.36753223E-04   1.66001657E-04
             1020   2.21927010E-04   4.06395702E-04   2.28697696E-04  -1.14745024E-04
             1021   1.84921446E-04   4.28133033E-04   5.10050799E-04   1.65448546E-06
             1022   2.16674831E-04   5.50683180E-04   5.68131625E-04   3.12884222E-05
             1023   1.92497682E-04   1.26759100E-04   2.22956442E-04  -6.12531294E-05
             1024   3.60326987E-04   6.76714932E-04   6.23737578E-04   1.24927217E-04
             1025  -7.19157979E-04  -3.60310296E-05   2.42964103E-04   2.32755658E-04
             1026  -7.83109106E-04  -1.11674133E-04   3.87698557E-04   3.35087825E-04
             1027   2.90135475E-04   6.71225833E-04   6.41001679E-04   1.15083458E-04
             1028   9.85515435E-05   4.20103199E-04   6.57750410E-04   9.26017892E-05
             1029  -1.09401299E-03  -5.37950400E-05   3.63587518E-04   2.65541079E-04
             1030  -6.80285739E-04  -9.76939482E-05   3.17701197E-04   2.97851861E-04
             1031   1.75420166E-04   4.52793669E-04   5.54858008E-04   2.14919764E-05
             1032   1.43637229E-03  -5.62579662E-05   1.46222254E-03   2.27382960E-04
             1033   4.83815325E-04   6.93067152E-04   8.00863490E-04   2.71256547E-04
             1034  -1.10605724E-04  -6.97514333E-05   3.92543065E-04   1.85505749E-04
             1035   2.89439457E-04   7.66306417E-04   8.03848961E-04   2.43012735E-04
             1036   2.65332812E-04   7.47940503E-04   7.66460551E-04   2.00711875E-04
             1037  -1.40345213E-03  -9.34820855E-05   5.88370021E-04   4.24273225E-04
             1038  -1.28093874E-03  -7.14983253E-05   4.78187692E-04   3.45608976E-04
             1039   5.09100151E-04   6.21153682E-04   5.51564503E-04   7.23694320E-05
             1040   8.93491844E-04   4.31245950E-04   1.03473093E-03   3.37327248E-04
             1041  -4.79219994E-03  -3.70880080E-05   1.52795052E-03   2.97315331E-04
             1042   6.03262917E-04   5.96160302E-04   6.61453058E-04   1.16848940E-04
             1043   1.87839178E-04   1.45121550E-04   3.37053410E-04  -1.70437597E-05
             1044   5.20604954E-04   6.59759447E-04   7.29271793E-04   2.16311470E-04
             1045   7.49036495E-04   5.51228877E-04   1.07546290E-03   4.83529409E-04
             1046  -1.65335333E-03  -9.06507776E-05   6.69712084E-04   4.46170918E-04
             1047  -2.94091459E-03  -6.66536580E-05   1.03065209E-03   4.88717400E-04
             1048  -6.59653975E-04  -1.30894216E-04   4.73750406E-04   3.65395390E-04
             1049  -1.63015816E-03  -7.70858169E-05   5.25593001E-04   3.32366180E-04
             1050   8.88466777E-04   4.44131205E-04   1.27513788E-03   6.36284763E-04
             1051  -4.02238034E-03  -5.03688825E-05   1.54161220E-03   4.54661087E-04
             1052   2.46152573E-04   4.54454828E-04   2.83156667E-04  -9.52990013E-05
             1053   1.94467095E-04   3.49748065E-04   4.27293126E-04  -3.00887423E-05
             1054  -9.21785890E-04  -5.24485040E-05   2.84882408E-04   2.03835487E-04
             1055   4.00623248E-04   7.70100625E-04   9.03627486E-04   3.65146145E-04
             1056   2.08332247E-04   2.63735943E-04   3.03034700E-04  -7.01893514E-05
             1057   1.68729527E-03  -3.25463363E-04   1.79785397E-03   5.10437530E-04
             1058  -1.74207357E-03  -2.30585702E-05   1.17519009E-03   5.41569199E-04
             1059   2.08043450E-04   6.28540292E-04   6.53155439E-04   8.52749436E-05
             1060   2.59697321E-04   5.51866484E-04   4.78780479E-04   9.71055215E-07
             1061   1.54909023E-04   3.55126103E-04   5.00155147E-04   6.93885977E-06
             1062  -1.94703462E-05   1.73721142E-04   6.08879782E-04   1.09593537E-04
             1063   1.33125941E-04   1.44585414E-04   4.15241433E-04   3.49221096E-07
             1064   3.18262260E-04   6.08190021E-04   4.63384786E-04   1.25948072E-05
             1065   1.81966962E-03  -4.70695872E-04   1.82932557E-03   2.14525047E-04
             1066   3.80924204E-04   6.39008242E-04   4.89219150E-04   4.46630402E-05
             1067  -3.11376323E-04  -1.33863403E-04   2.90184485E-04   2.51835998E-04
             1068   6.88749948E-04   5.78681356E-04   8.86841211E-04   3.03539098E-04
             1069  -4.99030401E-04  -1.29213382E-04   4.28770174E-04   3.26610781E-04
             1070   3.11312207E-04   6.58728590E-04   5.94428333E-04   9.17286452E-05
             1071   1.86684687E-04   2.79227330E-04   4.15298593E-04  -1.24793632E-05
             1072   2.47883290E-04   5.89270960E-04   2.52414728E-04  -4.63145952E-05
             1073   2.37564207E-04   5.75357873E-04   5.59937092E-04   3.85394742E-05
             1074   1.49448952E-05   2.85782182E-04   6.09014183E-04   8.87946007E-05
             1075   2.41810703E-04   4.11414716E-04   3.34546465E-04  -7.92446081E-05
             1076   1.09006149E-04   7.25105419E-05   3.49261012E-04   3.90577843E-05
             1077   2.24385280E-04   4.75792127E-04   4.94851964E-04  -7.44654972E-06
             1078   2.50515499E-04   4.55689704E-04   3.33784905E-04  -7.56129448E-05
             1079   2.58080574E-04   7.63121701E-04   8.08218960E-04   2.21536291E-04
             1080   5.02080889E-04   6.44711661E-04   6.24550390E-04   1.19255987E-04
             1081   7.12085865E-04   5.54534199E-04   7.89452228E-04   1.78419490E-04
             1082  -9.27020039E-04   2.91752222E-04   1.26494071E-03   3.49038455E-04
             1083   2.34520558E-04   4.99057525E-04   4.77517897E-04  -1.03485581E-05
             1084   2.35565560E-04   3.79137840E-04   3.55233846E-04  -6.84645856E-05
             1085   5.16107139E-05   1.72247146E-05   3.85637337E-04   8.89619041E-05
             1086   9.87475738E-04   3.41808685E-04   1.50502671E-03   8.53235892E-04
             1087   3.62954597E-04   6.52712246E-04   5.52748737E-04   7.65221776E-05
             1088  -5.49957796E-04  -1.26746963E-04   3.84040992E-04   3.23685701E-04
             1089   1.66536731E-04   5.51816309E-04   1.64458630E-04  -1.45214708E-05
             1090  -4.27895552E-03  -2.88027550E-05   1.31479313E-03   2.63944268E-04
             1091   4.01403871E-04   6.33668911E-04   4.05260245E-04  -5.89648425E-06
             1092  -2.33584642E-03  -4.17487754E-05   7.17540563E-04   3.06459813E-04
             1093   7.70483864E-04   5.11216640E-04   8.18939821E-04   1.51586995E-04
             1094   1.84584074E-04   5.15096588E-04   1.78589544E-04  -7.87612225E-05
             1095   1.65165315E-04   5.46636293E-04   1.63695295E-04  -2.85776878E-05
             1096  -9.29534493E-04  -6.67511540E-06   2.36263149E-04   5.32925624E-05
             1097   2.59668013E-04   6.14431512E-04   2.61280511E-04  -1.08577669E-05
             1098  -2.02606851E-03  -1.16437426E-04   9.24347842E-04   5.30646008E-04
             1099   2.22318340E-04   3.06095521E-04   3.38779995E-04  -6.51656883E-05
             1100   4.76136280E-04   7.57011003E-04   1.02706207E-03   4.90323931E-04
             1101   2.04859115E-03  -7.56234105E-04   2.09857826E-03   4.06264444E-04
             1102  -5.96319907E-04  -1.66297432E-05   9.11799201E-04   3.34598444E-04
             1103   3.36443947E-04   7.45545840E-04   7.84526812E-04   2.45054311E-04
             1104  -6.20066945E-04  -1.02269616E-04   5.96440223E-04   3.63169354E-04
             1105   3.16640391E-04   6.57556520E-04   5.58072643E-04   6.95653725E-05
             1106   5.56466926E-04   6.95521245E-04   1.01628422E-03   4.72383050E-04
             1107   1.39587675E-03  -5.24282914E-05   1.69119681E-03   7.88724166E-04
             1108   2.02343857E-04   5.84529422E-04   2.02641226E-04  -1.29296022E-05
             1109  -1.04005169E-03  -9.02120973E-06   2.64119124E-04   5.93745863E-05
             1110   5.75069163E-04   6.12221775E-04   6.77645847E-04   1.49704050E-04
             1111  -2.42318958E-04  -1.14253889E-04   3.59267055E-04   2.34414038E-04
             1112   1.08992297E-03   2.35305415E-04   1.66447414E-03   9.90552944E-04
             1113   1.70251005E-04   5.46874478E-04   1.69825362E-04  -3.80832716E-05
             1114  -3.47858225E-03  -5.05587013E-05   1.27937447E-03   4.91446466E-04
             1115   6.55781536E-04   6.06665621E-04   9.27115325E-04   3.59894126E-04
             1116   2.15024949E-04   4.48324223E-04   2.01337854E-04  -1.11021414E-04
             1117   9.14369361E-04   4.26652434E-04   1.22121500E-03   5.56508021E-04
             1118   1.64271507E-03  -2.76088685E-04   1.67941465E-03   3.19090032E-04
             1119   6.46598113E-04   6.68392691E-04   1.36835466E-03   8.18201865E-04
             1120   3.14068806E-04   5.95239107E-04   5.18232933E-04   3.99226628E-05
             1121   2.99562351E-04   5.78208477E-04   4.34230344E-04  -1.49820271E-05
             1122  -1.81378960E-03  -2.86292507E-05   4.78354603E-04   4.62031239E-05
             1123   8.79727886E-04   4.40978678E-04   9.03793320E-04   9.31748291E-05
             1124   2.06732788E-04   2.12426021E-04   2.73500773E-04  -7.05686034E-05
             1125   3.08862916E-04   6.32036012E-04   3.13572906E-04  -9.86793930E-06
             1126   6.36753975E-05   3.03750887E-04   5.44819341E-04   4.49204344E-05
             1127   2.80279783E-04   8.61782639E-04   1.00524677E-03   4.27278370E-04
             1128  -1.18420576E-05   2.29844909E-06   4.23634920E-04   1.29011169E-04
             1129   2.57292035E-04   6.12630742E-04   2.60566449E-04  -2.53257949E-05
             1130  -8.66702292E-04  -1.85269710E-05   2.36339372E-04   1.11940521E-04
             1131  -1.18362112E-03   1.49977859E-06   1.00448448E-03   4.52589913E-04
             1132   8.06797063E-04   5.06436103E-04   1.06059422E-03   4.34259186E-04
             1133   2.58709420E-04   5.30525402E-04   2.66779825E-04  -7.98600668E-05
             1134   2.00987706E-04   1.82330026E-04   2.24286196E-04  -8.89013900E-05
             1135   8.80960259E-04   4.33251087E-04   9.32777941E-04   1.81885218E-04
             1136   1.48147857E-03  -1.11621943E-04   1.67620007E-03   6.43479871E-04
             1137  -2.93210661E-03   7.36433867E-05   1.29073346E-03   5.77537459E-04
             1138   2.05477583E-04   4.59482719E-04   5.10187761E-04   8.02547947E-06
             1139  -2.09076679E-04  -1.20905941E-04   2.25984884E-04   2.07245423E-04
             1140   2.12688115E-04   5.40218898E-04   2.11929728E-04  -7.93451545E-05
             1141  -2.07696183E-04   8.63573878E-05   6.60989026E-04   2.12993968E-04
             1142   3.16686870E-04   6.17303944E-04   4.42078250E-04   9.11049847E-06
             1143  -7.71343126E-04  -1.00657518E-04   5.61454042E-04   3.63452447E-04
             1144  -3.32697178E-04  -1.08828594E-04   4.45597369E-04   2.83867354E-04
             1145   1.81087246E-03  -4.61854273E-04   1.87167421E-03   4.17896023E-04
             1146  -9.45502616E-05   4.28219122E-04   8.72089237E-04   1.22824713E-04
             1147   6.62624952E-04   6.16181234E-04   1.02580304E-03   4.60753392E-04
             1148  -2.05141050E-03  -1.46288687E-04   8.53104691E-04   4.70428902E-04
             1149   2.74205842E-04   8.24185379E-04   9.00673098E-04   3.27564368E-04
             1150   1.75846857E-04   5.60283661E-04   6.28136622E-04   6.00588755E-05
             1151   6.47070738E-06   1.94987588E-04   5.25820476E-04   9.16306963E-05
             1152  -4.24792233E-04  -9.51802649E-05   2.71351280E-04   2.55433843E-04
             1153   1.44298479E-04   9.47465378E-05   2.98743078E-04  -4.15640625E-06
             1154  -3.26549093E-06  -8.54534883E-05   2.23514362E-04   1.15612755E-04
             1155   1.95447210E-04   1.35867449E-04   1.90280727E-04  -8.39020431E-05
             1156  -3.18186998E-04  -7.97585526E-05   5.11541322E-04   2.75354570E-04
             1157   1.02387334E-03   3.22556909E-04   1.22392760E-03   4.77882277E-04
             1158   6.07974303E-04   6.02348067E-04   7.57028640E-04   2.13674415E-04
             1159   2.67826254E-04   5.10239741E-04   3.55385360E-04  -6.11430150E-05
             1160   1.05613226E-03   2.88647570E-04   1.50432298E-03   8.10011406E-04
             1161  -1.00003951E-03  -2.13017247E-05   2.74889142E-04   1.24710961E-04
             1162  -8.98172264E-04   1.09390952E-04   1.10661483E-03   3.75415868E-04
             1163   3.94721748E-04   6.44066255E-04   4.83766518E-04   4.78781621E-05
             1164   4.70177678E-04   7.34607747E-04   9.22056206E-04   3.86732281E-04
             1165  -1.25818152E-03  -1.35067430E-05   3.60950333E-04   1.45926315E-04
             1166  -4.13244881E-04   3.15901125E-04   9.34893847E-04   2.86321243E-04
             1167   1.21085934E-04   3.02589178E-04   5.14847983E-04   2.44544608E-05
             1168   2.08488986E-04   5.79230196E-04   2.09658363E-04  -3.32237396E-05
             1169  -1.05935811E-04   4.59791190E-05   5.24238450E-04   1.51438493E-04
             1170  -1.26445433E-03   4.99742309E-05   1.16842636E-03   4.46985505E-04
             1171   1.13065689E-05  -3.37606571E-06   2.82826068E-06  -3.78403388E-06
             1172   1.17267257E-06  -1.98931411E-05   1.49148946E-05   1.75151326E-05
             1173   3.22383530E-05   5.52899255E-05   8.36292566E-06  -4.07201114E-05
             1174   4.05387908E-07  -9.78540058E-08   4.15116510E-08  -2.23532481E-07
             1175   5.63808280E-05   2.01404298E-04   3.09861425E-05  -8.12832586E-05
             1176   6.81519814E-05  -4.04366119E-06   3.15367870E-05  -2.83451536E-05
             1177   1.09976348E-08  -1.36999736E-08   5.03059261E-10   3.86559718E-09
             1178  -2.65727518E-04  -3.24219545E-05   9.52691553E-05   1.05350358E-04
             1179   1.57547333E-06   1.68194742E-06   5.75702330E-08  -1.90761216E-06
             1180   9.19221638E-05   1.18202872E-04   4.20509350E-05  -8.86866546E-05
             1181   4.23634141E-08   2.49447041E-08  -2.34129161E-09  -4.74779540E-08
             1182   3.48109497E-05  -4.92453764E-05   5.18789020E-05   2.49600089E-05
             1183   6.43326275E-05   3.37914156E-04   5.50413279E-05  -6.35734905E-05
             1184   7.12713063E-06   2.28317022E-05   6.57473095E-07  -1.33075800E-05
             1185  -7.13825159E-07  -1.88297258E-06   9.78280809E-07   1.44091905E-06
             1186   9.53010167E-05   1.44226779E-05   5.91250500E-05  -3.88725748E-05
             1187  -2.98120497E-08  -7.56574039E-08   2.36158737E-08   5.75655008E-08
             1188  -1.35487149E-04  -8.19797424E-05   1.14291419E-04   1.39100011E-04
             1189   2.16992180E-06   7.32674971E-06   1.68379088E-10  -3.73317653E-06
             1190   1.01575555E-04   3.29033792E-04   7.53345084E-05  -1.06022460E-04
             1191   6.18221430E-09   1.80779853E-08   1.79004667E-09  -8.66949446E-09
             1192  -9.62196282E-07  -4.64563215E-07   4.18307991E-07   7.77899459E-07
             1193   1.20790777E-04   2.53899285E-04   7.89765036E-05  -1.17436175E-04
             1194  -5.20247791E-04  -2.09030477E-05   1.51465312E-04   1.03519873E-04
             1195   1.41370729E-05  -8.11591308E-05   1.03450795E-04   6.57552664E-05
             1196   1.48367166E-04   1.61622535E-04   8.64750764E-05  -1.07940781E-04
             1197  -5.87956602E-05  -9.88150350E-06   2.11411007E-05   2.89192612E-05
             1198   2.10745071E-07   9.98844257E-07  -3.39136150E-08  -5.06516017E-07
             1199   1.74438101E-05   1.42135221E-04   9.00069881E-06  -3.90354471E-05
             1200   8.34265919E-08   2.11890580E-07  -1.35074973E-08  -1.65960373E-07
             1201  -1.43378767E-08  -5.04643793E-09  -6.27941699E-10   9.63119007E-09
             1202   1.02404047E-04  -4.24115060E-05   1.13502356E-04   1.23817517E-05
             1203   9.73575970E-06   6.37263947E-05   2.22600988E-06  -2.44729254E-05
             1204  -3.28028866E-04  -6.43098683E-05   1.53789792E-04   1.69372055E-04
             1205  -1.56070571E-04  -1.09936627E-05   4.74600602E-05   4.61846794E-05
             1206  -1.51461393E-07  -1.32942105E-07   8.03913736E-08   1.65295390E-07
             1207  -3.93720825E-08  -1.10968266E-08   6.48827658E-09   2.43474574E-08
             1208  -3.63557338E-05  -5.13395298E-06   1.12625057E-05   1.60585114E-05
             1209   4.66516354E-07   3.30190551E-06  -9.34127229E-08  -1.49459993E-06
             1210  -1.00797442E-05  -1.17659613E-06   3.01851151E-06   3.59321575E-06
             1211   3.40643564E-05   2.56060681E-04   2.79006272E-05  -4.84461198E-05
             1212   7.53858728E-07  -7.87229567E-07   2.68859822E-07   1.34582734E-07
             1213   1.56126713E-04   8.11302743E-05   1.08022025E-04  -8.20849382E-05
             1214   5.82850953E-06   4.40457688E-06   5.91179401E-07  -6.09500967E-06
             1215   1.51491608E-04   3.73005860E-05   1.16588970E-04  -5.02418188E-05
             1216   1.06599003E-07  -2.24355290E-08   6.86991530E-09  -5.37531655E-08
             1217   1.03365004E-04   4.01706697E-04   9.18823644E-05  -8.57883933E-05
             1218   9.16732824E-05   4.53737739E-04   9.49780224E-05  -4.17946321E-05
             1219   2.93825542E-05  -7.05940010E-06   9.69854955E-06  -1.77311194E-05
             1220   8.33461744E-09  -2.06758499E-11  -3.21905558E-10  -3.92763599E-09
             1221   2.00095492E-05   1.90172868E-05   3.54893564E-06  -2.10265243E-05
             1222  -1.34902773E-04  -9.40495665E-05   1.39882177E-04   1.51063985E-04
             1223   4.39072245E-09   6.09434849E-08  -4.42098136E-09  -2.50624499E-08
             1224   5.85921896E-07   2.33599280E-07   2.05443591E-08  -5.52133997E-07
             1225   1.92548733E-08   4.64542937E-09  -1.30155631E-09  -1.54349280E-08
             1226   1.32705376E-04   3.53292242E-04   1.05016603E-04  -1.16719028E-04
             1227   2.24022051E-06  -5.59839827E-06   2.19880008E-06   2.67321252E-06
             1228   2.86483396E-06  -1.33288131E-06   6.97757514E-07  -7.01034992E-07
             1229  -2.04249995E-09   1.91011338E-07  -1.16934959E-08  -5.38724763E-08
             1230  -2.93551799E-04   3.94815697E-06   8.04426090E-05   5.18312663E-05
             1231   2.51428173E-06   1.59596621E-05  -3.31632322E-08  -7.34248169E-06
             1232  -2.23859092E-06  -5.69977658E-07   7.77088530E-07   1.23469454E-06
             1233   5.44546856E-05   1.03649050E-04   2.01304556E-05  -6.90177985E-05
             1234   9.10434028E-06  -8.22824877E-05   1.29063381E-04   7.72990825E-05
             1235   9.65075020E-10  -6.51755094E-09  -1.11399090E-09   4.83749085E-09
             1236   9.92618112E-08   5.27904206E-07  -2.69792046E-08  -3.06928058E-07
             1237   3.32817353E-06   4.27256491E-05   5.04447371E-07  -1.26284049E-05
             1238   1.48955849E-04   2.50501093E-04   1.02582504E-04  -1.21234785E-04
             1239   2.30321746E-07   1.15408717E-07   6.19304519E-09  -2.34242677E-07
             1240  -3.47816967E-06  -9.19616639E-07   1.22462870E-06   2.07170251E-06
             1241  -1.14383940E-04  -7.31944510E-06   3.45567460E-05   3.47288369E-05
             1242   9.28170848E-05   2.25483280E-04   5.32922895E-05  -1.01539517E-04
             1243  -2.16492226E-05  -1.18946436E-05   1.23155687E-05   1.98250636E-05
             1244  -6.28696172E-04   8.61553133E-07   1.64968689E-04   6.78440265E-05
             1245  -4.55009285E-04  -4.11035471E-05   1.57925606E-04   1.44816062E-04
             1246  -3.62876526E-05  -2.71664339E-05   2.73179085E-05   4.00248173E-05
             1247   3.48177628E-06   9.03771579E-05   2.07953917E-06  -2.06667573E-05
             1248  -7.76896632E-05  -1.76726517E-05   3.19079045E-05   4.35407746E-05
             1249   1.17006784E-05  -9.86125724E-06   6.22804328E-06   1.21167830E-06
             1250   3.68114357E-08  -2.27329213E-08   4.31590097E-09  -4.97091301E-09
             1251  -8.81961896E-05  -4.35895709E-05   5.92674187E-05   7.77850219E-05
             1252  -5.58033662E-07  -5.20421466E-08   1.49357533E-07   2.09018950E-07
             1253   2.97890814E-08  -9.98030956E-08   2.87106001E-08   6.85006540E-08
             1254   1.96120072E-05   2.09187056E-04   1.61163116E-05  -2.75854327E-05
             1255  -6.62336959E-08  -2.03314592E-08   1.53854032E-08   3.87666432E-08
             1256   6.29383940E-05   2.76183884E-04   4.18278723E-05  -7.47449158E-05
             1257   3.46794304E-09   2.61954725E-08   1.93823690E-09  -6.94658109E-09
             1258  -2.80108245E-04  -7.08924126E-05   1.60587559E-04   1.69055376E-04
             1259   5.24761526E-05   3.54656164E-04   5.09883685E-05  -2.95445134E-05
             1260   1.51993052E-04   1.96699140E-04   1.12487178E-04  -1.15433970E-04
             1261   2.31299211E-07  -3.69809101E-07   9.76727037E-08   7.21624787E-08
             1262   1.98299640E-05   8.44784081E-05   5.42371708E-06  -4.05504034E-05
             1263  -9.63335793E-08   6.94722758E-06  -2.98980581E-07  -1.72903265E-06
             1264  -3.88506123E-05  -7.49182000E-05   8.00889175E-05   8.25149400E-05
             1265   9.89059408E-05   4.77148220E-04   1.04293140E-04  -2.36280157E-05
             1266  -5.89941410E-05  -3.13722103E-06   1.56662099E-05   1.27633657E-05
             1267   1.18316195E-04   3.80752666E-04   9.75545481E-05  -1.04506093E-04
             1268   7.45405196E-05   4.18822048E-04   7.54644498E-05  -2.31406320E-05
             1269  -1.92412226E-05  -5.08214816E-06   6.59181205E-06   7.66252651E-06
             1270   7.18155643E-05   4.52625209E-05   2.65772669E-05  -6.06313115E-05
             1271  -4.23037302E-04  -7.12386964E-07   1.13248949E-04   6.12312506E-05
             1272   2.91205606E-06   6.27848858E-05   7.02956299E-07  -1.21854991E-05
             1273   1.18636643E-04   5.71340133E-05   6.24407112E-05  -7.28244922E-05
             1274   1.64987767E-07   2.15773389E-06  -9.45575067E-08  -9.31912552E-07
             1275   6.00333692E-07   1.17868160E-06  -1.71060037E-08  -1.01906289E-06
             1276   2.87970906E-05   1.85467390E-04   1.76544872E-05  -5.09320453E-05
             1277   1.09035018E-05   8.13183487E-06   1.39541703E-06  -1.13928409E-05
             1278   1.22833502E-04   4.59671719E-04   1.14520160E-04  -6.60465666E-05
             1279   1.41060533E-04   2.97778985E-04   1.02156890E-04  -1.20708952E-04
             1280   1.12958909E-09   4.20855955E-08  -2.22174257E-09  -1.18399743E-08
             1281   1.61117253E-08   3.97331092E-07  -2.58192738E-08  -1.24181398E-07
             1282  -5.92149190E-05  -9.48046873E-05   1.33705180E-04   1.22248355E-04
             1283  -2.21125021E-08  -1.50139490E-09  -7.69011466E-10   6.80210821E-09
             1284  -3.57174693E-04  -4.14075184E-05   1.33794907E-04   1.43176192E-04
             1285   2.35562219E-08   1.16857905E-06  -7.37704440E-08  -3.45421938E-07
             1286   9.35511707E-05   1.10420169E-05   4.23463316E-05  -3.23344029E-05
             1287   7.17755756E-05  -2.71997451E-05   5.32088306E-05  -9.62998274E-06
             1288  -1.68047700E-06  -1.04976699E-07   4.29897199E-07   4.97893211E-07
             1289   5.59920318E-06  -2.10483267E-06   1.37803397E-06  -1.95954044E-06
             1290   2.97405336E-08  -6.75165035E-09   2.29498046E-10  -1.43872327E-08
             1291   5.93398795E-07   1.13883498E-05  -2.67458063E-07  -3.07765390E-06
             1292   3.15282014E-05  -2.29689049E-05   1.98111811E-05   3.78343475E-06
             1293  -1.49747066E-07  -1.04869628E-06   5.11916539E-07   9.48160846E-07
             1294  -3.20807629E-07  -3.80380172E-08   7.86109666E-08   1.07833266E-07
             1295  -5.28255943E-04  -5.01310342E-06   1.33957656E-04   4.84566808E-05
             1296   1.61711883E-04   7.21955876E-05   1.40952819E-04  -6.28716662E-05
             1297   2.93310950E-05   1.14232505E-04   1.07458072E-05  -5.18761663E-05
             1298  -2.04051321E-05  -5.59235559E-05   5.54694197E-05   6.08433256E-05
             1299   8.46855386E-09   7.99376831E-09   1.47248780E-09  -6.78672141E-09
             1300  -7.01155400E-09  -5.01434849E-09  -2.24215935E-09   5.76937342E-09
             1301  -6.06693717E-08  -4.00511890E-09   7.28686933E-09   1.47974708E-08
             1302  -2.32902399E-04  -1.11716809E-05   6.11036594E-05   3.20311919E-05
             1303   2.35950811E-05  -1.17394370E-06   6.19361799E-06  -1.29862710E-05
             1304   3.27960843E-05   2.87989853E-04   3.11625990E-05  -2.59775934E-05
             1305  -4.26338782E-04  -4.29568427E-05   1.66487705E-04   1.66019803E-04
             1306  -5.99542807E-04  -3.15903053E-05   1.82833435E-04   1.44103571E-04
             1307  -2.18429646E-04  -1.66926366E-05   6.83662729E-05   6.23083033E-05
             1308  -1.53692934E-08  -4.15195700E-08   1.29963968E-08   3.99848297E-08
             1309   4.65743960E-06   1.19238583E-04   3.09287179E-06  -1.61089683E-05
             1310   6.27505051E-06   1.22838128E-05   5.55724910E-07  -9.91103479E-06
             1311  -7.30754152E-07   2.43217874E-05  -5.82305631E-07  -4.54177371E-06
             1312  -3.65524322E-08  -2.49405940E-09   1.98731098E-09   9.94425609E-09
             1313   1.73429318E-04   2.41074944E-04   1.29751759E-04  -1.23202786E-04
             1314   1.75328460E-04   1.52960114E-04   1.31469322E-04  -1.05219726E-04
             1315  -9.40914542E-05  -2.74434865E-06   2.38753837E-05   1.52018292E-05
             1316  -2.00493247E-04  -1.03538652E-04   1.74087007E-04   1.82161093E-04
             1317   8.60072760E-06   1.57571063E-04   7.09238157E-06  -2.16869576E-05
             1318   4.50273474E-05   4.34855383E-06   1.53063374E-05  -2.53414892E-05
             1319  -1.04168646E-06  -3.06245980E-08   2.51696946E-07   2.68392256E-07
             1320   1.66699210E-05   4.18867603E-05   3.40614656E-06  -2.61027380E-05
             1321   2.06087793E-06  -7.98859583E-06   4.28559770E-06   5.32733930E-06
             1322   8.02162394E-05  -4.87362122E-05   8.39733693E-05   1.24154158E-05
             1323   1.51713493E-07  -8.20530914E-08   2.57318877E-08  -3.00873957E-08
             1324   7.54024222E-05   1.59661431E-04   3.42720668E-05  -8.81649758E-05
             1325   1.31533801E-04   7.56436793E-06   1.36766772E-04  -2.32312868E-05
             1326   6.63487444E-05  -6.02355540E-05   1.50944310E-04   5.02974690E-05
             1327   1.28568179E-04   4.41712444E-04   1.16194788E-04  -8.27187905E-05
             1328   1.19417775E-04   4.80013259E-04   1.16943964E-04  -4.85813034E-05
             1329  -1.25726922E-08  -1.12610934E-08   1.49973178E-09   1.12668488E-08
             1330   2.86966292E-06   2.75774073E-06   1.73249973E-07  -3.52839379E-06
             1331   7.61232659E-05   3.52483825E-04   6.58735662E-05  -7.88994294E-05
             1332  -3.06959828E-06  -4.85690543E-06   3.15351599E-06   5.76555931E-06
             1333  -2.48472061E-04  -5.11321232E-05   1.11196030E-04   1.30264409E-04
             1334   2.15372271E-08   3.29462999E-08  -3.27740057E-09  -3.27512311E-08
             1335   4.62786801E-07  -3.74559363E-07   1.06580394E-07  -6.13188291E-08
             1336  -7.31019873E-06  -4.80738777E-07   1.90740343E-06   1.98285284E-06
             1337  -1.28713378E-04  -1.05477273E-04   1.67174774E-04   1.60793308E-04
             1338   1.87613587E-05   2.50093610E-04   2.10366215E-05  -1.04739784E-05
             1339   4.84770571E-05   3.17665923E-04   4.30014479E-05  -4.60150586E-05
             1340   1.06820464E-08  -5.15322540E-09  -6.50749010E-10  -2.40228859E-09
             1341   3.79190768E-09  -4.27714575E-09  -8.33755731E-10   6.50427379E-10
             1342   1.70365733E-04   1.10074070E-04   1.34273520E-04  -8.52589510E-05
             1343   1.12052774E-04   2.91396282E-04   7.66964949E-05  -1.12782160E-04
             1344  -8.71747119E-10   1.07325931E-07  -7.53639284E-09  -2.56610466E-08
             1345   1.38320480E-04   5.64083639E-05   1.48719759E-04  -4.25746766E-05
             1346  -3.89229506E-04  -2.16467524E-05   1.23845122E-04   1.05840380E-04
             1347   2.12299619E-05  -1.66593254E-05   1.17302588E-05   1.64703567E-06
             1348   4.68980517E-08  -5.38568585E-08   1.14359331E-08   1.09479892E-08
             1349   1.09872293E-04   1.81644937E-04   6.57951314E-05  -1.14304981E-04
             1350   1.63304492E-06  -5.73248087E-07   2.92390610E-07  -6.29849239E-07
             1351  -1.74743127E-05  -6.84063309E-07   4.56404223E-06   3.93812297E-06
             1352  -5.49558063E-05  -8.71843586E-05   1.06665662E-04   1.04431732E-04
             1353  -1.82090444E-04  -3.58687930E-06   4.62008175E-05   2.72335074E-05
             1354   5.98671832E-08   7.66458044E-08  -4.62235050E-09  -9.23564514E-08
             1355   4.79381233E-05  -5.90981617E-05   1.03155631E-04   2.85300866E-05
             1356   1.18761658E-08   9.14452336E-09  -4.95517405E-10  -1.20067583E-08
             1357   3.19503924E-05   1.69919786E-05   7.25451082E-06  -2.61600781E-05
             1358  -1.41719764E-04  -3.93238806E-05   6.24961831E-05   8.19037596E-05
             1359  -2.86898739E-06  -1.58688550E-07   7.26475264E-07   7.46266323E-07
             1360   1.39316748E-04   6.01046122E-05   8.50250944E-05  -8.23800219E-05
             1361  -4.39979522E-05  -4.84650684E-07   1.06051066E-05   1.77593301E-06
             1362  -1.72297035E-07   2.87987132E-06  -1.97908946E-07  -5.55124757E-07
             1363  -5.00412716E-06  -2.14310626E-06   2.09828363E-06   3.76238881E-06
             1364   1.23496147E-06   4.62960315E-06  -4.06785041E-08  -2.81813823E-06
             1365   9.63521779E-06   3.49172151E-05   1.72000102E-06  -1.92255920E-05
             1366  -1.82923145E-07   4.51289498E-06  -2.66581765E-07  -9.67396545E-07
             1367   1.47900559E-04   4.01336729E-04   1.32868125E-04  -1.17736476E-04
             1368  -4.07792104E-05  -5.57515614E-06   1.43019524E-05   2.42174156E-05
             1369   1.07436072E-07   8.82421176E-08  -3.83936483E-09  -1.36217380E-07
             1370   2.87206916E-07   4.88751596E-07  -9.36044664E-09  -4.47439533E-07
             1371   1.45338025E-04   4.08279127E-04   1.26690531E-04  -1.11361434E-04
             1372   6.60148487E-08   8.58273097E-09   7.87927834E-10  -5.32723732E-08
             1373   1.30626660E-07  -6.03350202E-07   2.19457092E-07   3.70275075E-07
             1374  -3.84153687E-09  -2.12004920E-08   4.45135573E-09   1.88300255E-08
             1375   4.39132819E-08   1.09483807E-07  -9.07484843E-09  -9.09186681E-08
             1376  -2.08873258E-04  -8.62379966E-05   1.50279113E-04   1.70260377E-04
             1377   1.38769086E-04   4.22867801E-04   1.20855118E-04  -1.01047568E-04
             1378   1.26709065E-05  -8.42827212E-05   1.56630122E-04   8.89421499E-05
             1379  -5.44935006E-07   1.80387051E-05  -5.16422858E-07  -1.77769618E-06
             1380  -4.14233483E-08   6.78336335E-07  -5.51514070E-08  -6.98479852E-08
             1381  -1.01026409E-07  -7.29878691E-09   1.79195059E-08   2.47121577E-08
             1382   6.39249674E-06   3.98086922E-05   9.94269385E-07  -1.77515049E-05
             1383  -3.57247976E-04  -8.53771780E-05   1.83083568E-04   1.97948830E-04
             1384   7.20699172E-05   3.82227619E-04   6.62235107E-05  -4.55310692E-05
             1385   1.26407991E-04   1.17575626E-04   6.63661340E-05  -1.01184363E-04
             1386   1.69075895E-04   2.80675740E-04   1.27552310E-04  -1.25063438E-04
             1387  -7.36596819E-04  -1.97487543E-06   1.82797958E-04   4.73657601E-05
             1388   3.79618496E-06   2.67579089E-05   1.38435666E-07  -1.01713604E-05
             1389   1.62127224E-04   3.25778936E-04   1.27132167E-04  -1.26143204E-04
             1390  -5.62056048E-05  -1.00798192E-04   1.61490752E-04   1.30359535E-04
             1391   4.07851185E-05   1.51883869E-04   1.87518981E-05  -6.77124262E-05
             1392  -2.59341377E-05  -1.89127131E-05   1.82810909E-05   2.81197335E-05
             1393   1.53939385E-04   3.68122361E-04   1.28482294E-04  -1.27334133E-04
             1394  -6.02968782E-07  -4.03837817E-08   1.43626977E-07   1.57973830E-07
             1395   1.22354732E-06   3.86933948E-07   7.47913447E-08  -1.10092526E-06
             1396   1.22027836E-06  -1.58673345E-06   6.16783609E-07   4.99529165E-07
             1397   3.63230720E-06   8.75882470E-05   1.40098086E-06  -1.28432857E-05
             1398   5.37570559E-05  -5.28539895E-05   1.22393496E-04   3.74007395E-05
             1399  -7.27940323E-06  -8.45539580E-06   6.53628058E-06   9.99179974E-06
             1400  -4.79505525E-06  -1.78874629E-07   1.21389508E-06   1.23021948E-06
             1401   1.18295116E-04   6.52760127E-06   8.88386276E-05  -3.97576077E-05
             1402   5.16393229E-05   4.79517112E-05   1.63010372E-05  -5.27370212E-05
             1403  -1.32689968E-06  -9.95805635E-07   7.58437636E-07   1.14096702E-06
             1404   1.38587772E-08   8.73883721E-08  -7.14186355E-09  -4.64086121E-08
             1405   1.58838084E-04   2.09471080E-04   1.06645537E-04  -1.18775897E-04
             1406  -2.43660523E-08  -6.63114541E-09   1.97144123E-09   1.50739989E-08
             1407  -7.50547861E-06  -3.96148789E-05   3.62287428E-05   3.98774646E-05
             1408  -1.34969298E-07   1.97508234E-06  -1.36137473E-07  -1.71567379E-07
             1409   7.89988241E-10   1.53136412E-07  -7.97279931E-09  -2.92720337E-08
             1410   8.17814882E-09   1.25080413E-09   7.67402031E-10  -2.59528377E-09
             1411   1.76480484E-07  -1.90307603E-07   6.05909847E-08   2.09965734E-08
             1412   1.21568894E-06  -2.95862287E-06   1.42351644E-06   1.56921544E-06
             1413  -2.43897625E-06  -1.33341082E-05   9.50155209E-06   1.26440655E-05
             1414   1.03317485E-04   1.95441680E-04   5.89000483E-05  -1.04395192E-04
             1415   9.81561680E-05   4.92972358E-05   4.18164855E-05  -6.52342205E-05
             1416  -1.18496055E-05  -3.54085478E-06   4.65509174E-06   6.73231852E-06
             1417  -1.13353543E-07  -3.94208044E-08   3.34119257E-08   6.40109192E-08
             1418  -1.30268973E-09   6.98011036E-08  -5.02214847E-09  -1.91056202E-08
             1419   7.63825810E-05   2.75104801E-04   5.13736195E-05  -9.12688556E-05
             1420   9.13749755E-05   4.12686320E-04   8.52321609E-05  -6.49774665E-05
             1421  -1.45612251E-08  -1.95029837E-09  -2.71274647E-09   4.53239712E-09
             1422  -2.03656127E-05  -7.23209178E-06   8.61715489E-06   1.36932358E-05
             1423   2.93806979E-10  -6.05306694E-09  -1.67693781E-09   3.29132299E-09
             1424   1.25715383E-06  -3.01626551E-05   2.33379888E-05   2.64905939E-05
             1425  -1.49898438E-09   2.21662802E-07  -1.61136100E-08  -9.40220417E-08
             1426   2.69506763E-05  -7.00519377E-05   7.74283180E-05   4.82381438E-05
             1427   1.70793632E-04   2.04638782E-04   1.31315202E-04  -1.16107243E-04
             1428  -5.26487129E-04  -4.91024693E-05   1.83737400E-04   1.64593002E-04
             1429   4.44880880E-06   4.23131041E-07   6.70073973E-07  -2.96822714E-06
             1430  -1.35840935E-04  -6.07415604E-05   8.72552409E-05   1.08896580E-04
             1431   1.19468066E-04   5.01952716E-04   1.20870514E-04  -1.40173461E-05
             1432   1.05241837E-04  -2.42513852E-06   1.09729590E-04  -3.26488371E-05
             1433   8.69973519E-06   1.08878288E-04   3.80299321E-06  -2.92064324E-05
             1434   6.39168138E-05   9.30405004E-05   2.70573018E-05  -7.88427933E-05
             1435   4.37263043E-05   2.31625236E-04   2.88384963E-05  -6.50662987E-05
             1436  -1.65866833E-04  -5.74800688E-05   7.89655387E-05   1.10454217E-04
             1437  -5.69273980E-05  -3.52446659E-05   4.04615894E-05   5.53175814E-05
             1438  -1.13215506E-07  -3.43961773E-07   1.56057610E-07   3.15989780E-07
             1439   5.78320351E-06  -5.35099025E-06   2.46124455E-06   4.04553020E-07
             1440   1.21536446E-04   4.94482927E-04   1.20637153E-04  -2.83173013E-05
             1441   1.56798194E-07   2.76287921E-07  -1.24422241E-08  -2.49047616E-07
             1442   9.22663546E-09   3.14622639E-08  -1.75995574E-09  -1.93439025E-08
             1443   2.39447286E-06   4.71463693E-07   2.59386468E-07  -1.85507156E-06
             1444   9.79057368E-05   4.65558143E-04   9.88763495E-05  -1.34502825E-05
             1445  -1.12351991E-05  -6.40133862E-07   2.92241043E-06   2.43450449E-06
             1446   1.54245587E-04   1.36997158E-04   1.02019498E-04  -1.04767554E-04
             1447  -4.46648628E-04  -6.30278300E-05   1.86098652E-04   1.85549754E-04
             1448  -6.34634111E-04  -4.73838190E-06   1.56985479E-04   4.27954037E-05
             1449   9.16224672E-05   3.61000304E-04   7.58642636E-05  -9.76569281E-05
             1450   3.46111392E-06   6.79002005E-06   1.52342182E-07  -5.36363223E-06
             1451  -4.90970331E-09  -9.41773060E-09  -2.45479720E-10   9.22394072E-09
             1452  -1.81820567E-07  -1.03585283E-08   3.97549726E-08   5.17575813E-08
             1453  -2.70902790E-04  -1.65266483E-05   7.40221003E-05   3.54163130E-05
             1454  -9.39323945E-05  -1.39008671E-06   2.64717401E-05   2.49775348E-05
             1455   2.96187454E-06   4.10972571E-05   3.08730364E-07  -7.76695651E-06
             1456   1.03708640E-04  -3.31715601E-05   1.44473815E-04   1.63199184E-05
             1457   8.62751767E-06   1.04587161E-06   1.35527603E-06  -6.01579814E-06
             1458  -2.81485292E-04  -9.36170400E-05   1.79475945E-04   1.88286765E-04
             1459  -2.25054668E-04  -6.96052884E-05   1.29319524E-04   1.54189969E-04
             1460   3.04582727E-07   3.31821648E-05  -1.94066985E-07  -5.21247375E-06
             1461   1.31780864E-04   2.09247839E-04   8.11587670E-05  -1.16277348E-04
             1462   1.65599758E-05   4.15189334E-06   3.20297386E-06  -1.20206969E-05
             1463  -2.89391101E-05  -1.99069791E-06   7.60817238E-06   6.78450488E-06
             1464  -3.29670205E-04  -6.43527437E-06   9.41493417E-05   7.49125902E-05
             1465  -7.09213452E-07  -1.48422473E-07   2.33315902E-07   3.55772357E-07
             1466   4.42513847E-05   3.26155510E-04   4.09731474E-05  -1.34172742E-05
             1467  -6.81428530E-04  -8.28092197E-06   1.85445984E-04   9.61707119E-05
             1468  -1.06729516E-04  -2.59498429E-05   4.48073333E-05   5.85102607E-05
             1469   1.38627787E-04   1.02906888E-04   8.29979472E-05  -1.06394247E-04
             1470   1.02341619E-06   2.04409480E-06  -5.14926546E-09  -1.42556780E-06
             1471  -1.34674789E-04  -1.20702680E-06   3.34881806E-05   1.95730827E-05
             1472   5.16165710E-05   2.81480665E-04   3.72755821E-05  -6.28067137E-05
             1473   1.22565307E-05   1.98731141E-05   1.62319236E-06  -1.63185505E-05
             1474   5.14127205E-05   3.85789259E-04   5.74373007E-05  -1.90995015E-05
             1475   3.72281756E-05  -3.22722262E-05   3.24818648E-05   9.82268557E-06
             1476   3.82811013E-05   8.92719036E-05   1.20353152E-05  -4.87138313E-05
             1477   8.65021605E-07  -2.42637014E-07   1.00408023E-07  -4.22792539E-07


